TITLE="results for TO code"
VARIABLES = "x", "y", "z", "density", "sigmaxx", "sigmayy", "sigmazz", "sigmaxy", "sigmaxz", "sigmayz"
ZONE T="load step 1", NODES= 12221, ELEMENTS= 10000, DATAPACKING=POINT, ZONETYPE=FEBRICK
               0.00000000                0.00000000                0.00000000                1.00000000               -0.00000000                0.00000000                1.17553742                0.00000000                0.42569219                0.73771763
               1.00000000                0.00000000                0.00000000                1.00000000               -0.00000000               -0.00000000                0.80747674                0.00000000                0.08474355                0.57302409
               2.00000000                0.00000000                0.00000000                1.00000000               -0.00000000                0.00000000                0.52317227               -0.00000000               -0.06515601                0.39738403
               3.00000000                0.00000000                0.00000000                1.00000000                0.00000000                0.00000000                0.31771340               -0.00000000               -0.12868521                0.24265781
               4.00000000                0.00000000                0.00000000                1.00000000                0.00000000                0.00000000                0.12943852               -0.00000000               -0.15740450                0.09818322
               5.00000000                0.00000000                0.00000000                1.00000000                0.00000000                0.00000000               -0.05160383               -0.00000000               -0.16242210               -0.04293515
               6.00000000                0.00000000                0.00000000                1.00000000               -0.00000000               -0.00000000               -0.23121077               -0.00000000               -0.14574718               -0.18250493
               7.00000000                0.00000000                0.00000000                1.00000000               -0.00000000                0.00000000               -0.41422723                0.00000000               -0.10252994               -0.32121934
               8.00000000                0.00000000                0.00000000                1.00000000                0.00000000               -0.00000000               -0.60726814                0.00000000               -0.01835657               -0.45908843
               9.00000000                0.00000000                0.00000000                1.00000000               -0.00000000               -0.00000000               -0.81879340                0.00000000                0.14799579               -0.59152897
              10.00000000                0.00000000                0.00000000                1.00000000                0.00000000               -0.00000000               -1.15481255                0.00000000                0.50286384               -0.70601067
               0.00000000                1.00000000                0.00000000                1.00000000               -0.00000000               -0.00000000                0.85521521                0.00000000                0.49478331                0.39953045
               1.00000000                1.00000000                0.00000000                1.00000000                0.00000000                0.00000000                0.48088718               -0.00000000                0.18146176                0.29929226
               2.00000000                1.00000000                0.00000000                1.00000000                0.00000000               -0.00000000                0.26957430               -0.00000000                0.04401790                0.18950733
               3.00000000                1.00000000                0.00000000                1.00000000                0.00000000                0.00000000                0.15933108                0.00000000               -0.01922442                0.11306569
               4.00000000                1.00000000                0.00000000                1.00000000                0.00000000               -0.00000000                0.06390266                0.00000000               -0.04757458                0.04432409
               5.00000000                1.00000000                0.00000000                1.00000000               -0.00000000               -0.00000000               -0.02397114               -0.00000000               -0.05327010               -0.02168278
               6.00000000                1.00000000                0.00000000                1.00000000                0.00000000                0.00000000               -0.11088115                0.00000000               -0.03958861               -0.08687622
               7.00000000                1.00000000                0.00000000                1.00000000                0.00000000               -0.00000000               -0.20226380                0.00000000               -0.00256532               -0.15241291
               8.00000000                1.00000000                0.00000000                1.00000000                0.00000000                0.00000000               -0.30601097                0.00000000                0.07119926               -0.21913233
               9.00000000                1.00000000                0.00000000                1.00000000                0.00000000                0.00000000               -0.42516993                0.00000000                0.21170001               -0.29158615
              10.00000000                1.00000000                0.00000000                1.00000000               -0.00000000                0.00000000               -0.71881225                0.00000000                0.49691853               -0.33823332
               0.00000000                2.00000000                0.00000000                1.00000000               -0.00000000                0.00000000                0.80334880               -0.00000000                0.53167682                0.23889786
               1.00000000                2.00000000                0.00000000                1.00000000               -0.00000000               -0.00000000                0.38568811                0.00000000                0.20246560                0.17684731
               2.00000000                2.00000000                0.00000000                1.00000000                0.00000000                0.00000000                0.18846131                0.00000000                0.07376695                0.10631815
               3.00000000                2.00000000                0.00000000                1.00000000               -0.00000000                0.00000000                0.11003541                0.00000000                0.01704872                0.06196594
               4.00000000                2.00000000                0.00000000                1.00000000               -0.00000000               -0.00000000                0.04261550               -0.00000000               -0.00767573                0.02342467
               5.00000000                2.00000000                0.00000000                1.00000000                0.00000000                0.00000000               -0.01761431               -0.00000000               -0.01297400               -0.01316126
               6.00000000                2.00000000                0.00000000                1.00000000               -0.00000000               -0.00000000               -0.07690899                0.00000000               -0.00234146               -0.04924890
               7.00000000                2.00000000                0.00000000                1.00000000                0.00000000               -0.00000000               -0.14027685               -0.00000000                0.02775117               -0.08582773
               8.00000000                2.00000000                0.00000000                1.00000000               -0.00000000                0.00000000               -0.21471950                0.00000000                0.08978811               -0.12424237
               9.00000000                2.00000000                0.00000000                1.00000000                0.00000000               -0.00000000               -0.30391964               -0.00000000                0.21021943               -0.16415040
              10.00000000                2.00000000                0.00000000                1.00000000               -0.00000000                0.00000000               -0.59613306                0.00000000                0.48351653               -0.19147374
               0.00000000                3.00000000                0.00000000                1.00000000               -0.00000000               -0.00000000                0.80851721                0.00000000                0.55299201                0.14054250
               1.00000000                3.00000000                0.00000000                1.00000000                0.00000000               -0.00000000                0.37603686               -0.00000000                0.21744211                0.10369326
               2.00000000                3.00000000                0.00000000                1.00000000               -0.00000000                0.00000000                0.18370461               -0.00000000                0.08622085                0.06019916
               3.00000000                3.00000000                0.00000000                1.00000000               -0.00000000               -0.00000000                0.10632765                0.00000000                0.02871658                0.03435643
               4.00000000                3.00000000                0.00000000                1.00000000               -0.00000000               -0.00000000                0.04056322               -0.00000000                0.00374058                0.01242603
               5.00000000                3.00000000                0.00000000                1.00000000                0.00000000                0.00000000               -0.01837897                0.00000000               -0.00183167               -0.00821238
               6.00000000                3.00000000                0.00000000                1.00000000                0.00000000               -0.00000000               -0.07644583               -0.00000000                0.00830407               -0.02857123
               7.00000000                3.00000000                0.00000000                1.00000000               -0.00000000               -0.00000000               -0.13854366                0.00000000                0.03760286               -0.04938700
               8.00000000                3.00000000                0.00000000                1.00000000                0.00000000               -0.00000000               -0.21188810                0.00000000                0.09836028               -0.07121377
               9.00000000                3.00000000                0.00000000                1.00000000               -0.00000000                0.00000000               -0.30175297                0.00000000                0.22008235               -0.09350076
              10.00000000                3.00000000                0.00000000                1.00000000                0.00000000                0.00000000               -0.60837512                0.00000000                0.50333800               -0.11410565
               0.00000000                4.00000000                0.00000000                1.00000000                0.00000000               -0.00000000                0.81295459               -0.00000000                0.56389146                0.06333321
               1.00000000                4.00000000                0.00000000                1.00000000               -0.00000000                0.00000000                0.37127786                0.00000000                0.22426448                0.04740009
               2.00000000                4.00000000                0.00000000                1.00000000               -0.00000000               -0.00000000                0.17986157                0.00000000                0.09221923                0.02719018
               3.00000000                4.00000000                0.00000000                1.00000000                0.00000000                0.00000000                0.10356543                0.00000000                0.03414916                0.01515662
               4.00000000                4.00000000                0.00000000                1.00000000                0.00000000               -0.00000000                0.03876936                0.00000000                0.00886617                0.00509054
               5.00000000                4.00000000                0.00000000                1.00000000                0.00000000               -0.00000000               -0.01919961               -0.00000000                0.00314841               -0.00435771
               6.00000000                4.00000000                0.00000000                1.00000000                0.00000000               -0.00000000               -0.07634792                0.00000000                0.01324177               -0.01370946
               7.00000000                4.00000000                0.00000000                1.00000000               -0.00000000               -0.00000000               -0.13762845               -0.00000000                0.04258805               -0.02330624
               8.00000000                4.00000000                0.00000000                1.00000000                0.00000000                0.00000000               -0.21051809                0.00000000                0.10394397               -0.03335916
               9.00000000                4.00000000                0.00000000                1.00000000                0.00000000               -0.00000000               -0.30085803               -0.00000000                0.22807137               -0.04394086
              10.00000000                4.00000000                0.00000000                1.00000000               -0.00000000                0.00000000               -0.61631913                0.00000000                0.51783495               -0.05479932
               0.00000000                5.00000000                0.00000000                1.00000000               -0.00000000                0.00000000                0.81178451               -0.00000000                0.56490314               -0.00521213
               1.00000000                5.00000000                0.00000000                1.00000000                0.00000000               -0.00000000                0.36881102                0.00000000                0.22518792               -0.00225019
               2.00000000                5.00000000                0.00000000                1.00000000               -0.00000000                0.00000000                0.17799208                0.00000000                0.09330935               -0.00100503
               3.00000000                5.00000000                0.00000000                1.00000000                0.00000000               -0.00000000                0.10199787                0.00000000                0.03538337               -0.00073286
               4.00000000                5.00000000                0.00000000                1.00000000                0.00000000                0.00000000                0.03752376                0.00000000                0.01014484               -0.00069884
               5.00000000                5.00000000                0.00000000                1.00000000               -0.00000000               -0.00000000               -0.02017173                0.00000000                0.00447587               -0.00076541
               6.00000000                5.00000000                0.00000000                1.00000000               -0.00000000                0.00000000               -0.07708140               -0.00000000                0.01463856               -0.00090342
               7.00000000                5.00000000                0.00000000                1.00000000                0.00000000                0.00000000               -0.13818986                0.00000000                0.04415639               -0.00108926
               8.00000000                5.00000000                0.00000000                1.00000000                0.00000000               -0.00000000               -0.21104806                0.00000000                0.10597469               -0.00127914
               9.00000000                5.00000000                0.00000000                1.00000000                0.00000000               -0.00000000               -0.30172598               -0.00000000                0.23109661               -0.00148401
              10.00000000                5.00000000                0.00000000                1.00000000               -0.00000000               -0.00000000               -0.62050353                0.00000000                0.52338063               -0.00214672
               0.00000000                6.00000000                0.00000000                1.00000000                0.00000000                0.00000000                0.80405536                0.00000000                0.55676835               -0.07317219
               1.00000000                6.00000000                0.00000000                1.00000000               -0.00000000               -0.00000000                0.36691884                0.00000000                0.22066269               -0.05124230
               2.00000000                6.00000000                0.00000000                1.00000000                0.00000000               -0.00000000                0.17688381                0.00000000                0.09001211               -0.02862134
               3.00000000                6.00000000                0.00000000                1.00000000               -0.00000000               -0.00000000                0.10098650                0.00000000                0.03266947               -0.01612671
               4.00000000                6.00000000                0.00000000                1.00000000                0.00000000                0.00000000                0.03652563                0.00000000                0.00781335               -0.00609489
               5.00000000                6.00000000                0.00000000                1.00000000                0.00000000               -0.00000000               -0.02118867               -0.00000000                0.00236366                0.00309731
               6.00000000                6.00000000                0.00000000                1.00000000                0.00000000               -0.00000000               -0.07813538               -0.00000000                0.01264466                0.01203957
               7.00000000                6.00000000                0.00000000                1.00000000               -0.00000000               -0.00000000               -0.13928830               -0.00000000                0.04221045                0.02109850
               8.00000000                6.00000000                0.00000000                1.00000000               -0.00000000                0.00000000               -0.21213465                0.00000000                0.10406231                0.03063825
               9.00000000                6.00000000                0.00000000                1.00000000               -0.00000000                0.00000000               -0.30254069                0.00000000                0.22904898                0.04090808
              10.00000000                6.00000000                0.00000000                1.00000000                0.00000000                0.00000000               -0.61906914                0.00000000                0.52013917                0.05088208
               0.00000000                7.00000000                0.00000000                1.00000000                0.00000000               -0.00000000                0.78972379               -0.00000000                0.53833950               -0.14865544
               1.00000000                7.00000000                0.00000000                1.00000000                0.00000000               -0.00000000                0.36617084                0.00000000                0.20995944               -0.10527018
               2.00000000                7.00000000                0.00000000                1.00000000                0.00000000               -0.00000000                0.17677442                0.00000000                0.08162191               -0.05951880
               3.00000000                7.00000000                0.00000000                1.00000000               -0.00000000                0.00000000                0.10061435               -0.00000000                0.02553139               -0.03349100
               4.00000000                7.00000000                0.00000000                1.00000000                0.00000000               -0.00000000                0.03578530                0.00000000                0.00137646               -0.01202513
               5.00000000                7.00000000                0.00000000                1.00000000                0.00000000               -0.00000000               -0.02228568                0.00000000               -0.00369502                0.00781508
               6.00000000                7.00000000                0.00000000                1.00000000               -0.00000000                0.00000000               -0.07958695               -0.00000000                0.00673816                0.02719233
               7.00000000                7.00000000                0.00000000                1.00000000                0.00000000                0.00000000               -0.14106744                0.00000000                0.03626066                0.04690362
               8.00000000                7.00000000                0.00000000                1.00000000                0.00000000               -0.00000000               -0.21402425               -0.00000000                0.09757482                0.06750632
               9.00000000                7.00000000                0.00000000                1.00000000                0.00000000                0.00000000               -0.30370491                0.00000000                0.22123365                0.08948388
              10.00000000                7.00000000                0.00000000                1.00000000               -0.00000000                0.00000000               -0.61184828                0.00000000                0.50691204                0.11173526
               0.00000000                8.00000000                0.00000000                1.00000000                0.00000000                0.00000000                0.77258284               -0.00000000                0.50677065               -0.24349001
               1.00000000                8.00000000                0.00000000                1.00000000               -0.00000000                0.00000000                0.37095458                0.00000000                0.19005813               -0.17325688
               2.00000000                8.00000000                0.00000000                1.00000000               -0.00000000               -0.00000000                0.17975620                0.00000000                0.06635193               -0.10026733
               3.00000000                8.00000000                0.00000000                1.00000000               -0.00000000               -0.00000000                0.10186509                0.00000000                0.01212035               -0.05637809
               4.00000000                8.00000000                0.00000000                1.00000000               -0.00000000                0.00000000                0.03560828               -0.00000000               -0.01106199               -0.01975209
               5.00000000                8.00000000                0.00000000                1.00000000               -0.00000000               -0.00000000               -0.02375241               -0.00000000               -0.01548796                0.01432973
               6.00000000                8.00000000                0.00000000                1.00000000               -0.00000000               -0.00000000               -0.08231724                0.00000000               -0.00480483                0.04778453
               7.00000000                8.00000000                0.00000000                1.00000000               -0.00000000                0.00000000               -0.14510220               -0.00000000                0.02463430                0.08168185
               8.00000000                8.00000000                0.00000000                1.00000000               -0.00000000                0.00000000               -0.21913978                0.00000000                0.08559737                0.11746064
               9.00000000                8.00000000                0.00000000                1.00000000               -0.00000000               -0.00000000               -0.30858644                0.00000000                0.20577227                0.15481991
              10.00000000                8.00000000                0.00000000                1.00000000                0.00000000                0.00000000               -0.60156978                0.00000000                0.48100035                0.19179624
               0.00000000                9.00000000                0.00000000                1.00000000               -0.00000000               -0.00000000                0.75630504               -0.00000000                0.45172358               -0.38737234
               1.00000000                9.00000000                0.00000000                1.00000000                0.00000000                0.00000000                0.38710195                0.00000000                0.15800529               -0.27779215
               2.00000000                9.00000000                0.00000000                1.00000000               -0.00000000                0.00000000                0.18516480               -0.00000000                0.03732280               -0.16333981
               3.00000000                9.00000000                0.00000000                1.00000000                0.00000000               -0.00000000                0.10419007                0.00000000               -0.01519653               -0.09204792
               4.00000000                9.00000000                0.00000000                1.00000000               -0.00000000               -0.00000000                0.03570067               -0.00000000               -0.03632269               -0.03208842
               5.00000000                9.00000000                0.00000000                1.00000000                0.00000000                0.00000000               -0.02552511                0.00000000               -0.03955701                0.02466138
               6.00000000                9.00000000                0.00000000                1.00000000                0.00000000                0.00000000               -0.08593300                0.00000000               -0.02837953                0.08053199
               7.00000000                9.00000000                0.00000000                1.00000000               -0.00000000               -0.00000000               -0.15076010               -0.00000000                0.00109199                0.13700842
               8.00000000                9.00000000                0.00000000                1.00000000                0.00000000                0.00000000               -0.22740990                0.00000000                0.06224563                0.19546736
               9.00000000                9.00000000                0.00000000                1.00000000               -0.00000000                0.00000000               -0.31910862                0.00000000                0.18424477                0.26070749
              10.00000000                9.00000000                0.00000000                1.00000000               -0.00000000               -0.00000000               -0.58734156                0.00000000                0.44064017                0.31848606
               0.00000000               10.00000000                0.00000000                1.00000000                0.00000000                0.00000000                0.99464400               -0.00000000                0.36860808               -0.68422549
               1.00000000               10.00000000                0.00000000                1.00000000               -0.00000000               -0.00000000                0.61042645               -0.00000000                0.05522829               -0.49602396
               2.00000000               10.00000000                0.00000000                1.00000000               -0.00000000               -0.00000000                0.32565100                0.00000000               -0.05731835               -0.30418898
               3.00000000               10.00000000                0.00000000                1.00000000               -0.00000000                0.00000000                0.18665087               -0.00000000               -0.09431535               -0.17407772
               4.00000000               10.00000000                0.00000000                1.00000000                0.00000000               -0.00000000                0.06395010                0.00000000               -0.10902228               -0.06070687
               5.00000000               10.00000000                0.00000000                1.00000000               -0.00000000               -0.00000000               -0.04962418                0.00000000               -0.10976913                0.04737385
               6.00000000               10.00000000                0.00000000                1.00000000               -0.00000000               -0.00000000               -0.16166601               -0.00000000               -0.09780489                0.15362809
               7.00000000               10.00000000                0.00000000                1.00000000               -0.00000000                0.00000000               -0.27818683               -0.00000000               -0.06848682                0.26039233
               8.00000000               10.00000000                0.00000000                1.00000000               -0.00000000                0.00000000               -0.40669905               -0.00000000               -0.00811135                0.36910727
               9.00000000               10.00000000                0.00000000                1.00000000               -0.00000000               -0.00000000               -0.55490859                0.00000000                0.11951031                0.48105902
              10.00000000               10.00000000                0.00000000                1.00000000                0.00000000                0.00000000               -0.84420420                0.00000000                0.41549211                0.60288219
               0.00425692                0.00737718                1.01175537                0.92868010               -0.34094863               -0.33818718                1.17848362               -0.09560243                0.01077919                0.29668369
               1.00084744                0.00573024                1.00807477                0.82219373               -0.24542410               -0.27373183                0.90877376               -0.07344859               -0.11079877                0.17514751
               1.99934844                0.00397384                1.00523172                0.78434985               -0.10671438               -0.20787670                0.62738808               -0.05600923               -0.16528055                0.12183194
               2.99871315                0.00242658                1.00317713                0.76390762               -0.04612425               -0.12959211                0.38530511               -0.04013961               -0.20085836                0.07899808
               3.99842596                0.00098183                1.00129439                0.75364944               -0.01686844               -0.05385913                0.15943892               -0.03296656               -0.23023637                0.03152712
               4.99837578               -0.00042935                0.99948396                0.75141021                0.00582866                0.02125237               -0.06054580               -0.03119208               -0.23542175               -0.01656032
               5.99854253               -0.00182505                0.99768789                0.75664747                0.02994608                0.09562871               -0.27985097               -0.03298352               -0.21639675               -0.06431972
               6.99897470               -0.00321219                0.99585773                0.76971525                0.06369531                0.16880643               -0.50343786               -0.03832713               -0.17071031               -0.11035986
               7.99981643               -0.00459088                0.99392732                0.79210059                0.12526286                0.23995610               -0.73708858               -0.04559898               -0.09164411               -0.15272082
               9.00147996               -0.00591529                0.99181207                0.82733079                0.26061020                0.29994282               -0.99798105               -0.05975689               -0.01534769               -0.18267705
              10.00502864               -0.00706011                0.98845187                0.92948401                0.35486805                0.36777735               -1.27555060               -0.12042701                0.11151443               -0.25730135
               0.00494783                1.00399530                1.00855215                0.84033347               -0.31332154               -0.24940989                1.04004812               -0.04724587                0.12015421                0.25968773
               1.00181462                1.00299292                1.00480887                0.61658867               -0.22538270               -0.19808839                0.76588651               -0.04615054                0.02086343                0.14683171
               2.00044018                1.00189507                1.00269574                0.55160792               -0.10034309               -0.14553294                0.51528207               -0.02365181                0.01885322                0.09460808
               2.99980776                1.00113066                1.00159331                0.51971432               -0.04579624               -0.09034594                0.31150041                0.00027534               -0.00492837                0.06005540
               3.99952425                1.00044324                1.00063903                0.50399617               -0.01702284               -0.03737927                0.12794552                0.00749015               -0.03425442                0.02254955
               4.99946730                0.99978317                0.99976029                0.50052221                0.00399299                0.01488694               -0.04792423                0.00912389               -0.03950621               -0.01468004
               5.99960411                0.99913124                0.99889119                0.50827074                0.02535239                0.06662802               -0.22292282                0.00633779               -0.02263507               -0.05144172
               6.99997435                0.99847587                0.99797736                0.52795520                0.05539394                0.11769580               -0.40353711               -0.00098750                0.01844857               -0.08684325
               8.00071199                0.99780868                0.99693989                0.56249485                0.10713267                0.16742303               -0.59693455               -0.01551428                0.09386405               -0.11979142
               9.00211700                0.99708414                0.99574830                0.61856082                0.21285963                0.21368928               -0.81657081               -0.02843867                0.14742822               -0.14491235
              10.00496919                0.99661767                0.99281188                0.83528572                0.28521852                0.25726847               -1.08842584               -0.05632082                0.27458158               -0.21166877
               0.00531677                2.00238898                1.00803349                0.82877239               -0.32921122               -0.12949398                1.00088038               -0.03294619                0.14636522                0.26860157
               1.00202466                2.00176847                1.00385688                0.59599849               -0.22895494               -0.09779950                0.70382623               -0.04829968                0.06176355                0.18598616
               2.00073767                2.00106318                1.00188461                0.53881473               -0.09270844               -0.06465408                0.46610602               -0.03633921                0.08852777                0.12931560
               3.00017049                2.00061966                1.00110035                0.51400245               -0.04072134               -0.03935463                0.27788680               -0.01747624                0.06834968                0.08030697
               3.99992324                2.00023425                1.00042615                0.50205403               -0.01501136               -0.01594903                0.11194519               -0.01190602                0.03646524                0.03062392
               4.99987026                1.99986839                0.99982386                0.49942205                0.00266713                0.00673520               -0.04563808               -0.01061757                0.03069483               -0.01911254
               5.99997659                1.99950751                0.99923091                0.50514484                0.02036258                0.02915250               -0.20210140               -0.01238689                0.04711262               -0.06835102
               7.00027751                1.99914172                0.99859723                0.51991755                0.04606479                0.05151295               -0.36477537               -0.01741265                0.08856734               -0.11641790
               8.00089788                1.99875758                0.99785280                0.54669140                0.09123413                0.07395928               -0.54181807               -0.02558083                0.16635514               -0.16245073
               9.00210219                1.99835850                0.99696080                0.59272964                0.19686421                0.09904269               -0.75212489               -0.02942452                0.21479281               -0.20698445
              10.00483517                1.99808526                0.99403867                0.81936129                0.27329710                0.11206383               -1.05195062               -0.02411360                0.35384926               -0.27092721
               0.00552992                3.00140542                1.00808517                0.82643470               -0.33554990               -0.08778232                0.99481552               -0.02074192                0.16606244                0.18013050
               1.00217442                3.00103693                1.00376037                0.59125871               -0.23338558               -0.06472361                0.68217061               -0.02927223                0.08646544                0.13828855
               2.00086221                3.00060199                1.00183705                0.53615046               -0.09436276               -0.03956398                0.44717157               -0.02544228                0.11972246                0.09983453
               3.00028717                3.00034356                1.00106328                0.51282992               -0.04124014               -0.02340466                0.26385555               -0.01533634                0.09667333                0.06060519
               4.00003741                3.00012426                1.00040563                0.50171970               -0.01527412               -0.00916706                0.10420306               -0.01301345                0.06426336                0.02291013
               4.99998168                2.99991788                0.99981621                0.49934009                0.00228175                0.00440178               -0.04640835               -0.01243743                0.05807625               -0.01451048
               6.00008304                2.99971429                0.99923554                0.50473309                0.01971726                0.01776972               -0.19586466               -0.01279569                0.07447485               -0.05167891
               7.00037603                2.99950613                0.99861456                0.51864057                0.04502811                0.03126074               -0.35219227               -0.01390283                0.11621473               -0.08854782
               8.00098360                2.99928786                0.99788112                0.54422765                0.09123974                0.04544161               -0.52497218               -0.01497895                0.19437123               -0.12537738
               9.00220082                2.99906499                0.99698247                0.58947718                0.20248886                0.06010477               -0.73648826               -0.01251997                0.23820681               -0.16304707
              10.00503338                2.99885894                0.99391625                0.81816399                0.28325565                0.06833721               -1.05194013               -0.00344568                0.37684530               -0.20843151
               0.00563891                4.00063333                1.00812955                0.82568943               -0.33962698               -0.07287731                0.99399585               -0.00997756                0.17346948                0.08300462
               1.00224264                4.00047400                1.00371278                0.58933459               -0.23583612               -0.05297172                0.67320373               -0.01419861                0.09650149                0.06536928
               2.00092219                4.00027190                1.00179862                0.53498830               -0.09505766               -0.03060210                0.43896480               -0.01257748                0.13460747                0.04673846
               3.00034149                4.00015157                1.00103565                0.51232030               -0.04167653               -0.01754464                0.25731858               -0.00771643                0.11139886                0.02817746
               4.00008866                4.00005091                1.00038769                0.50160586               -0.01550037               -0.00656244                0.09978101               -0.00655503                0.07874828                0.01024060
               5.00003148                3.99995642                0.99980800                0.49937356                0.00218780                0.00372349               -0.04841952               -0.00624623                0.07252883               -0.00745362
               6.00013242                3.99986291                0.99923652                0.50467071                0.01971982                0.01383390               -0.19549983               -0.00630702                0.08906341               -0.02509883
               7.00042588                3.99976694                0.99862372                0.51828118                0.04535110                0.02414887               -0.34992752               -0.00654809                0.13106680               -0.04282471
               8.00103944                3.99966641                0.99789482                0.54351877                0.09274166                0.03496731               -0.52199318               -0.00651011                0.20951041               -0.06086618
               9.00228071                3.99956059                0.99699142                0.58881284                0.20694549                0.04600837               -0.73536965               -0.00521295                0.25070964               -0.07925861
              10.00517835                3.99945201                0.99383681                0.81828844                0.28976358                0.05597946               -1.06004179               -0.00083715                0.39028445               -0.10186825
               0.00564903                4.99994788                1.00811785                0.82518586               -0.33971523               -0.06825270                0.99074630               -0.00059961                0.17497242               -0.00751985
               1.00225188                4.99997750                1.00368811                0.58839629               -0.23579689               -0.04932119                0.66802103                0.00030265                0.09880906               -0.00269742
               2.00093309                4.99998995                1.00177992                0.53446016               -0.09490227               -0.02790576                0.43420681               -0.00034489                0.13809088               -0.00117387
               3.00035383                4.99999267                1.00101998                0.51207144               -0.04158226               -0.01564166                0.25327707               -0.00058675                0.11512728               -0.00068298
               4.00010145                4.99999301                1.00037524                0.50153978               -0.01545375               -0.00559272                0.09652081               -0.00054268                0.08272272               -0.00050762
               5.00004476                4.99999235                0.99979828                0.49940772                0.00224686                0.00372751               -0.05083487               -0.00049466                0.07667863               -0.00051544
               6.00014639                4.99999097                0.99922919                0.50473279                0.01984026                0.01287452               -0.19711690               -0.00046048                0.09339763               -0.00067922
               7.00044156                4.99998911                0.99861810                0.51832129                0.04566806                0.02220237               -0.35096497               -0.00037666                0.13560812               -0.00102240
               8.00105975                4.99998721                0.99788952                0.54354823                0.09347011                0.03199870               -0.52289417               -0.00013821                0.21431225               -0.00152243
               9.00231097                4.99998516                0.99698274                0.58900852                0.20870297                0.04242447               -0.73698599                0.00005501                0.25498138               -0.00217135
              10.00523381                4.99997853                0.99379496                0.81860207                0.29228402                0.05284070               -1.06475308                0.00048940                0.39504646               -0.00366004
               0.00556768                5.99926828                1.00804055                0.82455194               -0.33610566               -0.07172166                0.98368554                0.00864807                0.17102285               -0.09768243
               1.00220663                5.99948758                1.00366919                0.58789282               -0.23337812               -0.05151000                0.66507113                0.01466119                0.09412346               -0.07045978
               2.00090012                5.99971379                1.00176884                0.53428800               -0.09399661               -0.02925688                0.43189897                0.01171408                0.13155327               -0.04884626
               3.00032669                5.99983873                1.00100986                0.51195580               -0.04109938               -0.01637907                0.25098396                0.00633723                0.10897021               -0.02919873
               4.00007813                5.99993905                1.00036526                0.50147723               -0.01515291               -0.00566314                0.09404299                0.00522782                0.07708677               -0.01082433
               5.00002364                6.00003097                0.99978811                0.49941855                0.00241566                0.00429025               -0.05354728                0.00498179                0.07140609                0.00697744
               6.00012645                6.00012040                0.99921865                0.50484961                0.01992340                0.01404788               -0.20008298                0.00505039                0.08832324                0.02440771
               7.00042210                6.00021098                0.99860712                0.51857765                0.04570883                0.02399644               -0.35417201                0.00535147                0.13065438                0.04155319
               8.00104062                6.00030638                0.99787865                0.54395371                0.09341926                0.03439273               -0.52619442                0.00570486                0.20958526                0.05861109
               9.00229049                6.00040908                0.99697459                0.58946533                0.20803843                0.04548395               -0.73978142                0.00519044                0.25134059                0.07581434
              10.00520139                6.00050882                0.99380931                0.81872016                0.29109019                0.05694099               -1.06512420                0.00173971                0.39187176                0.09601689
               0.00538340                6.99851345                1.00789724                0.82400699               -0.32838006               -0.08515891                0.97371242                0.01838641                0.16096513               -0.19323030
               1.00209959                6.99894730                1.00366171                0.58812022               -0.22835880               -0.06100729                0.66543930                0.02926604                0.08126270               -0.14069949
               2.00081622                6.99940481                1.00176774                0.53460316               -0.09221403               -0.03582300                0.43263780                0.02405950                0.11355340               -0.09899227
               3.00025531                6.99966509                1.00100614                0.51203031               -0.04012273               -0.02012569                0.25069263                0.01347227                0.09170562               -0.05941487
               4.00001376                6.99987975                1.00035785                0.50144295               -0.01461321               -0.00682860                0.09237344                0.01121537                0.06070704               -0.02155704
               4.99996305                7.00007815                0.99977714                0.49942794                0.00268085                0.00561621               -0.05668275                0.01068292                0.05558054                0.01554981
               6.00006738                7.00027192                0.99920413                0.50506563                0.01997784                0.01787248               -0.20467001                0.01081953                0.07269244                0.05205727
               7.00036261                7.00046904                0.99858933                0.51914455                0.04541833                0.03029168               -0.36000807                0.01136892                0.11497902                0.08794797
               8.00097575                7.00067506                0.99785976                0.54490894                0.09248650                0.04341120               -0.53262157                0.01205766                0.19391027                0.12348177
               9.00221234                7.00089484                0.99696295                0.59047668                0.20466861                0.05695591               -0.74473414                0.01047611                0.23858162                0.15933327
              10.00506912                7.00111735                0.99388152                0.81883255                0.28567839                0.07045708               -1.06191767                0.00268197                0.37983471                0.20387595
               0.00506771                7.99756510                1.00772583                0.82474608               -0.31671252               -0.11935845                0.96480178                0.02692517                0.14068337               -0.30290858
               1.00190058                7.99826743                1.00370955                0.59074200               -0.22020936               -0.08626098                0.67359076                0.04563426                0.05556149               -0.21850511
               2.00066352                7.99899733                1.00179756                0.53619054               -0.08896889               -0.05191051                0.43920702                0.03628984                0.07862725               -0.15813305
               3.00012120                7.99943622                1.00101865                0.51263485               -0.03870696               -0.02927846                0.25383692                0.01989366                0.05896295               -0.09562733
               3.99988938                7.99980248                1.00035608                0.50157050               -0.01380416               -0.01003164                0.09195073                0.01650433                0.02945334               -0.03431369
               4.99984512                8.00014330                0.99976248                0.49953851                0.00312858                0.00842315               -0.06073271                0.01583732                0.02511140                0.02630721
               5.99995195                8.00047785                0.99917683                0.50561539                0.02006113                0.02666983               -0.21232371                0.01611722                0.04245942                0.08608216
               7.00024634                8.00081682                0.99854898                0.52056099                0.04520110                0.04505240               -0.37100765                0.01725372                0.08451712                0.14460760
               8.00085597                8.00117461                0.99780860                0.54745183                0.09056898                0.06398052               -0.54587243                0.01890443                0.16301336                0.20141227
               9.00205772                8.00154820                0.99691414                0.59377343                0.19770149                0.08561180               -0.75647992                0.01867336                0.21299203                0.25740702
              10.00481000                8.00191796                0.99398430                0.82005694                0.27522808                0.10337540               -1.05920389                0.00384040                0.35536413                0.33209245
               0.00451724                8.99612628                1.00756305                0.82959583               -0.29371829               -0.22036774                0.98041400                0.04049890                0.10409827               -0.31936563
               1.00158005                8.99722208                1.00387102                0.59960642               -0.20720039               -0.16138354                0.71125944                0.04460135                0.00456433               -0.22370013
               2.00037323                8.99836660                1.00185165                0.54089077               -0.08660091               -0.10196082                0.46386291                0.03103698                0.01472514               -0.17462854
               2.99984803                8.99907952                1.00104190                0.51465863               -0.03682275               -0.05884981                0.26740045                0.01240784                0.00169152               -0.10685463
               3.99963677                8.99967912                1.00035701                0.50236104               -0.01218024               -0.02047739                0.09521552                0.00937450               -0.02600535               -0.03818809
               4.99960443                9.00024661                0.99974475                0.50019969                0.00397158                0.01652206               -0.06794597                0.00916962               -0.02928118                0.03063465
               5.99971620                9.00080532                0.99914067                0.50721658                0.02032450                0.05292178               -0.23000528                0.00967349               -0.01139554                0.09876042
               7.00001092                9.00137008                0.99849240                0.52416072                0.04531258                0.08935524               -0.39881398                0.01090712                0.03047754                0.16488081
               8.00062246                9.00195467                0.99772590                0.55397473                0.09157639                0.12582332               -0.58304240                0.01499518                0.10787275                0.22744535
               9.00184245                9.00260707                0.99680891                0.60353655                0.18919727                0.16311955               -0.79775547                0.01837837                0.16702113                0.28273646
              10.00440640                9.00318486                0.99412658                0.82526446                0.25639541                0.20554298               -1.08029375                0.02502445                0.31369743                0.36774053
               0.00368608                9.99315775                1.00994644                0.91953177               -0.31337979               -0.29685315                1.09305362                0.10508604               -0.02113450               -0.36046471
               1.00055228                9.99503976                1.00610426                0.80694351               -0.21296321               -0.21823181                0.83109063                0.08724126               -0.14036669               -0.26346957
               1.99942682                9.99695811                1.00325651                0.77414376               -0.07477182               -0.14084917                0.54798770                0.06633197               -0.15524937               -0.21972812
               2.99905685                9.99825922                1.00186651                0.75904543               -0.02585197               -0.08202980                0.31913534                0.04262224               -0.15605902               -0.13623581
               3.99890978                9.99939293                1.00063950                0.75199541               -0.00772689               -0.02861845                0.11190995                0.03802619               -0.18070865               -0.04849149
               4.99890231               10.00047374                0.99950376                0.75080353                0.00560870                0.02271247               -0.08752028                0.03695535               -0.18195418                0.04121606
               5.99902195               10.00153628                0.99838334                0.75496988                0.02064116                0.07309610               -0.28577571                0.03708388               -0.16221195                0.13036589
               6.99931513               10.00260392                0.99721813                0.76485749                0.04484677                0.12338391               -0.48960578                0.03816079               -0.11794935                0.21646791
               7.99991889               10.00369107                0.99593301                0.78190882                0.09399857                0.17363992               -0.70657565                0.03997637               -0.03962294                0.29644820
               9.00119510               10.00481059                0.99445091                0.80963171                0.21180173                0.22035153               -0.95373936                0.05215301                0.03579640                0.36153787
              10.00415492               10.00602882                0.99155796                0.91764408                0.29598180                0.28439613               -1.23498687                0.09667511                0.18577964                0.45335607
               0.00757680                0.01234012                2.02356967                0.92793375               -0.32691213               -0.34244773                1.17837768                0.00074710               -0.09942150                0.13411785
               1.00430768                0.01003474                2.01817548                0.82646516               -0.29923875               -0.28802209                0.98610986               -0.04497583               -0.10773544                0.05059192
               2.00159202                0.00750860                2.01254776                0.78867609               -0.21937529               -0.22693271                0.72850642               -0.06429636               -0.14576414                0.04240291
               2.99992017                0.00474761                2.00770610                0.76574315               -0.12517888               -0.14697203                0.45475382               -0.07456904               -0.16054872                0.02828280
               3.99908844                0.00194126                2.00318878                0.75353582               -0.05110562               -0.06220384                0.19135872               -0.07562452               -0.18105382                0.01053740
               4.99889806               -0.00088386                1.99878908                0.75089003                0.01049271                0.02503642               -0.06700833               -0.07574671               -0.18588368               -0.00808541
               5.99929830               -0.00369299                1.99440298                0.75726793                0.07241549                0.11211345               -0.32551258               -0.07493766               -0.17016520               -0.02654992
               7.00034637               -0.00644647                1.98993124                0.77315698                0.14572402                0.19700970               -0.58916293               -0.07193845               -0.13550354               -0.04403289
               8.00221278               -0.00907956                1.98525823                0.80004941                0.24110614                0.27582450               -0.86311454               -0.06462092               -0.09841618               -0.06014933
               9.00516849               -0.01152601                1.98004038                0.83799308                0.33689462                0.34790256               -1.14857514               -0.04851498               -0.06704126               -0.06917690
              10.00895067               -0.01386603                1.97448899                0.93233881                0.37821815                0.40458628               -1.36636033                0.00737832               -0.07197878               -0.16247567
               0.00988964                1.00891564                2.02080096                0.85444889               -0.36159672               -0.32505533                1.24305553                0.00907402                0.00118129                0.21795513
               1.00627368                1.00715452                2.01531773                0.64711374               -0.31485097               -0.26332575                1.05527492               -0.02999499                0.00403625                0.12411033
               2.00359263                1.00523927                2.01030564                0.57041521               -0.21577643               -0.20317946                0.78164458               -0.04707863                0.00192057                0.10059880
               3.00195815                1.00327789                2.00623001                0.52801897               -0.12223458               -0.13057173                0.48489593               -0.05073843                0.00186340                0.06383482
               4.00114793                1.00131922                2.00255891                0.50563305               -0.05002176               -0.05476934                0.20162983               -0.04970134               -0.01057799                0.02406109
               5.00095771                0.99936650                1.99904152                0.50077542                0.00911456                0.02228439               -0.07544031               -0.04899948               -0.01249173               -0.01666817
               6.00133023                0.99742815                1.99554154                0.51230700                0.06812779                0.09908066               -0.35212725               -0.04861469                0.00213157               -0.05679328
               7.00232027                0.99552363                1.99192926                0.54114078                0.13880586                0.17404531               -0.63401610               -0.04731891                0.03272105               -0.09535759
               8.00410634                0.99367869                1.98806131                0.59028463                0.23781538                0.24446582               -0.92589206               -0.04099322                0.07054939               -0.13149903
               9.00707658                0.99195302                1.98366858                0.66073148                0.36290677                0.30760758               -1.23334275               -0.02786770                0.08545096               -0.16499506
              10.01136448                0.99017983                1.97823148                0.85528471                0.42879007                0.36715588               -1.46568430                0.02121051                0.09604371               -0.28647831
               0.01128052                2.00583901                2.02001761                0.84669290               -0.38963722               -0.27045443                1.22579200               -0.00301795                0.03369436                0.25287421
               1.00738415                2.00476823                2.01407652                0.63182392               -0.33767178               -0.21223235                1.04288813               -0.03451226                0.07138621                0.16775535
               2.00452708                2.00344501                2.00932212                0.55863839               -0.22793471               -0.15782916                0.76857629               -0.05665686                0.09311020                0.12988885
               3.00282545                2.00213617                2.00555774                0.52281000               -0.12606403               -0.10005421                0.47142000               -0.05962025                0.08926000                0.08118829
               4.00200580                2.00084587                2.00223890                0.50428727               -0.05081551               -0.04112787                0.19287488               -0.05949733                0.07544320                0.03027166
               5.00180914                1.99956183                1.99908724                0.50030606                0.00815380                0.01795698               -0.07772266               -0.05916723                0.07353715               -0.02147951
               6.00216888                1.99828863                1.99595797                0.50968595                0.06701552                0.07663316               -0.34772445               -0.05832340                0.08978836               -0.07274867
               7.00314945                1.99703444                1.99270449                0.53336829                0.13973264                0.13394641               -0.62441795               -0.05602110                0.12405454               -0.12284039
               8.00496353                1.99580976                1.98916364                0.57469620                0.24802699                0.18858765               -0.91542805               -0.04975619                0.16576945               -0.17208136
               9.00810999                1.99462614                1.98495750                0.63615015                0.39788614                0.23777135               -1.23468863               -0.03401215                0.15988914               -0.22988608
              10.01292125                1.99347708                1.97896099                0.84025673                0.48112617                0.29267004               -1.48668558                0.00033786                0.15117459               -0.34301458
               0.01197086                3.00350655                2.01989631                0.84364324               -0.39934209               -0.21057961                1.20523947               -0.00854756                0.04892485                0.18471633
               1.00797743                3.00290987                2.01364341                0.62734773               -0.34396573               -0.16942913                1.01691527               -0.02735250                0.10290488                0.13404353
               2.00509154                3.00208269                2.00894343                0.55630561               -0.23062772               -0.12265573                0.74279326               -0.03954393                0.14242489                0.10281123
               3.00336488                3.00127680                2.00527711                0.52182695               -0.12796039               -0.07646633                0.45162467               -0.03862883                0.13967362                0.06395214
               4.00253233                3.00049666                2.00208406                0.50417626               -0.05166324               -0.03053331                0.18138425               -0.03771730                0.12652486                0.02387521
               5.00233162                2.99972564                1.99907183                0.50050304                0.00794053                0.01535139               -0.07946032               -0.03716224                0.12510146               -0.01639155
               6.00269114                2.99896081                1.99608271                0.50962459                0.06735509                0.06078764               -0.33961590               -0.03632027                0.14169325               -0.05653416
               7.00367872                2.99820256                1.99295615                0.53256977                0.14141869                0.10527636               -0.60784730               -0.03483936                0.17577090               -0.09650415
               8.00551952                2.99745044                1.98950056                0.57296206                0.25251445                0.14822597               -0.89396109               -0.03175718                0.21471097               -0.13760714
               9.00872901                2.99670844                1.98527023                0.63365019                0.40749156                0.18942083               -1.21520049               -0.02274982                0.19446045               -0.18444992
              10.01366935                2.99603323                1.97896120                0.83883218                0.49403426                0.23034173               -1.47398077               -0.00783833                0.17448451               -0.25039074
               0.01230292                4.00162742                2.01987992                0.84171845               -0.40419641               -0.17839784                1.19495759               -0.00537442                0.05581127                0.09025513
               1.00826096                4.00137964                2.01346407                0.62438737               -0.34668251               -0.14601158                1.00336299               -0.01494272                0.11814028                0.06863254
               2.00536927                4.00099189                2.00877930                0.55475993               -0.23110304               -0.10381939                0.72941647               -0.02171946                0.16665323                0.05307191
               3.00363890                4.00060685                2.00514637                0.52118256               -0.12833289               -0.06323370                0.44049810               -0.02071698                0.16485651                0.03320988
               4.00280262                4.00023521                2.00199562                0.50412300               -0.05185749               -0.02421894                0.17381654               -0.01970874                0.15219752                0.01232356
               5.00260175                3.99986886                1.99903161                0.50069151                0.00814703                0.01419692               -0.08276646               -0.01914093                0.15116791               -0.00873648
               6.00296556                3.99950438                1.99609000                0.50971485                0.06806441                0.05217395               -0.33867537               -0.01859488                0.16791925               -0.02989079
               7.00396304                3.99913997                1.99300145                0.53228266                0.14284737                0.08967955               -0.60358385               -0.01784957                0.20164855               -0.05131903
               8.00582250                3.99877428                1.98956014                0.57217447                0.25545827                0.12676393               -0.88841597               -0.01616605                0.23862888               -0.07360759
               9.00907220                3.99841456                1.98529261                0.63245150                0.41462034                0.16324785               -1.21190187               -0.01125906                0.21050145               -0.09807082
              10.01411491                3.99808392                1.97879916                0.83815498                0.50427078                0.19605344               -1.47493304               -0.00270734                0.18450843               -0.13011778
               0.01235892                4.99993860                2.01981493                0.84073103               -0.40448127               -0.16802304                1.18854504               -0.00188218                0.05754122               -0.00719646
               1.00831411                4.99998964                2.01336042                0.62284921               -0.34644845               -0.13812188                0.99541722               -0.00195352                0.12188797               -0.00314470
               2.00542995                5.00000630                2.00868414                0.55393107               -0.23034384               -0.09783215                0.72164434               -0.00281987                0.17315302               -0.00161683
               3.00370723                5.00001213                2.00506554                0.52078919               -0.12768993               -0.05884932                0.43363669               -0.00249642                0.17200755               -0.00074143
               4.00287615                5.00001229                2.00193042                0.50404136               -0.05138022               -0.02171542                0.16819657               -0.00208384                0.15982090               -0.00028238
               5.00267962                5.00000958                1.99898330                0.50079185                0.00859917                0.01459166               -0.08691479               -0.00175062                0.15916785               -0.00001252
               6.00304813                5.00000429                1.99605766                0.50988082                0.06861023                0.05044153               -0.34139891               -0.00157634                0.17611386                0.00000282
               7.00405183                4.99999615                1.99298070                0.53243154                0.14367362                0.08599359               -0.60528414               -0.00142652                0.20976195               -0.00039888
               8.00592161                4.99998572                1.98954212                0.57229606                0.25711766                0.12138538               -0.88987399               -0.00105130                0.24617109               -0.00131529
               9.00919418                4.99997340                1.98526028                0.63262506                0.41774369                0.15607590               -1.21428311               -0.00037320                0.21580606               -0.00264884
              10.01427648                4.99995430                1.97870494                0.83827766                0.50822979                0.18749331               -1.47879207                0.00074464                0.18829065               -0.00446109
               0.01216319                5.99826696                2.01967371                0.84036552               -0.40090026               -0.17442381                1.18408650                0.00159695                0.05492478               -0.10434713
               1.00815418                5.99861721                2.01330142                0.62229461               -0.34363993               -0.14219945                0.99154703                0.01044677                0.11571778               -0.07466660
               2.00529039                5.99903525                2.00863798                0.55359104               -0.22855993               -0.10074347                0.71807354                0.01546691                0.16371866               -0.05614028
               3.00358299                5.99942986                2.00501968                0.52053596               -0.12634509               -0.06046065                0.42985858                0.01512108                0.16261132               -0.03462779
               4.00276349                5.99980090                2.00188086                0.50388916               -0.05041271               -0.02171262                0.16393500                0.01489092                0.15086404               -0.01264181
               5.00257473                6.00016069                1.99892905                0.50077996                0.00919870                0.01635259               -0.09174998                0.01490103                0.15062793                0.00931974
               6.00294746                6.00051321                1.99599834                0.51006264                0.06891743                0.05393370               -0.34682323                0.01463418                0.16783669                0.03089544
               7.00395308                6.00085984                1.99291656                0.53286643                0.14383840                0.09104739               -0.61124042                0.01404492                0.20173698                0.05185175
               8.00582423                6.00120198                1.98947611                0.57303361                0.25715382                0.12769849               -0.89612043                0.01296052                0.23883312                0.07236340
               9.00909616                6.00153608                1.98520437                0.63367293                0.41718875                0.16368617               -1.22014291                0.00937461                0.21085576                0.09382719
              10.01416800                6.00183379                1.97869752                0.83887645                0.50718475                0.19741130               -1.48351638                0.00392500                0.18539201                0.12182982
               0.01169036                6.99645012                2.01947425                0.84082670               -0.39356138               -0.19954713                1.18293617                0.00370563                0.04713421               -0.20064822
               1.00775475                6.99714565                2.01330879                0.62296364               -0.33818643               -0.15983098                0.99275970                0.02133117                0.09800567               -0.14326314
               2.00492663                6.99799143                2.00865276                0.55384313               -0.22553721               -0.11409082                0.71944247                0.03151575                0.13631815               -0.10944994
               3.00324400                6.99880292                2.00501385                0.52046973               -0.12417459               -0.06890822                0.42952166                0.03121769                0.13483326               -0.06815512
               4.00244314                6.99957803                2.00184747                0.50368869               -0.04893352               -0.02431629                0.16106571                0.03077358                0.12366852               -0.02472553
               5.00226533                7.00033663                1.99886634                0.50067935                0.00992626                0.01989251               -0.09747109                0.03058414                0.12393289                0.01921471
               6.00264167                7.00108296                1.99590660                0.51030743                0.06893101                0.06359470               -0.35536854                0.02978450                0.14145211                0.06262554
               7.00364395                7.00181710                1.99279984                0.53368138                0.14314569                0.10646195               -0.62214721                0.02811050                0.17578318                0.10480245
               8.00550458                7.00253969                1.98934757                0.57455521                0.25529597                0.14800591               -0.90816139                0.02504525                0.21473120                0.14617156
               9.00874987                7.00324712                1.98510532                0.63589352                0.41274908                0.18830508               -1.23074404                0.01754112                0.19407394                0.19012602
              10.01375956                7.00390253                1.97876165                0.84017192                0.50096888                0.22814983               -1.49078222                0.00548751                0.17491204                0.25032584
               0.01084623                7.99427602                2.01929604                0.84283793               -0.38067362               -0.25290216                1.19034533                0.00324036                0.03154637               -0.27690216
               1.00703950                7.99542059                2.01347182                0.62579886               -0.32913963               -0.20071870                1.00310916                0.02626801                0.06396037               -0.19070131
               2.00426344                7.99675344                2.00878414                0.55517065               -0.22093791               -0.14714749                0.72901833                0.04140492                0.08408833               -0.15220075
               3.00262074                7.99805170                2.00507674                0.52082607               -0.12090991               -0.08939335                0.43449363                0.04228027                0.08268683               -0.09651215
               4.00184524                7.99931457                2.00183901                0.50355026               -0.04696275               -0.03126063                0.16017267                0.04203730                0.07255019               -0.03485120
               5.00168148                8.00055854                1.99878535                0.50058989                0.01087223                0.02673886               -0.10474451                0.04179556                0.07334270                0.02812116
               6.00206269                8.00178510                1.99575353                0.51081061                0.06885423                0.08428661               -0.36899846                0.04066564                0.09116656                0.09036546
               7.00305857                8.00298908                1.99257985                0.53528220                0.14162116                0.14056821               -0.64133526                0.03786822                0.12603907                0.15043311
               8.00489511                8.00416210                1.98908255                0.57760227                0.25127864                0.19424065               -0.93073556                0.03247296                0.16764900                0.20749847
               9.00808414                8.00530218                1.98487040                0.64053657                0.40359199                0.24354140               -1.25155617                0.02122732                0.16119740                0.26860372
              10.01296695                8.00639678                1.97881592                0.84303169                0.48828089                0.29393148               -1.50688279                0.00341272                0.15427047                0.36424730
               0.00946603                8.99139208                2.01960828                0.84447204               -0.36633382               -0.31260446                1.22073327               -0.00530828                0.00173018               -0.25347062
               1.00580269                8.99313128                2.01422519                0.62840860               -0.31712027               -0.25782340                1.03550881                0.02497524               -0.00397251               -0.16088168
               2.00312362                8.99504848                2.00927726                0.55670986               -0.21371086               -0.19788607                0.75752249                0.03765496               -0.01227409               -0.14328766
               3.00152847                8.99701505                2.00534801                0.52139694               -0.11732884               -0.12128143                0.45103962                0.03897149               -0.00939636               -0.09199415
               4.00077704                8.99895282                2.00190431                0.50365755               -0.04488793               -0.04246954                0.16338905                0.03798484               -0.01879291               -0.03306443
               5.00063071                9.00087141                1.99864108                0.50078742                0.01236971                0.03738819               -0.11574981                0.03757352               -0.01792895                0.02705636
               6.00102444                9.00276870                1.99539989                0.51163812                0.06968033                0.11684371               -0.39425104                0.03678765                0.00058663                0.08643741
               7.00202432                9.00462846                1.99202372                0.53726205                0.14082506                0.19444072               -0.67984173                0.03442895                0.03637260                0.14331662
               8.00384094                9.00642450                1.98833915                0.58109190                0.24577097                0.26763226               -0.97964926                0.02845688                0.08148016                0.19596966
               9.00693974                9.00811795                1.98404489                0.64562030                0.38988336                0.33222897               -1.30303697                0.01817471                0.09698726                0.24360660
              10.01163861                9.00978115                1.97839413                0.84609345                0.46988683                0.39037962               -1.55522530               -0.00695182                0.11570398                0.35170271
               0.00726166                9.98802393                2.02186107                0.92032860               -0.33790651               -0.33681493                1.17500547                0.00358262               -0.08780013               -0.18604392
               1.00388260                9.99026412                2.01662181                0.81179910               -0.30644464               -0.28671599                1.00040715                0.04658007               -0.11447329               -0.10660927
               2.00113277                9.99279571                2.01095975                0.77754742               -0.21933837               -0.22527674                0.73993055                0.06901212               -0.16545937               -0.11351732
               2.99949583                9.99562607                2.00638271                0.76049491               -0.11920955               -0.13889818                0.44020101                0.08020911               -0.17228925               -0.07415007
               3.99874858                9.99846518                2.00223820                0.75197296               -0.04393756               -0.04876385                0.15638342                0.08116498               -0.19010925               -0.02603683
               4.99861708               10.00130630                1.99824959                0.75067264                0.01464051                0.04348917               -0.12069060                0.08147626               -0.19133006                0.02398220
               5.99904139               10.00412198                1.99428449                0.75603505                0.07371329                0.13532817               -0.39755167                0.08027437               -0.17007542                0.07377522
               7.00009134               10.00687789                1.99020788                0.76859005                0.14666857                0.22494303               -0.68074302                0.07634081               -0.12759925                0.12102704
               8.00197476               10.00951475                1.98586849                0.79001888                0.24998181                0.30902473               -0.97695089                0.06682507               -0.07662297                0.16401133
               9.00509098               10.01194676                1.98092521                0.82148575                0.37633730                0.38288061               -1.29122513                0.04960540               -0.03319599                0.19717567
              10.00950150               10.01420437                1.97530026                0.92208109                0.44105253                0.44232193               -1.53338495                0.01205147               -0.01420524                0.29252516
               0.01305689                0.01559695                3.03532293                0.92802032               -0.33422490               -0.36904816                1.19707936               -0.02583471               -0.07048949                0.06743029
               1.00971464                0.01245757                3.02779696                0.82431634               -0.30771782               -0.28834898                0.96415523               -0.04693811               -0.09895048                0.00582253
               2.00690253                0.00930614                3.01980185                0.78788683               -0.24267404               -0.21734484                0.72601395               -0.05927917               -0.10157296               -0.00542978
               3.00486116                0.00594442                3.01227221                0.76572808               -0.15903166               -0.13887024                0.46192943               -0.06963132               -0.07808169               -0.00405279
               4.00372190                0.00245232                3.00512156                0.75326045               -0.07086267               -0.05779790                0.19675056               -0.07408816               -0.06881769               -0.00280353
               5.00344390               -0.00109592                2.99814380                0.75046900                0.01375843                0.02475767               -0.06562489               -0.07518166               -0.06467930               -0.00123559
               6.00399707               -0.00463317                2.99117764                0.75708855                0.09827395                0.10735543               -0.32825041               -0.07345421               -0.05973307                0.00037605
               7.00540938               -0.00808888                2.98407447                0.77341112                0.18709545                0.18843504               -0.59424860               -0.06838092               -0.05737754                0.00169255
               8.00773897               -0.01140003                2.97666503                0.79984661                0.27494955                0.26733182               -0.86413714               -0.05884979               -0.06623158                0.00118789
               9.01090837               -0.01455524                2.96884056                0.83527721                0.34764352                0.34223513               -1.12021057               -0.04498168               -0.07099157               -0.00874104
              10.01469184               -0.01779461                2.96112467                0.93096850                0.37834718                0.42107112               -1.35395405               -0.01669572               -0.06342134               -0.06456217
               0.01593792                1.01190647                3.03341326                0.85521341               -0.35472597               -0.36229193                1.27237625                0.00755754               -0.02171952                0.10129032
               1.01239066                1.00957408                3.02591437                0.64424162               -0.31858055               -0.28298357                1.04536954               -0.01702756               -0.02060493                0.03795654
               2.00956631                1.00713269                3.01832863                0.56975764               -0.23994544               -0.21414853                0.79036773               -0.04011142               -0.00157244                0.02013322
               3.00759175                1.00455572                3.01129123                0.52867429               -0.15325625               -0.13740497                0.50287374               -0.05403032                0.02917953                0.01197006
               4.00650119                1.00187434                3.00467162                0.50579305               -0.06784617               -0.05688935                0.21083998               -0.06116787                0.04341582                0.00325279
               5.00623483                0.99915165                2.99825148                0.50073495                0.01289078                0.02522009               -0.07987202               -0.06279623                0.05010564               -0.00577282
               6.00675900                0.99644038                2.99184864                0.51291212                0.09370855                0.10722739               -0.37077490               -0.05990762                0.05501492               -0.01473764
               7.00810900                0.99379547                2.98529704                0.54289272                0.18123258                0.18734498               -0.66352786               -0.05117706                0.05632777               -0.02388918
               8.01038365                0.99127329                2.97842205                0.59180454                0.27734215                0.26383670               -0.95761193               -0.03535344                0.04654564               -0.03510603
               9.01365585                0.98886711                2.97108145                0.65812961                0.36903032                0.33571802               -1.24015945               -0.01314651                0.02449542               -0.06273440
              10.01776426                0.98641610                2.96349819                0.85348674                0.41084155                0.41449335               -1.47535668                0.01289073                0.00074861               -0.12948351
               0.01787282                2.00835111                3.03254933                0.84975143               -0.37249540               -0.33345148                1.27081857               -0.00150715               -0.01102515                0.14494770
               1.01414787                2.00679790                3.02471464                0.63329777               -0.33770797               -0.26219132                1.05610586               -0.02666062                0.02087385                0.07514125
               2.01111866                2.00502317                3.01725614                0.56020174               -0.25544819               -0.19658250                0.79224953               -0.05454403                0.07373940                0.04701197
               3.00903890                2.00319632                3.01052875                0.52448294               -0.16080288               -0.12608738                0.50119854               -0.06801928                0.11532450                0.02732160
               4.00790260                2.00131453                3.00428365                0.50501316               -0.07084844               -0.05146445                0.20728467               -0.07579245                0.13251367                0.00879968
               5.00762193                1.99940848                2.99826940                0.50075982                0.01262470                0.02470098               -0.08442442               -0.07764597                0.14072675               -0.00927324
               6.00815510                1.99751137                2.99227642                0.51101608                0.09655006                0.10055962               -0.37647442               -0.07384398                0.14628264               -0.02740529
               7.00955294                1.99565802                2.98610887                0.53644981                0.19025812                0.17418104               -0.67137345               -0.06350389                0.14651417               -0.04672036
               8.01196026                1.99387670                2.97954424                0.57867367                0.29748460                0.24329679               -0.97036564               -0.04594038                0.12623856               -0.07109755
               9.01550263                1.99215912                2.97226703                0.63667193                0.39457127                0.30868875               -1.25975675               -0.02039494                0.07061144               -0.11416367
              10.01985169                1.99049526                2.96430496                0.83897558                0.43490582                0.37984255               -1.47762171                0.00245756                0.00827288               -0.19076236
               0.01901421                3.00523744                3.03218996                0.84799021               -0.38288160               -0.29156478                1.25226434               -0.00501872                0.00078826                0.12180739
               1.01518540                3.00433025                3.02409867                0.63158019               -0.34686031               -0.23341274                1.04412173               -0.02390988                0.04900897                0.07382665
               2.01207701                3.00320104                3.01669291                0.55954455               -0.26226946               -0.17152667                0.77956573               -0.04209918                0.11898128                0.05143013
               3.00994001                3.00203397                3.01009577                0.52431139               -0.16519132               -0.10844945                0.49022573               -0.04862993                0.16530035                0.03120611
               4.00877318                3.00084505                3.00403332                0.50523413               -0.07274708               -0.04317539                0.19964553               -0.05217640                0.18529973                0.01137701
               5.00848507                2.99964567                2.99822700                0.50120468                0.01297016                0.02308720               -0.08799231               -0.05274754                0.19476083               -0.00817956
               6.00903258                2.99845157                2.99244322                0.51151734                0.09942651                0.08893800               -0.37602142               -0.05003598                0.20026790               -0.02794370
               7.01047360                2.99727909                2.98645762                0.53690765                0.19655788                0.15289963               -0.66789368               -0.04382844                0.19815163               -0.04903427
               8.01296374                2.99613922                2.98000190                0.57907779                0.30778972                0.21379973               -0.96570538               -0.03388007                0.17000610               -0.07415572
               9.01662939                2.99504089                2.97267846                0.63660449                0.40887016                0.27250031               -1.25518925               -0.01885914                0.09783662               -0.10907645
              10.02114115                2.99401295                2.96443663                0.83831778                0.45117536                0.33053266               -1.46656144               -0.00260784                0.02364395               -0.16233576
               0.01958682                4.00251982                3.03202870                0.84608557               -0.38807535               -0.26136433                1.23841927               -0.00428492                0.00653729                0.06495737
               1.01570607                4.00212964                3.02378004                0.62919185               -0.35069325               -0.21264986                1.03248856               -0.01460766                0.06366093                0.04190858
               2.01257296                4.00159264                3.01638695                0.55846706               -0.26418870               -0.15510555                0.76796008               -0.02441421                0.14313344                0.03012726
               3.01042230                4.00102733                3.00984562                0.52391236               -0.16627929               -0.09647182                0.48009293               -0.02669586                0.19201345                0.01897035
               4.00924737                4.00045102                3.00386402                0.50531139               -0.07309192               -0.03714619                0.19230125               -0.02750928                0.21360485                0.00749428
               5.00896046                3.99987022                2.99815267                0.50152382                0.01367943                0.02244883               -0.09193078               -0.02725420                0.22388366               -0.00403106
               6.00952096                3.99929013                2.99246301                0.51185038                0.10141298                0.08155559               -0.37658802               -0.02577660                0.22917055               -0.01586343
               7.01098872                3.99871601                2.98655204                0.53706856                0.19999487                0.13934649               -0.66583819               -0.02293435                0.22529434               -0.02866849
               8.01352086                3.99815270                2.98012650                0.57893475                0.31314981                0.19528529               -0.96243045               -0.01835171                0.19278499               -0.04363230
               9.01725171                3.99760913                2.97275338                0.63589042                0.41672717                0.24897647               -1.25203233               -0.01059562                0.11189457               -0.06303469
              10.02185540                3.99710591                2.96433815                0.83757831                0.46036888                0.29890037               -1.46083402               -0.00186407                0.03044781               -0.09040568
               0.01970887                5.00001016                3.03188875                0.84500311               -0.38884386               -0.24989030                1.23086534               -0.00209344                0.00839607               -0.00463724
               1.01582043                5.00007726                3.02359645                0.62766975               -0.35089169               -0.20418819                1.02493718               -0.00302918                0.06809642               -0.00215568
               2.01269103                5.00009893                3.01621281                0.55768588               -0.26363618               -0.14851369                0.76043351               -0.00447214                0.15058277               -0.00058166
               3.01054770                5.00010454                3.00969271                0.52354058               -0.16554639               -0.09147337                0.47306322               -0.00415310                0.20031777                0.00030701
               4.00938011                5.00010212                3.00373917                0.50525492               -0.07234174               -0.03409295                0.18629986               -0.00356099                0.22257110                0.00094109
               5.00910087                5.00009465                2.99805999                0.50167442                0.01455799                0.02320510               -0.09663309               -0.00305920                0.23327231                0.00142638
               6.00967127                5.00008269                2.99240121                0.51210726                0.10257392                0.07996162               -0.38001827               -0.00269591                0.23853731                0.00161626
               7.01115235                5.00006602                2.98651242                0.53735713                0.20161620                0.13564355               -0.66834937               -0.00237017                0.23403615                0.00124741
               8.01370359                5.00004493                2.98009204                0.57921973                0.31559585                0.18977511               -0.96465461               -0.00184939                0.20005856                0.00011738
               9.01746427                5.00002042                2.97269708                0.63611272                0.42033569                0.24157290               -1.25461007               -0.00097410                0.11619340               -0.00169366
              10.02211030                4.99999096                2.96421912                0.83760884                0.46460375                0.28913996               -1.46298153                0.00043107                0.03259175               -0.00365940
               0.01941076                5.99752201                3.03172228                0.84476200               -0.38540416               -0.25659997                1.22861752               -0.00020649                0.00660586               -0.07514467
               1.01555671                5.99804588                3.02350013                0.62709723               -0.34772588               -0.20828065                1.02096519                0.00805601                0.06330403               -0.04723081
               2.01245624                5.99862236                3.01613031                0.55724667               -0.26103365               -0.15146388                0.75632200                0.01492344                0.14265541               -0.03232676
               3.01033604                5.99919787                3.00960704                0.52320675               -0.16350995               -0.09298035                0.46866333                0.01781813                0.19180944               -0.01923525
               4.00918604                5.99976916                3.00364396                0.50505540               -0.07086632               -0.03375206                0.18142835                0.01954985                0.21410919               -0.00601409
               5.00891871                6.00033433                2.99795311                0.50164489                0.01548181                0.02557516               -0.10207139                0.02009555                0.22501797                0.00722755
               6.00949568                6.00088937                2.99228218                0.51229368                0.10301792                0.08432817               -0.38603097                0.01931107                0.23052523                0.02024340
               7.01097907                6.00142888                2.98638231                0.53781508                0.20168992                0.14178891               -0.67486148                0.01718922                0.22641036                0.03299218
               8.01352947                6.00194820                2.97995624                0.58001784                0.31535640                0.19735636               -0.97149812                0.01365051                0.19338971                0.04610697
               9.01728620                6.00244059                2.97257173                0.63736320                0.41967348                0.25054554               -1.26167142                0.00779913                0.11191597                0.06174614
              10.02192294                6.00288871                2.96413898                0.83843067                0.46367425                0.30072520               -1.47098591                0.00203212                0.03029957                0.08473666
               0.01865700                6.99487816                3.03155596                0.84535382               -0.37758040               -0.28144940                1.23212199                0.00016464                0.00079890               -0.13583467
               1.01488120                6.99591164                3.02351690                0.62741690               -0.34097444               -0.22544387                1.02052258                0.01632328                0.04853365               -0.08340873
               2.01183752                6.99706965                3.01615659                0.55711971               -0.25619670               -0.16467759                0.75568541                0.03087050                0.11815040               -0.05781832
               3.00975727                6.99824493                3.00959658                0.52290566               -0.16014364               -0.10130231                0.46691452                0.03707281                0.16525711               -0.03519985
               4.00863464                6.99942708                3.00357917                0.50472089               -0.06873449               -0.03602745                0.17764371                0.04034816                0.18706290               -0.01164251
               5.00838258                7.00060615                2.99782772                0.50144981                0.01641437                0.02983296               -0.10832441                0.04104570                0.19803482                0.01227745
               6.00896293                7.00176925                2.99209676                0.51242466                0.10273623                0.09512464               -0.39473098                0.03903754                0.20402584                0.03602164
               7.01043730                7.00290180                2.98614638                0.53845058                0.20009817                0.15863584               -0.68552829                0.03409160                0.20128222                0.05962064
               8.01296489                7.00399205                2.97969653                0.58132424                0.31212181                0.21923971               -0.98313961                0.02592284                0.17174361                0.08458641
               9.01667974                7.00503133                2.97234807                0.63965098                0.41449044                0.27700562               -1.27343802                0.01377540                0.09830358                0.11604121
              10.02125470                7.00600546                2.96406587                0.84008122                0.45749650                0.33408604               -1.48559835                0.00148482                0.02309285                0.16343788
               0.01734708                7.99189303                3.03153274                0.84625338               -0.36553912               -0.31931644                1.24252687               -0.00255144               -0.01037934               -0.16619069
               1.01369168                7.99353700                3.02377173                0.62781944               -0.33033562               -0.25285978                1.02336105                0.01931043                0.02050911               -0.09169647
               2.01074036                7.99532881                3.01637793                0.55697552               -0.24858089               -0.18722085                0.75875653                0.04011140                0.07271364               -0.06399012
               3.00872007                7.99717182                3.00970852                0.52254117               -0.15542930               -0.11556294                0.46800256                0.04977964                0.11618010               -0.03967728
               4.00763178                7.99904861                3.00355954                0.50427015               -0.06613014               -0.04042203                0.17495386                0.05461829                0.13714177               -0.01315886
               5.00739746                8.00093098                2.99766759                0.50113280                0.01745025                0.03586693               -0.11550252                0.05554683                0.14799244                0.01408170
               6.00798078                8.00279186                2.99179686                0.51247988                0.10203178                0.11169298               -0.40635511                0.05264906                0.15460438                0.04113083
               7.00943810                8.00460160                2.98572227                0.53909050                0.19688087                0.18532906               -0.70075186                0.04514730                0.15410550                0.06790317
               8.01191840                8.00633299                2.97919389                0.58272692                0.30551006                0.25480383               -1.00028131                0.03225486                0.13123617                0.09657376
               9.01554830                8.00798070                2.97188301                0.64233432                0.40429864                0.31965330               -1.29090363                0.01424599                0.07289330                0.13628288
              10.02000437                8.00957043                2.96384665                0.84223761                0.44560719                0.38645554               -1.50932280               -0.00266150                0.01005462                0.20559001
               0.01531802                8.98849183                3.03197772                0.84391862               -0.34863971               -0.34808715                1.24388162               -0.01066189               -0.02570841               -0.12793263
               1.01183162                8.99085445                3.02458120                0.62354590               -0.31565478               -0.27113373                1.01379183                0.01529295               -0.02257905               -0.05328030
               2.00900493                8.99332524                3.01700210                0.55478687               -0.23992846               -0.20030188                0.75601372                0.03477972               -0.00139477               -0.03901544
               3.00703306                8.99593367                3.01006269                0.52138127               -0.15185413               -0.12324967                0.46585766                0.04529791                0.03746686               -0.02539565
               4.00596784                8.99861864                3.00362479                0.50366595               -0.06413942               -0.04220980                0.17095664                0.04993753                0.05698518               -0.00835137
               5.00575027                9.00132349                2.99742975                0.50076173                0.01887270                0.04026850               -0.12187842                0.05082116                0.06709928                0.00967903
               6.00634530                9.00400311                2.99125565                0.51203689                0.10244237                0.12253714               -0.41508487                0.04831289                0.07440044                0.02745886
               7.00779911                9.00660838                2.98489556                0.53824396                0.19427960                0.20272688               -0.71114611                0.04130350                0.07661636                0.04474686
               8.01023089                9.00908813                2.97813292                0.58106164                0.29640527                0.27898183               -1.01029830                0.02833580                0.06260089                0.06282203
               9.01372722                9.01142440                2.97074817                0.63995701                0.38955615                0.35063795               -1.29935362                0.00987753                0.03053480                0.09157059
              10.01802201                9.01373457                2.96302208                0.84141059                0.42947927                0.42483100               -1.52917380               -0.01316489               -0.01042361                0.15971165
               0.01240860                9.98493128                3.03344655                0.91895937               -0.32444623               -0.35605455                1.17192894                0.02736216               -0.07575666               -0.09130486
               1.00916414                9.98811433                3.02611241                0.80734146               -0.30259313               -0.27401198                0.93661377                0.05282558               -0.10487921               -0.01225264
               2.00635674                9.99132277                3.01805512                0.77533924               -0.24157594               -0.20024631                0.69948241                0.06480584               -0.10335305               -0.00456269
               3.00433262                9.99470683                3.01067053                0.75980162               -0.15580153               -0.12268432                0.42754615                0.07403839               -0.06293105               -0.00327220
               4.00324070                9.99820442                3.00376717                0.75159387               -0.06515978               -0.04142253                0.15351853                0.07876253               -0.04659084                0.00003922
               5.00302942               10.00173635                2.99708995                0.75027918                0.02107242                0.04128624               -0.11728180                0.07982465               -0.03789320                0.00344496
               6.00366215               10.00524260                2.99043231                0.75553718                0.10748624                0.12394943               -0.38855917                0.07767461               -0.02969646                0.00670111
               7.00517915               10.00865614                2.98360327                0.76774990                0.20034730                0.20477571               -0.66378599                0.07150446               -0.02543675                0.01005810
               8.00766910               10.01191263                2.97639399                0.78772692                0.29601310                0.28244980               -0.94385127                0.06068706               -0.03677607                0.01517281
               9.01109941               10.01499346                2.96862641                0.81534595                0.37258090                0.35690635               -1.21202406                0.04493982               -0.05071462                0.03071736
              10.01512072               10.01806705                2.96089026                0.91799156                0.40213091                0.43324756               -1.44430388                0.01722951               -0.06737105                0.09594152
               0.02121893                0.01750805                4.04751126                0.92960814               -0.33691905               -0.37930069                1.23487148               -0.03575665               -0.04151657                0.02784524
               1.01784974                0.01391638                4.03745858                0.82465215               -0.30668080               -0.29204089                0.97231458               -0.04843452               -0.06123090               -0.00458714
               2.01508532                0.01034644                4.02706804                0.78725615               -0.24054575               -0.21587880                0.72724876               -0.05449339               -0.05929632               -0.01038187
               3.01303883                0.00662851                4.01694469                0.76556871               -0.16224056               -0.13677690                0.46788778               -0.06207640               -0.02736975               -0.00877400
               4.01184051                0.00278506                4.00712379                0.75320928               -0.07452188               -0.05628778                0.20050720               -0.06607398               -0.00416528               -0.00427386
               5.01154839               -0.00112395                3.99747659                0.75043696                0.01662285                0.02493858               -0.06869686               -0.06718505                0.00565636                0.00089089
               6.01217296               -0.00502747                3.98783797                0.75724448                0.10815197                0.10620858               -0.33840396               -0.06549025                0.00319393                0.00600388
               7.01371143               -0.00885776                3.97804627                0.77368973                0.19745451                0.18692010               -0.60795926               -0.06091972               -0.01175987                0.01003021
               8.01612205               -0.01256984                3.96797549                0.79970485                0.27887945                0.26671929               -0.87330765               -0.05316236               -0.03634050                0.01052434
               9.01928902               -0.01618260                3.95763617                0.83528737                0.34959910                0.34544555               -1.12807023               -0.04659154               -0.04551257                0.00347333
              10.02311404               -0.01990432                3.94740991                0.93197613                0.38250169                0.43141935               -1.38802432               -0.02898053               -0.03595311               -0.02487473
               0.02445304                1.01371505                4.04624849                0.85616203               -0.35068326               -0.37733937                1.28702355                0.00361502               -0.01108998                0.04232070
               1.02094621                1.01099597                4.03622512                0.64155685               -0.31343612               -0.29148169                1.02390345               -0.01411655               -0.01191257                0.00233342
               2.01818432                1.00818765                4.02611300                0.56695008               -0.23737280               -0.21627319                0.76727560               -0.03163925                0.00444323               -0.00928652
               3.01619875                1.00526075                4.01628748                0.52771536               -0.15641600               -0.13752246                0.49214913               -0.04499320                0.03713309               -0.00976752
               4.01505600                1.00222218                4.00677571                0.50563455               -0.07079724               -0.05624446                0.20698594               -0.05301934                0.06119443               -0.00535294
               5.01478281                0.99912544                3.99744407                0.50076147                0.01644843                0.02623941               -0.08143566               -0.05525258                0.07202685                0.00037338
               6.01538497                0.99603461                3.98812605                0.51294482                0.10453065                0.10867057               -0.37047431               -0.05159480                0.07080726                0.00590412
               7.01687342                0.99301144                3.97865870                0.54238468                0.19339418                0.18986064               -0.65837119               -0.04183918                0.05735329                0.00925345
               8.01925285                0.99009735                3.96890907                0.58933312                0.28084618                0.26889011               -0.94093226               -0.02657474                0.03315813                0.00596214
               9.02249034                0.98727186                3.95886539                0.65409154                0.36465544                0.34642245               -1.21117291               -0.01074955                0.00969852               -0.01048275
              10.02654596                0.98440987                3.94872435                0.85284102                0.40556154                0.43138597               -1.47533816                0.00864208               -0.00026201               -0.04923272
               0.02672938                2.00996127                4.04543398                0.85083874               -0.36345717               -0.36258585                1.29418549               -0.00164409               -0.00473380                0.06718195
               1.02309481                2.00808675                4.03519864                0.63101864               -0.32708117               -0.28374803                1.04081892               -0.02159187                0.01377419                0.02090734
               2.02018776                2.00602097                4.02516711                0.55810590               -0.24951919               -0.21035816                0.78091617               -0.04594644                0.05824093                0.00322884
               3.01810443                2.00387806                4.01558171                0.52386410               -0.16361670               -0.13383407                0.49912722               -0.06145345                0.10447220               -0.00289381
               4.01691543                2.00166017                4.00638460                0.50493139               -0.07367599               -0.05391758                0.20704477               -0.07130634                0.13439128               -0.00308129
               5.01663091                1.99940084                3.99739875                0.50082322                0.01698181                0.02766713               -0.08854074               -0.07400563                0.14738866               -0.00117076
               6.01725506                1.99714594                3.98842848                0.51122019                0.10905022                0.10903651               -0.38496507               -0.06902314                0.14554441                0.00035376
               7.01881191                1.99493946                3.97927702                0.53644672                0.20375407                0.18836319               -0.68043894               -0.05641629                0.12697390               -0.00161911
               8.02133014                1.99280796                3.96975633                0.57709923                0.29747971                0.26438599               -0.97026496               -0.03738279                0.08825439               -0.01242166
               9.02476151                1.99074585                3.95976237                0.63335073                0.38403571                0.33843512               -1.24156444               -0.01619513                0.03619371               -0.03938494
              10.02901086                1.98872340                3.94940855                0.83857184                0.42493508                0.41717278               -1.49277932                0.00175042                0.00787970               -0.08828916
               0.02816920                3.00646333                4.04494160                0.85047750               -0.37145316               -0.33667420                1.28504322               -0.00415158                0.00201677                0.06455131
               1.02445466                3.00532101                4.03452585                0.63132059               -0.33475626               -0.26833563                1.03857637               -0.02008631                0.03396992                0.02971263
               2.02147407                3.00398048                4.02453475                0.55858633               -0.25620915               -0.19732143                0.77785786               -0.03791717                0.09538136                0.01530838
               3.01933048                3.00258406                4.01508163                0.52420544               -0.16834884               -0.12443768                0.49535169               -0.04694957                0.14974557                0.00678640
               4.01810709                3.00114383                4.00607697                0.50526657               -0.07567779               -0.04904660                0.20255159               -0.05265268                0.18429232                0.00172123
               5.01781693                2.99967878                3.99731199                0.50130900                0.01793971                0.02772048               -0.09379670               -0.05394807                0.19904067               -0.00194970
               6.01846589                2.99821534                3.98856228                0.51202680                0.11330753                0.10415931               -0.39113243               -0.05027658                0.19621974               -0.00609238
               7.02008308                2.99677871                3.97959828                0.53775855                0.21164541                0.17861704               -0.68767120               -0.04183755                0.17285049               -0.01305018
               8.02269880                2.99538507                3.97018645                0.57899535                0.30839631                0.25017650               -0.97812109               -0.02957145                0.12358021               -0.02621872
               9.02625100                2.99404056                3.96016645                0.63529009                0.39635430                0.31946967               -1.24715081               -0.01474018                0.05567061               -0.04997701
              10.03062588                2.99275333                3.94962997                0.83915886                0.43748799                0.38849601               -1.48986103               -0.00154978                0.01644879               -0.08751406
               0.02893099                4.00322778                4.04464830                0.84927138               -0.37550571               -0.31555328                1.27412167               -0.00366347                0.00637549                0.03783329
               1.02517593                4.00272003                4.03411385                0.63004973               -0.33823118               -0.25472871                1.03130564               -0.01279659                0.04629258                0.01966683
               2.02216636                4.00207454                4.02413850                0.55814543               -0.25869212               -0.18645906                0.77085416               -0.02297239                0.11694704                0.01192108
               3.02000209                4.00138931                4.01474823                0.52408636               -0.16993550               -0.11636070                0.48867996               -0.02692809                0.17525977                0.00659603
               4.01876765                4.00067924                4.00584165                0.50540451               -0.07608275               -0.04463285                0.19666076               -0.02904285                0.21245779                0.00267227
               5.01848043                3.99995525                3.99719299                0.50165460                0.01909746                0.02794446               -0.09874640               -0.02920038                0.22828110               -0.00071579
               6.01914960                3.99922913                3.98855824                0.51253989                0.11625022                0.10010510               -0.39519471               -0.02714470                0.22468460               -0.00454895
               7.02080544                3.99851180                3.97968469                0.53840657                0.21636281                0.17060603               -0.69103093               -0.02294975                0.19821221               -0.01011594
               8.02347686                3.99781149                3.97031153                0.57969599                0.31465041                0.23866256               -0.98082505               -0.01686143                0.14307267               -0.01908248
               9.02709845                3.99713525                3.96025196                0.63568394                0.40387379                0.30403058               -1.24839108               -0.00891040                0.06641003               -0.03338546
              10.03155434                3.99649332                3.94958248                0.83904984                0.44558897                0.36634766               -1.48687924               -0.00127599                0.02115497               -0.05462125
               0.02911142                5.00015226                4.04443223                0.84834429               -0.37594499               -0.30654665                1.26705505               -0.00215144                0.00786579               -0.00245362
               1.02535197                5.00022644                4.03385916                0.62881746               -0.33830376               -0.24839463                1.02482853               -0.00323264                0.05058189               -0.00170037
               2.02234535                5.00025130                4.02389281                0.55753796               -0.25823746               -0.18148065                0.76434978               -0.00496816                0.12444413               -0.00057612
               3.02018722                5.00025685                4.01452681                0.52378878               -0.16925245               -0.11240101                0.48234189               -0.00483445                0.18408628                0.00026917
               4.01896030                5.00025118                4.00565641                0.50536622               -0.07520954               -0.04193110                0.19081548               -0.00436200                0.22226341                0.00102190
               5.01868303                5.00023767                3.99705064                0.50182409                0.02030753                0.02911271               -0.10394623               -0.00386480                0.23854796                0.00168221
               6.01936645                5.00021745                3.98845730                0.51287083                0.11793441                0.09966996               -0.39975989               -0.00338376                0.23465394                0.00201783
               7.02104172                5.00019083                3.97961371                0.53886316                0.21858348                0.16869618               -0.69509567               -0.00286706                0.20698415                0.00170542
               8.02373812                5.00015832                3.97024902                0.58024113                0.31746231                0.23540727               -0.98457294               -0.00219589                0.14966017                0.00050317
               9.02739097                5.00012117                3.96016808                0.63621032                0.40730534                0.29923800               -1.25182695               -0.00123737                0.06990362               -0.00158822
              10.03188422                5.00008028                3.94944531                0.83924554                0.44932582                0.35942266               -1.48926750                0.00016882                0.02254210               -0.00403489
               0.02873961                5.99709685                4.04424606                0.84796866               -0.37273736               -0.31146452                1.26457297               -0.00081892                0.00675314               -0.04395397
               1.02501224                5.99775214                4.03372073                0.62803908               -0.33515120               -0.25102797                1.02015583                0.00604488                0.04730049               -0.02428732
               2.02203659                5.99844493                4.02376442                0.55697449               -0.25533562               -0.18319292                0.75922131                0.01268842                0.11852514               -0.01414599
               3.01990553                5.99914129                4.01439295                0.52339683               -0.16684979               -0.11297085                0.47706871                0.01675188                0.17719913               -0.00698661
               4.01869959                5.99984062                4.00550943                0.50516066               -0.07343308               -0.04107864                0.18539357                0.01945853                0.21506119               -0.00116255
               5.01843687                6.00053751                3.99688763                0.50180984                0.02145884                0.03150200               -0.10955207                0.02036562                0.23137642                0.00414329
               6.01912877                6.00122253                3.98827772                0.51305893                0.11851793                0.10356365               -0.40555140                0.01926449                0.22772981                0.00930664
               7.02080722                6.00188572                3.97941933                0.53927693                0.21869133                0.17393591               -0.70104463                0.01626074                0.20061049                0.01483475
               8.02350260                6.00251963                3.97004615                0.58093342                0.31722577                0.24177246               -0.99069993                0.01169660                0.14442820                0.02180123
               9.02715174                6.00312001                3.95997094                0.63732381                0.40684530                0.30677479               -1.25846935                0.00588854                0.06676125                0.03210620
              10.03163950                6.00368177                3.94927780                0.84000948                0.44877633                0.36916696               -1.49749110                0.00125564                0.02102202                0.04813531
               0.02778446                6.99392297                4.04411669                0.84793964               -0.36596691               -0.32832010                1.26599851               -0.00065739                0.00299650               -0.07466100
               1.02412479                6.99520588                4.03371924                0.62741620               -0.32872457               -0.26148892                1.01638031                0.01283579                0.03622571               -0.03814743
               2.02120997                6.99658744                4.02376646                0.55632076               -0.24991082               -0.19084009                0.75480137                0.02679416                0.09875575               -0.02120087
               3.01912657                6.99799743                4.01435214                0.52286577               -0.16283559               -0.11746285                0.47246877                0.03496812                0.15411322               -0.01034447
               4.01795325                6.99942960                4.00540034                0.50478923               -0.07090676               -0.04174219                0.18026438                0.03998496                0.19047092               -0.00203331
               5.01770844                7.00086771                3.99669986                0.50162143                0.02251341                0.03503181               -0.11545578                0.04131308                0.20649153                0.00541720
               6.01840352                7.00228872                3.98801198                0.51308714                0.11806954                0.11131526               -0.41222362                0.03865762                0.20361340                0.01290085
               7.02006983                7.00366955                3.97908927                0.53956767                0.21671204                0.18561193               -0.70828452                0.03207347                0.17876823                0.02168234
               8.02273776                7.00499377                3.96968478                0.58159477                0.31383868                0.25687790               -0.99838103                0.02218096                0.12715444                0.03424648
               9.02634660                7.00625667                3.95963656                0.63874339                0.40240247                0.32538621               -1.26734067                0.01036801                0.05695700                0.05480037
              10.03078581                7.00746362                3.94904968                0.84118008                0.44392118                0.39353038               -1.51074644                0.00075830                0.01666830                0.08722286
               0.02616066                7.99053045                4.04414657                0.84728386               -0.35561727               -0.35016826                1.26668924               -0.00278628               -0.00343757               -0.08173006
               1.02260449                7.99252236                4.03393904                0.62556947               -0.31898697               -0.27404419                1.00889370                0.01498092                0.01705432               -0.03260292
               2.01978092                7.99462813                4.02395927                0.55496206               -0.24208763               -0.19982325                0.74770090                0.03369664                0.06386000               -0.01477371
               3.01776273                7.99679203                4.01443679                0.52198155               -0.15759515               -0.12261506                0.46646019                0.04530963                0.11320157               -0.00587819
               4.01662902                7.99900577                4.00533809                0.50424546               -0.06793614               -0.04257213                0.17465250                0.05212707                0.14711666               -0.00031854
               5.01640401                8.00123814                3.99647530                0.50128286                0.02355357                0.03874601               -0.12099328                0.05382283                0.16257295                0.00424733
               6.01710009                8.00344883                3.98762642                0.51283558                0.11698178                0.11968527               -0.41764266                0.05014655                0.16079812                0.00894236
               7.01874365                8.00559796                3.97856481                0.53929345                0.21295036                0.19864272               -0.71332531                0.04089563                0.13968535                0.01549568
               8.02135909                8.00765719                3.96907693                0.58128786                0.30728030                0.27435355               -1.00300961                0.02661782                0.09643727                0.02761802
               9.02488925                8.00962773                3.95905233                0.63895348                0.39408399                0.34746469               -1.27356276                0.01049283                0.03995106                0.05207904
              10.02924077                8.01155238                3.94862947                0.84184173                0.43515222                0.42340789               -1.52463996               -0.00270974                0.00952469                0.09584278
               0.02374490                8.98691961                4.04448591                0.84376537               -0.34181733               -0.36351426                1.25266125               -0.00675376               -0.01182569               -0.05752707
               1.02032673                8.98972499                4.03450103                0.61960637               -0.30653353               -0.27828608                0.98301243                0.01216631               -0.01186672               -0.00958551
               2.01761423                8.99259098                4.02439753                0.55173977               -0.23358035               -0.20148575                0.72701439                0.02734025                0.01138164                0.00052188
               3.01565512                8.99554513                4.01466516                0.52036584               -0.15322699               -0.12235409                0.45198073                0.03748034                0.05507321                0.00280417
               4.01454969                8.99857816                4.00532344                0.50354217               -0.06566408               -0.04122858                0.16593937                0.04329137                0.08700525                0.00229685
               5.01434184                9.00164263                3.99620351                0.50084762                0.02484736                0.04083366               -0.12378803                0.04471663                0.10185182                0.00113272
               6.01504664                9.00468243                3.98709820                0.51204743                0.11687715                0.12269274               -0.41442274                0.04169087                0.10094729                0.00007288
               7.01667938                9.00764240                3.97780080                0.53752755                0.20968560                0.20328411               -0.70413168                0.03378460                0.08333309                0.00045522
               8.01924035                9.01048084                3.96813319                0.57798864                0.29909461                0.28194303               -0.98832306                0.02102828                0.04969596                0.00567763
               9.02266127                9.01320596                3.95805782                0.63430098                0.38209896                0.35884496               -1.25721954                0.00710521                0.01397708                0.02269944
              10.02688233                9.01593178                3.94781065                0.83956308                0.42210546                0.44172335               -1.51951448               -0.00813805               -0.00137974                0.06268374
               0.02041481                9.98326016                4.04529965                0.91944445               -0.32383716               -0.36594467                1.19649477                0.03663928               -0.04051507               -0.04122620
               1.01717644                9.98695664                4.03535409                0.80625772               -0.29536129               -0.27683519                0.92497185                0.05188399               -0.06327919                0.00222215
               2.01450759                9.99059841                4.02494940                0.77419978               -0.23256404               -0.19925664                0.68433767                0.05875124               -0.05460535                0.00658441
               3.01252516                9.99434495                4.01493363                0.75943875               -0.15551214               -0.12001789                0.42317349                0.06614353               -0.00756392                0.00645581
               4.01139734                9.99818120                4.00530857                0.75152914               -0.06655415               -0.03969567                0.15227081                0.07025852                0.02519202                0.00337081
               5.01119408               10.00205481                3.99590396                0.75028862                0.02683951                0.04121837               -0.12127297                0.07129805                0.04001395               -0.00043022
               6.01193413               10.00590269                3.98651330                0.75560389                0.12134233                0.12202602               -0.39566168                0.06919105                0.03876619               -0.00420632
               7.01362092               10.00966364                3.97693216                0.76766630                0.21409819                0.20212396               -0.66998082                0.06382258                0.02065282               -0.00662682
               8.01621610               10.01329605                3.96699146                0.78681970                0.29797484                0.28152120               -0.93978280                0.05462437               -0.01213328               -0.00485646
               9.01958042               10.01680463                3.95668473                0.81366503                0.37051458                0.35986666               -1.19631614                0.04645431               -0.03410906                0.00628581
              10.02362639               10.02038684                3.94641419                0.91770614                0.40459689                0.44550681               -1.45889786                0.03262749               -0.03103980                0.04183426
               0.03233191                0.01867940                5.06002036                0.93074251               -0.33986760               -0.38492363                1.25976555               -0.04157159               -0.01822814                0.00997380
               1.02893324                0.01483274                5.04724326                0.82537691               -0.30507110               -0.29520584                0.98383364               -0.04807408               -0.02635380               -0.00795869
               2.02623049                0.01100859                5.03434683                0.78688917               -0.23376130               -0.21607011                0.72817818               -0.05123718               -0.01811255               -0.00990037
               3.02425801                0.00708336                5.02162997                0.76526545               -0.15618985               -0.13600044                0.46717964               -0.05591064                0.00914485               -0.00819600
               4.02310670                0.00306300                5.00913170                0.75312323               -0.07075825               -0.05565273                0.19920674               -0.05864313                0.03240110               -0.00378574
               5.02284285               -0.00101308                4.99676986                0.75046727                0.01922819                0.02500402               -0.07248362               -0.05939346                0.04251155                0.00154339
               6.02349126               -0.00508924                4.98440956                0.75732825                0.10969121                0.10571940               -0.34486853               -0.05807649                0.03732695                0.00672878
               7.02503667               -0.00911314                4.97191528                0.77370575                0.19655040                0.18629223               -0.61515493               -0.05473652                0.01865328                0.01065591
               8.02742227               -0.01305672                4.95919887                0.79965841                0.27635143                0.26684038               -0.88057527               -0.04976885               -0.00586063                0.01165378
               9.03056370               -0.01694422                4.94627916                0.83596575                0.35015184                0.34754846               -1.14190745               -0.04613011               -0.01815925                0.00765307
              10.03442530               -0.02092099                4.93336418                0.93288973                0.38616040                0.43537901               -1.41397587               -0.03609583               -0.01512495               -0.00698930
               0.03576286                1.01483017                5.05915373                0.85647510               -0.34749531               -0.38388792                1.29062022                0.00089725               -0.00113313                0.01343119
               1.03228790                1.01188069                5.04639244                0.64018359               -0.30850211               -0.29587128                1.01342866               -0.01126479                0.00373855               -0.01119711
               2.02959281                1.00884789                5.03367415                0.56490685               -0.23081006               -0.21712978                0.74941992               -0.02437053                0.02053674               -0.01678090
               3.02767170                1.00572335                5.02113421                0.52656751               -0.15121653               -0.13695267                0.47857319               -0.03442850                0.04665675               -0.01423800
               4.02656848                1.00250647                5.00881134                0.50531247               -0.06733347               -0.05556782                0.19998433               -0.04098518                0.06889405               -0.00674707
               5.02632503                0.99923696                4.99662277                0.50072564                0.01960191                0.02651172               -0.08285138               -0.04277723                0.07908511                0.00274765
               6.02696052                0.99596795                4.98443916                0.51270912                0.10740052                0.10857292               -0.36652164               -0.03953599                0.07537269                0.01190455
               7.02847304                0.99274979                4.97212962                0.54137385                0.19398004                0.18995966               -0.64788704               -0.03141818                0.05896027                0.01822811
               8.03084012                0.98961169                4.95960340                0.58717661                0.27807466                0.27038027               -0.92391866               -0.02003939                0.03510573                0.01859853
               9.03403454                0.98653126                4.94685799                0.65187796                0.36004942                0.35072972               -1.19503374               -0.00841571                0.01409564                0.00936893
              10.03804111                0.98343280                4.93399143                0.85234973                0.40065747                0.43724223               -1.47000930                0.00473417                0.00399687               -0.01281357
               0.03824882                2.01100164                5.05843304                0.85055623               -0.35586005               -0.37580105                1.29917474               -0.00247285                0.00191989                0.02459859
               1.03469022                2.00891532                5.04553102                0.62866235               -0.31742021               -0.29356921                1.02769386               -0.01759527                0.02072892               -0.00566433
               2.03190042                2.00666600                5.03287446                0.55575970               -0.23896789               -0.21560341                0.76215095               -0.03674871                0.05779274               -0.01527569
               3.02991086                2.00434430                5.02051130                0.52261370               -0.15635143               -0.13600881                0.48571567               -0.04966809                0.09539135               -0.01438434
               4.02877339                2.00195164                5.00842455                0.50450713               -0.06925199               -0.05420230                0.19985144               -0.05834846                0.12324922               -0.00711541
               5.02852582                1.99951715                4.99649859                0.50066569                0.02071630                0.02877388               -0.09087637               -0.06069424                0.13542832                0.00293528
               6.02918771                1.99708222                4.98457712                0.51084016                0.11193751                0.11160070               -0.38261210               -0.05604667                0.13040232                0.01243210
               7.03076457                1.99468606                4.97250009                0.53523400                0.20261462                0.19303196               -0.67156354               -0.04489666                0.10833693                0.01779883
               8.03324001                1.99235089                4.96013894                0.57451045                0.29048513                0.27239787               -0.95321222               -0.02943161                0.07207559                0.01494061
               9.03657427                1.99007037                4.94743574                0.63030149                0.37384512                0.35102479               -1.22498607               -0.01311442                0.03200342               -0.00045651
              10.04071691                1.98782385                4.93444937                0.83762913                0.41426330                0.43279702               -1.49265573                0.00044710                0.00896844               -0.02996730
               0.03988605                3.00731415                5.05789083                0.85086593               -0.36144027               -0.36078975                1.29622108               -0.00376291                0.00648397                0.02783243
               1.03627165                3.00600930                5.04487020                0.62971122               -0.32285970               -0.28628282                1.02989768               -0.01634074                0.03528644                0.00406102
               2.03342886                3.00453582                5.03225007                0.55658160               -0.24394764               -0.20964996                0.76395855               -0.03145122                0.08611497               -0.00388974
               3.03139269                3.00300318                5.02000280                0.52307464               -0.16000948               -0.13151150                0.48562985               -0.03999565                0.13184404               -0.00555243
               4.03022867                3.00142242                5.00808435                0.50479924               -0.07060604               -0.05133084                0.19683510               -0.04561809                0.16449208               -0.00292333
               5.02998057                2.99981244                4.99635107                0.50107945                0.02210095                0.03000507               -0.09735132               -0.04693985                0.17832474                0.00161496
               6.03067069                2.99819997                4.98462058                0.51169302                0.11629316                0.11109604               -0.39264372               -0.04333807                0.17181829                0.00559198
               7.03230644                2.99661042                4.97270419                0.53681515                0.20982461                0.19061018               -0.68466259               -0.03526070                0.14450031                0.00630964
               8.03486718                2.99505965                4.96043948                0.57693719                0.29964237                0.26787905               -0.96774980               -0.02418175                0.09865620                0.00080919
               9.03829928                2.99355176                4.94773544                0.63320426                0.38379531                0.34347109               -1.23758162               -0.01181104                0.04600765               -0.01360059
              10.04254308                2.99208874                4.93463941                0.83898286                0.42437995                0.41871456               -1.49931103               -0.00127408                0.01515707               -0.03803391
               0.04078325                4.00378585                5.05751113                0.85028503               -0.36415202               -0.34754103                1.28932962               -0.00330513                0.00964055                0.01856878
               1.03714173                4.00318966                5.04440615                0.62926252               -0.32528658               -0.27864670                1.02598044               -0.01065038                0.04481031                0.00511541
               2.03427752                4.00247300                5.03180403                0.55654224               -0.24586913               -0.20371681                0.76019809               -0.01960853                0.10382887                0.00063500
               3.03222435                4.00171407                5.01961922                0.52310838               -0.16128753               -0.12689868                0.48153323               -0.02374209                0.15404375               -0.00087937
               4.03105177                4.00092503                5.00779724                0.50492913               -0.07074310               -0.04838220                0.19202674               -0.02619739                0.18966694               -0.00030522
               5.03080948                4.00011725                4.99617775                0.50138602                0.02355985                0.03106133               -0.10311062               -0.02652576                0.20456895                0.00117709
               6.03152296                3.99930414                4.98455912                0.51227344                0.11950975                0.11017987               -0.39938825               -0.02442039                0.19696767                0.00218694
               7.03319968                3.99849826                4.97273142                0.53774787                0.21460380                0.18775298               -0.69208587               -0.02008996                0.16614885                0.00118895
               8.03581504                3.99770847                4.96051000                0.57820225                0.30546402                0.26303616               -0.97498731               -0.01416094                0.11441623               -0.00340944
               9.03930896                3.99693979                4.94778556                0.63452277                0.39012087                0.33589578               -1.24307493               -0.00717775                0.05424786               -0.01298768
              10.04361746                3.99619815                4.93460056                0.83950752                0.43084972                0.40631037               -1.50098166               -0.00098439                0.01855667               -0.02804080
               0.04101232                5.00036332                5.05722985                0.84956872               -0.36408277               -0.34136854                1.28335858               -0.00203368                0.01092125               -0.00024474
               1.03737149                5.00043637                5.04409303                0.62833531               -0.32500231               -0.27448015                1.02059552               -0.00296006                0.04859602               -0.00096951
               2.03451227                5.00046149                5.03149980                0.55609691               -0.24528344               -0.20036061                0.75476784               -0.00470800                0.11067346               -0.00047468
               3.03246582                5.00046520                5.01933955                0.52287758               -0.16053678               -0.12406387                0.47605975               -0.00480169                0.16246452                0.00010619
               4.03130154                5.00045478                5.00755548                0.50489597               -0.06974388               -0.04615216                0.18651821               -0.00453624                0.19923871                0.00077232
               5.03107095                5.00043366                4.99598106                0.50155004                0.02498665                0.03253609               -0.10868122               -0.00413761                0.21458737                0.00139416
               6.03180127                5.00040356                4.98440601                0.51264205                0.12146788                0.11083395               -0.40501874               -0.00362866                0.20652157                0.00170175
               7.03350030                5.00036548                4.97261051                0.53832644                0.21705777                0.18758789               -0.69768272               -0.00300094                0.17424885                0.00136732
               8.03614243                5.00032037                4.96040058                0.57897068                0.30828754                0.26200000               -0.98032846               -0.00222136                0.12016204                0.00013308
               9.03966605                5.00026967                4.94766054                0.63538858                0.39321301                0.33372212               -1.24778681               -0.00123013                0.05712506               -0.00208730
              10.04400669                5.00021495                4.93443377                0.83992576                0.43406325                0.40244491               -1.50459158                0.00013860                0.01965717               -0.00500999
               0.04059649                5.99695848                5.05701374                0.84899351               -0.36121221               -0.34394499                1.27967889               -0.00086611                0.01030185               -0.02023741
               1.03698437                5.99770006                5.04390325                0.62732262               -0.32209832               -0.27529916                1.01503719                0.00458758                0.04657707               -0.00820237
               2.03415452                5.99846578                5.03131474                0.55543649               -0.24246748               -0.20053513                0.74873523                0.01000938                0.10680593               -0.00257768
               3.03213502                5.99923280                5.01914841                0.52245689               -0.15809698               -0.12355040                0.47005185                0.01380132                0.15762813                0.00030642
               4.03099258                6.00000198                5.00735183                0.50470658               -0.06785339               -0.04485145                0.18072565                0.01649941                0.19394962                0.00137965
               5.03077795                6.00076798                4.99576207                0.50156220                0.02629931                0.03465835               -0.11421023                0.01743292                0.20923302                0.00156209
               6.03151857                6.00152082                4.98417115                0.51282810                0.12224531                0.11374997               -0.41028363                0.01632763                0.20139787                0.00163519
               7.03322285                6.00225002                4.97236142                0.53867475                0.21739282                0.19122405               -0.70273325                0.01336104                0.16969443                0.00242653
               8.03586642                6.00294847                4.96014225                0.57951183                0.30834615                0.26629197               -0.98535999                0.00912440                0.11663118                0.00499236
               9.03938978                6.00361423                4.94740235                0.63625394                0.39316253                0.33881400               -1.25330358                0.00432462                0.05511954                0.01050185
              10.04372967                6.00424704                4.93418916                0.84052623                0.43398975                0.40916522               -1.51152216                0.00103778                0.01879697                0.01972799
               0.03951184                6.99348442                5.05687593                0.84834173               -0.35558971               -0.35346393                1.27699028               -0.00055850                0.00792903               -0.03279232
               1.03595594                6.99493038                5.04384451                0.62592875               -0.31660553               -0.27984519                1.00809355                0.01010325                0.03898437               -0.01014201
               2.03317972                6.99645078                5.03125262                0.55443302               -0.23751432               -0.20317585                0.74119401                0.02145490                0.09242008               -0.00089240
               3.03120565                6.99799420                5.01904595                0.52180488               -0.15416887               -0.12457798                0.46298688                0.02886148                0.13975106                0.00263441
               4.03009635                6.99955775                5.00718445                0.50436343               -0.06524410               -0.04414198                0.17450882                0.03378283                0.17417738                0.00258412
               5.02990077                7.00112683                4.99551861                0.50142931                0.02747173                0.03721502               -0.11949091                0.03517265                0.18899530                0.00093377
               6.03064578                7.00267856                4.98385229                0.51280631                0.12195498                0.11818369               -0.41463742                0.03258987                0.18205313               -0.00061874
               7.03233987                7.00418996                4.97198069                0.53869778                0.21574582                0.19749846               -0.70634024                0.02630476                0.15285248               -0.00022460
               8.03496070                7.00564621                4.95972891                0.57962465                0.30570523                0.27442362               -0.98885692                0.01745937                0.10416874                0.00445148
               9.03845397                7.00704595                4.94700126                0.63679209                0.39005621                0.34933928               -1.25817017                0.00785233                0.04853503                0.01589291
              10.04276182                7.00839825                4.93385094                0.84110563                0.43078485                0.42396362               -1.52021845                0.00077591                0.01622778                0.03496603
               0.03769340                7.98988920                5.05686652                0.84689361               -0.34733252               -0.36481083                1.27082670               -0.00163211                0.00398207               -0.03257241
               1.03422007                7.99210316                5.04394960                0.62318107               -0.30867941               -0.28413498                0.99557207                0.01198993                0.02605753               -0.00306188
               2.03151981                7.99440227                5.03133195                0.55267520               -0.23073978               -0.20526208                0.72884840                0.02633890                0.06779791                0.00637709
               3.02960528                7.99674124                5.01903773                0.52079056               -0.14921025               -0.12506412                0.45281489                0.03599161                0.10944506                0.00770014
               4.02853560                7.99911914                5.00705259                0.50387487               -0.06223432               -0.04318250                0.16716196                0.04221452                0.14109755                0.00447143
               5.02836059                8.00151228                4.99524772                0.50117530                0.02858127                0.03953272               -0.12380699                0.04385636                0.15524834               -0.00068481
               6.02910723                8.00388449                4.98344401                0.51249762                0.12103570                0.12195620               -0.41591727                0.04044429                0.14959641               -0.00560484
               7.03078130                8.00619999                4.97145577                0.53808714                0.21261980                0.20300819               -0.70494231                0.03216856                0.12427254               -0.00788829
               8.03335963                8.00843694                4.95913370                0.57863386                0.30067380                0.28204696               -0.98601570                0.02040614                0.08295226               -0.00434210
               9.03679478                8.01060102                4.94641176                0.63584582                0.38404829                0.36000151               -1.25689506                0.00823483                0.03753617                0.00881988
              10.04104059                8.01272632                4.93335385                0.84092269                0.42458111                0.44026389               -1.52498906               -0.00112365                0.01198154                0.03316918
               0.03505128                8.98618821                5.05703094                0.84352726               -0.33686116               -0.37049595                1.25332658               -0.00425106               -0.00086733               -0.02105828
               1.03168267                8.98924769                5.04424144                0.61774239               -0.29914297               -0.28252551                0.97024126                0.00930306                0.00774161                0.00607460
               2.02906842                8.99234554                5.03154239                0.54974078               -0.22370305               -0.20257731                0.70717324                0.02052523                0.03352204                0.01103528
               3.02720861                8.99549291                5.01910231                0.51933530               -0.14494118               -0.12211146                0.43699084                0.02827272                0.06994721                0.00964598
               4.02616960                8.99869410                5.00694358                0.50329643               -0.05980297               -0.04087809                0.15789994                0.03315914                0.09970444                0.00467094
               5.02601255                9.00191748                4.99495399                0.50086216                0.02986794                0.04072910               -0.12615029                0.03439810                0.11344230               -0.00174766
               6.02676696                9.00511769                4.98296719                0.51185666                0.12091189                0.12218877               -0.41129875                0.03173430                0.10873805               -0.00795119
               7.02843079                9.00825013                4.97081293                0.53654902                0.21004157                0.20304401               -0.69383833                0.02510995                0.08664879               -0.01207571
               8.03096779                9.01128715                4.95836645                0.57575744                0.29492554                0.28310026               -0.96994844                0.01550467                0.05303799               -0.01139801
               9.03432930                9.01424598                4.94560378                0.63174782                0.37604838                0.36321646               -1.23994169                0.00580526                0.02136981               -0.00240217
              10.03848876                9.01720353                4.93263179                0.83876998                0.41594580                0.44851736               -1.51505149               -0.00422404                0.00594981                0.01852088
               0.03148942                9.98247928                5.05737644                0.91996268               -0.32406219               -0.37089274                1.21350432                0.04115056               -0.01569898               -0.01535239
               1.02824880                9.98645265                5.04461184                0.80625755               -0.29021679               -0.27950397                0.92915161                0.05018505               -0.02130148                0.00750582
               2.02568509                9.99035072                5.03174187                0.77363045               -0.22133148               -0.19948206                0.67692480                0.05398454               -0.00494265                0.00966862
               3.02382217                9.99429901                5.01913400                0.75911273               -0.14554352               -0.11939053                0.41652691                0.05889917                0.03353546                0.00800992
               4.02277422                9.99830158                5.00681259                0.75146495               -0.05986018               -0.03925213                0.14743903                0.06185429                0.06498829                0.00364996
               5.02262497               10.00232686                4.99466449                0.75033948                0.03175271                0.04093743               -0.12631206                0.06257601                0.07928096               -0.00175542
               6.02340927               10.00632827                4.98251907                0.75565919                0.12445379                0.12105784               -0.40112527                0.06093176                0.07394655               -0.00700559
               7.02511404               10.01026087                4.97020365                0.76755614                0.21322979                0.20107381               -0.67358826                0.05685971                0.05069874               -0.01075796
               8.02767387               10.01409895                4.95759834                0.78643950                0.29402301                0.28118010               -0.94021630                0.05083184                0.01749362               -0.01108986
               9.03099450               10.01786535                4.94470009                0.81354930                0.36835738                0.36193670               -1.20213436                0.04640623               -0.00548338               -0.00523276
              10.03504101               10.02169666                4.93171230                0.91798330                0.40465107                0.44931333               -1.47660030                0.03835723               -0.00955210                0.01146500
               0.04640857                0.01944078                6.07270657                0.93126774               -0.34123748               -0.38697863                1.27213007               -0.04375413               -0.00344013                0.00097435
               1.04299620                0.01545884                6.05713525                0.82585086               -0.30361080               -0.29745775                0.99238334               -0.04691275               -0.00081240               -0.00881878
               2.04033636                0.01149379                6.04163160                0.78669447               -0.22796752               -0.21693941                0.72860445               -0.04844478                0.01422695               -0.00829610
               3.03843685                0.00745610                6.02628828                0.76501038               -0.14938602               -0.13614494                0.46431880               -0.05140160                0.03666898               -0.00650646
               4.03734864                0.00335007                6.01110792                0.75303841               -0.06580421               -0.05556719                0.19588873               -0.05308175                0.05545773               -0.00285385
               5.03712076               -0.00079890                5.99602691                0.75049694                0.02127200                0.02505628               -0.07561851               -0.05351490                0.06339037                0.00151395
               6.03777408               -0.00495209                5.98094060                0.75734854                0.10872093                0.10572347               -0.34771603               -0.05257045                0.05779847                0.00574156
               7.03929518               -0.00907330                5.96574317                0.77363663                0.19334449                0.18645001               -0.61792451               -0.05036737                0.04070439                0.00896938
               8.04164097               -0.01314583                5.95036398                0.79963255                0.27326724                0.26750762               -0.88507721               -0.04713174                0.01864267                0.01013449
               9.04476053               -0.01718719                5.93479802                0.83638586                0.35002624                0.34898469               -1.15159784               -0.04526841                0.00220284                0.00838111
              10.04864149               -0.02129860                5.91913039                0.93330211                0.38809639                0.43670120               -1.42737022               -0.03938889               -0.00170604                0.00091358
               0.04995297                1.01557099                6.07206089                0.85616514               -0.34524013               -0.38623153                1.28875527               -0.00051066                0.00573414                0.00006408
               1.04650057                1.01248426                6.05649369                0.63916650               -0.30498437               -0.29815717                1.00801557               -0.00874151                0.01664084               -0.01542924
               2.04385328                1.00932439                6.04110139                0.56362756               -0.22529373               -0.21771257                0.73877418               -0.01813152                0.03684042               -0.01705809
               3.04199469                1.00609465                6.02585895                0.52571175               -0.14539791               -0.13671577                0.46837288               -0.02523369                0.05764538               -0.01336752
               4.04094532                1.00279440                6.01077540                0.50503375               -0.06289988               -0.05526064                0.19369830               -0.02992542                0.07518204               -0.00590274
               5.04073669                0.99945166                5.99578705                0.50068540                0.02201258                0.02650742               -0.08413065               -0.03115557                0.08289518                0.00323561
               6.04138557                0.99610515                5.98079561                0.51245394                0.10758426                0.10826260               -0.36264391               -0.02864684                0.07854981                0.01202980
               7.04288838                0.99279120                5.96570096                0.54052375                0.19205102                0.18970795               -0.63936377               -0.02271271                0.06344003                0.01844650
               8.04522659                0.98952925                5.95043070                0.58570707                0.27479265                0.27082627               -0.91303652               -0.01467506                0.04215803                0.02032753
               9.04838423                0.98630266                5.93496472                0.65028078                0.35662104                0.35232290               -1.18549841               -0.00651097                0.02044678                0.01582380
              10.05235901                0.98306841                5.91932416                0.85162692                0.39747826                0.43873344               -1.46296181                0.00264917                0.00878101                0.00322563
               0.05257181                2.01171615                6.07141747                0.84949856               -0.35038468               -0.38145527                1.29500106               -0.00268688                0.00679467                0.00345261
               1.04906797                2.00949570                6.05575252                0.62644598               -0.31042369               -0.29785806                1.01774700               -0.01380125                0.02783941               -0.01624214
               2.04636334                2.00713954                6.04041013                0.55393947               -0.23028979               -0.21756349                0.74744849               -0.02817116                0.06249931               -0.02038527
               3.04446217                2.00472179                6.02529602                0.52153512               -0.14851092               -0.13647772                0.47284773               -0.03781440                0.09152391               -0.01641964
               4.04339312                2.00224486                6.01038163                0.50410735               -0.06376334               -0.05408621                0.19230094               -0.04435958                0.11335320               -0.00726817
               5.04318690                1.99973125                5.99558122                0.50049678                0.02342420                0.02901310               -0.09212593               -0.04605955                0.12250086                0.00425789
               6.04386160                1.99721316                5.98077624                0.51037601                0.11149617                0.11200189               -0.37729853               -0.04234165                0.11682400                0.01523478
               7.04541683                1.99472086                5.96584575                0.53399051                0.19872014                0.19411889               -0.65997157               -0.03383312                0.09707841                0.02268984
               8.04783601                1.99227070                5.95069208                0.57229431                0.28371611                0.27504745               -0.93780270               -0.02237564                0.06697612                0.02369641
               9.05109115                1.98985927                5.93526265                0.62752545                0.36634806                0.35580384               -1.21084355               -0.01038233                0.03253335                0.01583283
              10.05516297                1.98747607                5.91955544                0.83626539                0.40718193                0.43865235               -1.48411928               -0.00021645                0.01235807               -0.00165619
               0.05434012                3.00794189                6.07086602                0.84994346               -0.35389740               -0.37280046                1.29454994               -0.00338085                0.01002416                0.00810677
               1.05080115                3.00652710                6.05512380                0.62748700               -0.31381783               -0.29480896                1.02071688               -0.01287434                0.03838693               -0.00791351
               2.04806377                3.00497312                6.03981392                0.55466359               -0.23340343               -0.21510137                0.74995762               -0.02477330                0.08343466               -0.01170377
               3.04613308                3.00336510                6.02479422                0.52190396               -0.15075492               -0.13434045                0.47323903               -0.03164335                0.11910305               -0.00991849
               4.04504867                3.00171267                6.01001367                0.50430513               -0.06429437               -0.05214253                0.18933259               -0.03619163                0.14485088               -0.00429096
               5.04484719                3.00003192                5.99536496                0.50081632                0.02502304                0.03087769               -0.09908202               -0.03722290                0.15524416                0.00307600
               6.04554913                2.99834519                5.98070940                0.51114122                0.11534939                0.11371328               -0.38826700               -0.03423340                0.14811293                0.00990969
               7.04715418                2.99667357                5.96590503                0.53548596                0.20457696                0.19542041               -0.67425252               -0.02771387                0.12396473                0.01386498
               8.04964067                2.99503020                5.95083145                0.57465219                0.29085179                0.27557473               -0.95374591               -0.01899027                0.08650674                0.01271471
               9.05297122                2.99341873                5.93541482                0.63054178                0.37402086                0.35455662               -1.22586372               -0.00935263                0.04282751                0.00475285
              10.05712109                2.99184146                5.91964375                0.83783392                0.41498688                0.43310371               -1.49548952               -0.00110280                0.01675760               -0.01065997
               0.05533376                4.00426014                6.07043489                0.84968902               -0.35545189               -0.36485637                1.29029439               -0.00289350                0.01238658                0.00770870
               1.05177924                4.00359952                6.05463345                0.62740069               -0.31519407               -0.29085753                1.01856884               -0.00849216                0.04568836               -0.00220781
               2.04902988                4.00283751                6.03934246                0.55475488               -0.23447439               -0.21210106                0.74778241               -0.01580093                0.09738789               -0.00460638
               3.04708975                4.00203498                6.02437889                0.52196051               -0.15137076               -0.13176599                0.47028845               -0.01938732                0.13705646               -0.00410808
               4.04600246                4.00120201                6.00968218                0.50439175               -0.06399095               -0.05003200                0.18494548               -0.02156437                0.16543365               -0.00154401
               5.04580993                4.00034880                5.99513078                0.50106520                0.02664109                0.03246527               -0.10529541               -0.02187612                0.17668411                0.00192870
               6.04653528                3.99948743                5.98057048                0.51170402                0.11838012                0.11471311               -0.39630510               -0.02006149                0.16846461                0.00497156
               7.04817754                3.99862926                5.96584297                0.53648880                0.20878799                0.19573022               -0.68362101               -0.01636466                0.14121498                0.00618738
               8.05071104                3.99778219                5.95081178                0.57612830                0.29576516                0.27492676               -0.96339662               -0.01141050                0.09887824                0.00427817
               9.05409284                3.99695040                5.93539046                0.63233529                0.37922104                0.35219543               -1.23430286               -0.00574982                0.04924815               -0.00171445
              10.05829546                3.99613814                5.91956285                0.83873812                0.42026258                0.42750135               -1.50126628               -0.00073526                0.01950675               -0.01214117
               0.05560349                5.00064476                6.07009940                0.84911404               -0.35495543               -0.36070603                1.28520105               -0.00183621                0.01347125                0.00188764
               1.05205394                5.00070995                6.05427107                0.62665837               -0.31455995               -0.28814538                1.01389676               -0.00250532                0.04889446                0.00001092
               2.04931229                5.00073110                6.03898816                0.55439577               -0.23365490               -0.20984748                0.74300189               -0.00412545                0.10335998               -0.00017320
               3.04738084                5.00072978                6.02404800                0.52175952               -0.15043656               -0.12969801                0.46532603               -0.00439117                0.14459956                0.00006176
               4.04630356                5.00071203                6.00938678                0.50435198               -0.06282949               -0.04813855                0.17964156               -0.00430439                0.17406794                0.00052050
               5.04612425                5.00068123                5.99487702                0.50121293                0.02819385                0.03412016               -0.11105967               -0.00401596                0.18569046                0.00098502
               6.04686744                5.00063945                5.98035692                0.51207538                0.12039392                0.11607609               -0.40251785               -0.00354746                0.17697467                0.00117261
               7.04853213                5.00058818                5.96566006                0.53711445                0.21119442                0.19674007               -0.69008558               -0.00291146                0.14834258                0.00077722
               8.05109133                5.00052873                5.95064246                0.57701144                0.29840746                0.27544794               -0.96974099               -0.00211468                0.10387740               -0.00046559
               9.05450028                5.00046264                5.93521234                0.63342483                0.38197874                0.35194638               -1.24006766               -0.00114361                0.05175384               -0.00273136
              10.05873090                5.00039148                5.91935348                0.83932095                0.42306244                0.42605093               -1.50613259                0.00020200                0.02054796               -0.00597580
               0.05516664                5.99704602                6.06983964                0.84840127               -0.35238558               -0.36152036                1.28038995               -0.00082077                0.01320391               -0.00496966
               1.05164279                5.99783661                6.05402147                0.62550994               -0.31195508               -0.28766361                1.00770986                0.00341966                0.04786687                0.00122999
               2.04892754                5.99864056                6.03873912                0.55370163               -0.23108956               -0.20893585                0.73647670                0.00745194                0.10128344                0.00341036
               3.04702100                5.99944102                6.02379398                0.52134291               -0.14813092               -0.12844871                0.45895617                0.01037991                0.14183548                0.00359537
               4.04596492                6.00023924                6.00912394                0.50418655               -0.06093987               -0.04657539                0.17369910                0.01253874                0.17092613                0.00222038
               5.04580220                6.00103120                5.99460342                0.50124965                0.02962298                0.03597549               -0.11646880                0.01329897                0.18246728               -0.00000797
               6.04655738                6.00180895                5.98007205                0.51226564                0.12139101                0.11820230               -0.40739330                0.01239626                0.17392063               -0.00232845
               7.04823002                6.00256407                5.96536467                0.53742831                0.21184523                0.19912626               -0.69453051                0.01001646                0.14571035               -0.00395980
               8.05079429                6.00329115                5.95033895                0.57746400                0.29885986                0.27813061               -0.97402100                0.00672542                0.10192726               -0.00412991
               9.05420722                6.00398933                5.93490487                0.63411874                0.38237658                0.35512392               -1.24467049                0.00314987                0.05068090               -0.00226021
              10.05844182                6.00465916                5.91904735                0.83979307                0.42346027                0.43033838               -1.51175590                0.00098791                0.02016611                0.00178766
               0.05400588                6.99341435                6.06965649                0.84741460               -0.34780978               -0.36610132                1.27488105               -0.00039261                0.01173273               -0.00817183
               1.05052779                6.99495668                6.05388111                0.62378076               -0.30744801               -0.28862105                0.99914563                0.00777273                0.04289172                0.00438630
               2.04785692                6.99655239                6.03859034                0.55260491               -0.22690134               -0.20873267                0.72755985                0.01626662                0.09163017                0.00811348
               3.04598976                6.99816080                6.02361188                0.52069334               -0.14463877               -0.12756680                0.45081710                0.02190683                0.12941330                0.00755106
               4.04496415                6.99978053                6.00889052                0.50390108               -0.05846247               -0.04515763                0.16703632                0.02579914                0.15685795                0.00390182
               5.04482051                7.00140074                5.99431004                0.50118097                0.03091757                0.03789276               -0.12135607                0.02691622                0.16797067               -0.00127580
               6.04558250                7.00300349                5.97971923                0.51226051                0.12148726                0.12064375               -0.41052571                0.02482749                0.16020977               -0.00635876
               7.04725026                7.00457070                5.96496247                0.53737495                0.21090363                0.20219441               -0.69629861                0.01986171                0.13408213               -0.00966622
               8.04980057                7.00609135                5.94990764                0.57736630                0.29725057                0.28208257               -0.97533174                0.01311372                0.09363248               -0.00951889
               9.05319527                7.00756512                5.93447315                0.63421361                0.38052108                0.36061378               -1.24700632                0.00597565                0.04643552               -0.00465217
              10.05741099                7.00899825                5.91864531                0.84002229                0.42157273                0.43878787               -1.51686293                0.00103330                0.01860376                0.00487212
               0.05207413                7.98972399                6.06956311                0.84574895               -0.34139238               -0.37129161                1.26577705               -0.00094686                0.00938320               -0.00611886
               1.04866021                7.99206419                6.05385048                0.62095410               -0.30126903               -0.28862179                0.98573449                0.00921211                0.03459126                0.00979009
               2.04604875                7.99446591                6.03853624                0.55091500               -0.22146075               -0.20753139                0.71446706                0.01961863                0.07546118                0.01334757
               3.04423099                7.99688968                6.02349309                0.51976702               -0.14038893               -0.12595122                0.43992091                0.02666454                0.10891391                0.01113854
               4.04324097                7.99933608                6.00868133                0.50351466               -0.05567183               -0.04344734                0.15937050                0.03136608                0.13406032                0.00518466
               5.04311756                8.00178906                5.99399916                0.50103042                0.03214973                0.03950864               -0.12535832                0.03261491                0.14462424               -0.00252108
               6.04388397                8.00422183                5.97930808                0.51203791                0.12109227                0.12224203               -0.41089782                0.02994265                0.13798943               -0.01000385
               7.04553940                8.00660795                5.96446596                0.53682477                0.20890903                0.20411475               -0.69364805                0.02369083                0.11494995               -0.01519614
               8.04806215                8.00893280                5.94935661                0.57639301                0.29402118                0.28484484               -0.97112605                0.01516652                0.07981055               -0.01594303
               9.05141983                8.01120160                5.93391443                0.63308440                0.37670377                0.36522347               -1.24380586                0.00650897                0.03940008               -0.01046400
              10.05559622                8.01343492                5.91812968                0.83958139                0.41763978                0.44727441               -1.51765075                0.00004732                0.01609044                0.00129001
               0.04930655                8.98598852                6.06955244                0.84291016               -0.33364325               -0.37309418                1.24929795               -0.00263234                0.00669868               -0.00250630
               1.04597011                8.98918424                6.05390585                0.61650049               -0.29413699               -0.28491162                0.96424746                0.00690058                0.02370671                0.01136270
               2.04342381                8.99240176                6.03854100                0.54853719               -0.21586199               -0.20365485                0.69564521                0.01476809                0.05479182                0.01298381
               3.04165287                8.99564178                6.02340498                0.51859848               -0.13658563               -0.12239562                0.42574885                0.02019925                0.08441652                0.01010984
               4.04069209                8.99891158                6.00848144                0.50308625               -0.05329046               -0.04099507                0.15067407                0.02373892                0.10807615                0.00443379
               5.04058706                9.00219091                5.99368051                0.50085277                0.03351825                0.04048290               -0.12820539                0.02462031                0.11839106               -0.00250110
               6.04136246                9.00544833                5.97887222                0.51163668                0.12130158                0.12184949               -0.40792528                0.02260083                0.11255264               -0.00923203
               7.04301310                9.00865300                5.96392403                0.53575798                0.20738984                0.20295401               -0.68541629                0.01780703                0.09192017               -0.01421058
               8.04551026                9.01178824                5.94873422                0.57433161                0.29051194                0.28388444               -0.95905890                0.01119881                0.06187325               -0.01570054
               9.04882333                9.01486959                5.93325898                0.63006969                0.37175290                0.36528816               -1.23091851                0.00462279                0.02975390               -0.01214790
              10.05294531                9.01794374                5.91750962                0.83793623                0.41219786                0.45101010               -1.50873404               -0.00185018                0.01264322               -0.00268530
               0.04563003                9.98226211                6.06956974                0.92015864               -0.32450518               -0.37264119                1.22127398                0.04273390                0.00018304               -0.00188593
               1.04238498                9.98636596                6.05393712                0.80636982               -0.28717270               -0.28182866                0.93531720                0.04802189                0.00920578                0.00841506
               2.03988658                9.99039281                6.03848790                0.77336773               -0.21299118               -0.20089491                0.67378035                0.05006783                0.03485726                0.00888284
               3.03812516                9.99444177                6.02326417                0.75889404               -0.13599790               -0.12000107                0.41053400                0.05339703                0.06549389                0.00684315
               4.03716662                9.99851618                6.00825735                0.75141428               -0.05259745               -0.03953978                0.14201412                0.05530012                0.09053374                0.00288091
               5.03707321               10.00259872                5.99337772                0.75038065                0.03536377                0.04078057               -0.13034530                0.05574620                0.10140960               -0.00188110
               6.03787390               10.00665882                5.97849080                0.75567378                0.12412132                0.12104826               -0.40354595                0.05455965                0.09500726               -0.00650358
               7.03955563               10.01066703                5.96346040                0.76745264                0.20978198                0.20140344               -0.67456245                0.05183767                0.07331991               -0.00998790
               8.04206954               10.01461049                5.94818714                0.78627513                0.29005757                0.28222498               -0.94196723                0.04794463                0.04345313               -0.01114388
               9.04535679               10.01850736                5.93264204                0.81356950                0.36706924                0.36377765               -1.20843601                0.04557642                0.01632693               -0.00898527
              10.04941092               10.02245512                5.91688218                0.91807866                0.40541343                0.45113791               -1.48578213                0.04133600                0.00591578               -0.00221654
               0.06340575                0.01999025                7.08546296                0.93128200               -0.34137908               -0.38697026                1.27576573               -0.04445743                0.00561716               -0.00330840
               1.05999196                0.01593949                7.06709092                0.82588724               -0.30218735               -0.29846509                0.99664800               -0.04553186                0.01596261               -0.00871254
               2.05736200                0.01190309                7.04891892                0.78652603               -0.22384426               -0.21748863                0.72844393               -0.04614230                0.03706268               -0.00693302
               3.05551507                0.00781190                7.03091634                0.76482635               -0.14423903               -0.13636357                0.46154459               -0.04805197                0.05670866               -0.00509544
               4.05447722                0.00367098                7.01304948                0.75298043               -0.06185472               -0.05562621                0.19281942               -0.04906814                0.07145265               -0.00213509
               5.05427798               -0.00050307                6.99525749                0.75052307                0.02268752                0.02504318               -0.07775695               -0.04929613                0.07706734                0.00126987
               6.05493097               -0.00468443                6.97745524                0.75734438                0.10747019                0.10573406               -0.34873031               -0.04864923                0.07163383                0.00455129
               7.05642738               -0.00884933                6.95955679                0.77353800                0.19046519                0.18654595               -0.61858462               -0.04721358                0.05657630                0.00713359
               8.05874027               -0.01298746                6.94149733                0.79951258                0.27069832                0.26775974               -0.88700310               -0.04510908                0.03609299                0.00841114
               9.06184135               -0.01711001                6.92324720                0.83635070                0.34930838                0.34931142               -1.15611281               -0.04427451                0.01574451                0.00796017
              10.06572644               -0.02129027                6.90481678                0.93326672                0.38850941                0.43625295               -1.43178972               -0.04088578                0.00656858                0.00437396
               0.06701193                1.01612054                7.08492884                0.85533462               -0.34317169               -0.38623390                1.28355517               -0.00112720                0.00985753               -0.00573135
               1.06358022                1.01295484                7.06655275                0.63798293               -0.30237823               -0.29895580                1.00377371               -0.00649742                0.02559407               -0.01561881
               2.06096437                1.00972820                7.04844963                0.56271729               -0.22148050               -0.21786605                0.73214517               -0.01308352                0.04968903               -0.01505853
               3.05915061                1.00644827                7.03050167                0.52512676               -0.14101729               -0.13656329                0.46156164               -0.01793577                0.06773956               -0.01115118
               4.05814402                1.00311471                7.01268531                0.50484602               -0.05939436               -0.05514876                0.18917269               -0.02114378                0.08145378               -0.00470963
               5.05796272                0.99974736                6.99494016                0.50066452                0.02367906                0.02637338               -0.08500296               -0.02192803                0.08685160                0.00288525
               6.05861761                0.99637291                6.97718628                0.51225322                0.10720194                0.10787765               -0.35963221               -0.02012676                0.08234371                0.01017571
               7.06010676                0.99301613                6.95934234                0.53987675                0.19009589                0.18925546               -0.63331216               -0.01599258                0.06879335                0.01571226
               8.06241952                0.98969014                6.94134267                0.58456924                0.27216232                0.27057612               -0.90564758               -0.01053325                0.04899993                0.01811611
               9.06555001                0.98638311                6.92314802                0.64870445                0.35391606                0.35234671               -1.17829976               -0.00488191                0.02572199                0.01631879
              10.06949784                0.98307226                6.90473219                0.85062963                0.39478390                0.43807062               -1.45495985                0.00151747                0.01204352                0.00934098
               0.06971462                2.01226557                7.08433306                0.84804291               -0.34602716               -0.38308425                1.28692780               -0.00256817                0.00954906               -0.00585773
               1.06625435                2.00996037                7.06588596                0.62426542               -0.30538613               -0.29923694                1.00934612               -0.01042663                0.03279659               -0.01880470
               2.06360690                2.00754577                7.04782343                0.55254133               -0.22422537               -0.21793924                0.73688257               -0.02084891                0.06723961               -0.01982817
               3.06176984                2.00508064                7.02996825                0.52073859               -0.14258258               -0.13631665                0.46324299               -0.02766874                0.09081943               -0.01489639
               4.06075525                2.00256800                7.01227057                0.50382059               -0.05943103               -0.05393314                0.18652493               -0.03226583                0.10742193               -0.00623718
               5.06058122                2.00002440                6.99465607                0.50037633                0.02522069                0.02885178               -0.09256865               -0.03339375                0.11373657                0.00412605
               6.06125966                1.99747312                6.97703115                0.50999114                0.11045387                0.11155077               -0.37212374               -0.03066719                0.10814465                0.01400913
               7.06279030                1.99493578                6.95930066                0.53297429                0.19514861                0.19371871               -0.65012924               -0.02460676                0.09127329                0.02124772
               8.06516263                1.99242406                6.94138289                0.57047926                0.27856417                0.27520513               -0.92542410               -0.01654275                0.06551894                0.02387915
               9.06836158                1.98993693                6.92321887                0.62494442                0.36079239                0.35679439               -1.19865021               -0.00796918                0.03390783                0.02039266
              10.07237848                1.98747115                6.90476699                0.83473016                0.40168984                0.43979330               -1.47289268               -0.00045179                0.01455036                0.01015739
               0.07157097                3.00845886                7.08378182                0.84835948               -0.34794825               -0.37794658                1.28671485               -0.00291447                0.01190041               -0.00103026
               1.06809149                3.00697010                7.06528454                0.62498138               -0.30719215               -0.29810690                1.01136854               -0.00979317                0.04039224               -0.01186552
               2.06542713                3.00536942                7.04724922                0.55301826               -0.22582443               -0.21695725                0.73835230               -0.01876150                0.08238532               -0.01330386
               3.06357500                3.00372193                7.02946758                0.52095597               -0.14360904               -0.13512507                0.46277403               -0.02387275                0.11091512               -0.01023241
               4.06255495                3.00203605                7.01187100                0.50392868               -0.05926362               -0.05234803                0.18307606               -0.02721161                0.13034829               -0.00415590
               5.06238973                3.00032440                6.99436943                0.50061694                0.02689646                0.03096873               -0.09952022               -0.02792419                0.13748308                0.00324272
               6.06309288                2.99860392                6.97685523                0.51063466                0.11369781                0.11414648               -0.38256001               -0.02567413                0.13071179                0.01018491
               7.06466368                2.99689051                6.95921914                0.53425843                0.19973242                0.19655968               -0.66343501               -0.02086546                0.11058886                0.01490394
               8.06708752                2.99519424                6.94136456                0.57252891                0.28399281                0.27794846               -0.94033103               -0.01445183                0.07960594                0.01581957
               9.07034354                2.99351900                6.92321817                0.62765795                0.36664253                0.35855240               -1.21332619               -0.00724212                0.04140826                0.01175314
              10.07442037                2.99186813                6.90472962                0.83620832                0.40768355                0.43872238               -1.48542464               -0.00087017                0.01775023                0.00206846
               0.07263386                4.00470664                7.08331702                0.84819480               -0.34859297               -0.37312633                1.28359923               -0.00246881                0.01366631                0.00272210
               1.06914793                4.00399823                7.06477753                0.62493734               -0.30770131               -0.29607629                1.00967269               -0.00654400                0.04593995               -0.00477640
               2.06647983                4.00320662                7.04675968                0.55307689               -0.22610882               -0.21540300                0.73644233               -0.01223389                0.09311860               -0.00608056
               3.06462575                4.00237813                7.02902498                0.52096705               -0.14356410               -0.13352912                0.45992232               -0.01506899                0.12483304               -0.00481735
               4.06360855                4.00152104                7.01149615                0.50396673               -0.05854434               -0.05063103                0.17865742               -0.01677133                0.14629397               -0.00179490
               5.06345487                4.00064377                6.99407184                0.50081437                0.02857581                0.03281626               -0.10585666               -0.01700528                0.15402835                0.00197509
               6.06418007                3.99975605                6.97663302                0.51114145                0.11639038                0.11607608               -0.39079023               -0.01559735                0.14634888                0.00538469
               7.06578267                3.99886698                6.95905900                0.53520474                0.20325210                0.19844116               -0.67310432               -0.01275396                0.12382662                0.00732898
               8.06824511                3.99798303                6.94124207                0.57397842                0.28800888                0.27948242               -0.95056503               -0.00894165                0.08915910                0.00682193
               9.07154285                3.99710798                6.92309950                0.62955017                0.37088516                0.35908187               -1.22298218               -0.00454334                0.04643627                0.00312223
              10.07566281                3.99624559                6.90457524                0.83724176                0.41199609                0.43713993               -1.49341735               -0.00048809                0.01994563               -0.00419024
               0.07293840                5.00099633                7.08293387                0.84768063               -0.34777820               -0.37023210                1.27896759               -0.00162409                0.01458560                0.00378298
               1.06946062                5.00104857                7.06437096                0.62426421               -0.30679287               -0.29418035                1.00533447               -0.00203442                0.04864187                0.00107456
               2.06680255                5.00106136                7.04635984                0.55274140               -0.22507111               -0.21374061                0.73195007               -0.00346884                0.09824158                0.00028040
               3.06495920                5.00105135                7.02864607                0.52076815               -0.14243327               -0.13186550                0.45514763               -0.00383850                0.13136094                0.00014879
               4.06395388                5.00102343                7.01114831                0.50391587               -0.05722947               -0.04891965                0.17341903               -0.00387573                0.15373770                0.00036064
               5.06381461                5.00098072                6.99375987                0.50094500                0.03019203                0.03455111               -0.11167819               -0.00368341                0.16174821                0.00063319
               6.06455772                5.00092545                6.97635565                0.51149681                0.11835054                0.11779435               -0.39717690               -0.00328606                0.15362226                0.00067750
               7.06618162                5.00085933                6.95880879                0.53582527                0.20549843                0.20007176               -0.67986698               -0.00270356                0.12994003                0.00020417
               8.06866769                5.00078389                6.94100576                0.57488651                0.29042442                0.28088292               -0.95736868               -0.00195226                0.09351112               -0.00105997
               9.07199011                5.00070063                6.92285919                0.63073484                0.37338439                0.36001210               -1.22943575               -0.00104114                0.04867465               -0.00335557
              10.07613538                5.00061093                6.90431112                0.83790827                0.41452687                0.43726845               -1.49926755                0.00029031                0.02095689               -0.00680864
               0.07249690                5.99730200                7.08262154                0.84691226               -0.34546853               -0.36994065                1.27350712               -0.00079424                0.01456074                0.00392587
               1.06904222                5.99811463                7.06405744                0.62308628               -0.30446129               -0.29297335                0.99892622                0.00245569                0.04833927                0.00603785
               2.06640768                5.99893181                7.04604427                0.55206472               -0.22276541               -0.21227098                0.72534392                0.00526038                0.09758973                0.00589789
               3.06458691                5.99974082                7.02832753                0.52037612               -0.14030063               -0.13026192                0.44874904                0.00726903                0.13039596                0.00457741
               4.06360167                6.00054265                7.01082581                0.50377360               -0.05538625               -0.04725171                0.16748895                0.00877183                0.15257497                0.00222827
               5.06347918                6.00133479                6.99343270                0.50100037                0.03170362                0.03624288               -0.11702195                0.00930749                0.16053428               -0.00072765
               6.06423574                6.00211194                6.97602329                0.51169915                0.11954877                0.11949564               -0.40193452                0.00867223                0.15248822               -0.00376000
               7.06587016                6.00286841                6.95847081                0.53614252                0.20645126                0.20180051               -0.68415320                0.00701185                0.12900093               -0.00633514
               8.06836476                6.00360069                6.94066183                0.57532661                0.29124150                0.28271402               -0.96143447                0.00473890                0.09284962               -0.00801109
               9.07169499                6.00430822                6.92250894                0.63137371                0.37416344                0.36213590               -1.23367481                0.00225870                0.04831082               -0.00856501
              10.07584803                6.00499096                6.90395404                0.83832514                0.41530412                0.44012182               -1.50417355                0.00098460                0.02090450               -0.00804489
               0.07129726                6.99359752                7.08237355                0.84582312               -0.34173384               -0.37155617                1.26666444               -0.00037082                0.01374103                0.00514962
               1.06787992                6.99518910                7.06382742                0.62132601               -0.30078522               -0.29202050                0.99001569                0.00574823                0.04535783                0.01081339
               2.06528156                6.99681594                7.04580382                0.55102454               -0.21930895               -0.21066223                0.71634141                0.01178767                0.09174101                0.01101655
               3.06349374                6.99844611                7.02806229                0.51979048               -0.13731039               -0.12849575                0.44059487                0.01570062                0.12271155                0.00845402
               4.06253535                7.00007840                7.01052518                0.50354657               -0.05311360               -0.04553675                0.16085485                0.01842727                0.14375813                0.00376614
               5.06243147                7.00170558                6.99309148                0.50098537                0.03310999                0.03782964               -0.12181661                0.01920520                0.15142035               -0.00202070
               6.06319755                7.00331536                6.97564177                0.51174547                0.12008173                0.12097426               -0.40491591                0.01771172                0.14392820               -0.00773354
               7.06483311                7.00489534                6.95805472                0.53613779                0.20625571                0.20330439               -0.68572024                0.01422105                0.12184020               -0.01219711
               8.06732266                7.00643817                6.94022227                0.57525253                0.29059530                0.28454067               -0.96240284                0.00953100                0.08781160               -0.01439890
               9.07064501                7.00794335                6.92206113                0.63137907                0.37334604                0.36488446               -1.23521387                0.00449565                0.04573662               -0.01377118
              10.07478958                7.00941336                6.90351369                0.83843128                0.41445715                0.44484224               -1.50750816                0.00119393                0.02002298               -0.01050147
               0.06930632                7.98987087                7.08218206                0.84422452               -0.33675549               -0.37330343                1.25688793               -0.00060666                0.01246797                0.00731179
               1.06593877                7.99227422                7.06366429                0.61876303               -0.29599487               -0.29004035                0.97739947                0.00680108                0.04044355                0.01435210
               2.06338642                7.99471857                7.04562129                0.54956130               -0.21501513               -0.20811896                0.70417277                0.01401338                0.08205805                0.01437112
               3.06163846                7.99717091                7.02783615                0.51901332               -0.13378403               -0.12610413                0.43035924                0.01880495                0.11019092                0.01072842
               4.06071074                7.99963191                7.01024000                0.50325555               -0.05060675               -0.04358192                0.15346424                0.02203617                0.12967567                0.00454775
               5.06062633                8.00209139                6.99274055                0.50092021                0.03447336                0.03916601               -0.12595391                0.02288145                0.13697678               -0.00285358
               6.06140021                8.00453142                6.97522605                0.51164429                0.12027213                0.12174849               -0.40584960                0.02100251                0.13027837               -0.01007739
               7.06303177                8.00693450                6.95758281                0.53578493                0.20535815                0.20380698               -0.68401447                0.01670856                0.11022928               -0.01571865
               8.06550737                8.00929150                6.93971118                0.57455329                0.28889688                0.28522218               -0.95925299                0.01095230                0.07949548               -0.01852594
               9.06880971                8.01160591                6.92153564                0.63048222                0.37122565                0.36660274               -1.23247734                0.00501329                0.04148590               -0.01775998
              10.07293189                8.01388781                6.90300083                0.83802638                0.41221776                0.44919828               -1.50719595                0.00072831                0.01859415               -0.01379169
               0.06647844                8.98613145                7.08201690                0.84194287               -0.33101909               -0.37319485                1.24262057               -0.00171565                0.01125272                0.00659559
               1.06316825                8.98938830                7.06352639                0.61526449               -0.29066557               -0.28579038                0.95998249                0.00490481                0.03474371                0.01210886
               2.06066513                8.99265356                7.04545529                0.54771672               -0.21058780               -0.20419948                0.68868551                0.01022467                0.07098196                0.01182385
               3.05895649                8.99592403                7.02761728                0.51811195               -0.13047680               -0.12267081                0.41831251                0.01386668                0.09664085                0.00861128
               4.05805559                8.99920676                7.00995706                0.50295023               -0.04834520               -0.04122654                0.14552818                0.01627350                0.11514529                0.00354579
               5.05798959                9.00248890                6.99238988                0.50084842                0.03594453                0.04017139               -0.12949986                0.01684770                0.12231162               -0.00237296
               6.05877448                9.00575033                6.97480869                0.51145736                0.12088026                0.12148108               -0.40505993                0.01545527                0.11615057               -0.00812904
               7.06040720                9.00897148                6.95710460                0.53516336                0.20479079                0.20269365               -0.67934487                0.01223084                0.09759142               -0.01269279
               8.06287030                9.01214261                6.93918528                0.57325944                0.28708890                0.28393652               -0.95174643                0.00789182                0.06981647               -0.01509226
               9.06614897                9.01527541                6.92098541                0.62851678                0.36850252                0.36568077               -1.22412202                0.00355037                0.03629351               -0.01471482
              10.07024035                9.01839733                6.90245711                0.83692829                0.40913771                0.45097028               -1.50108820               -0.00044900                0.01694375               -0.01199204
               0.06275832                9.98240698                7.08180192                0.92004029               -0.32435624               -0.37244763                1.22260918                0.04313082                0.00967738                0.00489502
               1.05951475                9.98655841                7.06331819                0.80628614               -0.28515666               -0.28298889                0.93937181                0.04603045                0.02930630                0.00796144
               2.05705518                9.99063458                7.04521748                0.77320870               -0.20760793               -0.20189825                0.67249382                0.04695965                0.06305948                0.00754346
               3.05536260                9.99471749                7.02734468                0.75876124               -0.12919213               -0.12065363                0.40645877                0.04925050                0.08910852                0.00541259
               4.05447134                9.99880738                7.00965287                0.75138734               -0.04714420               -0.03993764                0.13791430                0.05044081                0.10853133                0.00212596
               5.05441971               10.00289481                6.99205758                0.75041316                0.03776960                0.04059145               -0.13298502                0.05069529                0.11608439               -0.00166949
               6.05522673               10.00696104                6.97444815                0.75567361                0.12321951                0.12107163               -0.40443683                0.04990280                0.10948238               -0.00535578
               7.05688410               10.01098837                6.95671241                0.76736219                0.20672752                0.20168917               -0.67458577                0.04815018                0.09011192               -0.00830315
               8.05936128               10.01497023                6.93875899                0.78612713                0.28709477                0.28276218               -0.94294237                0.04565585                0.06234731               -0.00991714
               9.06262600               10.01891952                6.92053137                0.81340317                0.36588880                0.36441168               -1.21188794                0.04455137                0.03121474               -0.00980223
              10.06667906               10.02290721                6.90199666                0.91794063                0.40530617                0.45098833               -1.48850441                0.04263983                0.01536112               -0.00859145
               0.08326499                0.02044285                8.09822189                0.93093269               -0.34054941               -0.38565845                1.27389595               -0.04446056                0.01092679               -0.00520038
               1.07985949                0.01636094                8.07706821                0.82551030               -0.30063982               -0.29840867                0.99713739               -0.04424134                0.02640103               -0.00817787
               2.07725219                0.01229370                8.05620048                0.78629163               -0.22095177               -0.21749914                0.72732452               -0.04427497                0.05213536               -0.00584357
               3.07544046                0.00818354                8.03551918                0.76467536               -0.14078238               -0.13638203                0.45917016               -0.04556486                0.07074264               -0.00406506
               4.07443654                0.00403571                8.01496431                0.75294317               -0.05920553               -0.05565915                0.19053904               -0.04618237                0.08296346               -0.00166023
               5.07425635               -0.00013884                7.99447177                0.75054421                0.02354517                0.02496250               -0.07896147               -0.04630171                0.08693598                0.00097537
               6.07490745               -0.00432314                7.97396600                0.75732085                0.10641354                0.10558915               -0.34867836               -0.04586273                0.08159297                0.00350313
               7.07638462               -0.00850173                7.95337148                0.77339584                0.18824852                0.18632995               -0.61787126               -0.04493431                0.06778354                0.00557712
               8.07867242               -0.01266829                7.93262392                0.79923980                0.26856761                0.26743014               -0.88658820               -0.04354530                0.04782380                0.00685242
               9.08175597               -0.01682962                7.91167576                0.83588393                0.34806471                0.34869849               -1.15630439               -0.04336506                0.02434901                0.00710079
              10.08563371               -0.02104195                7.89049460                0.93289548                0.38777414                0.43469738               -1.43034961               -0.04145049                0.01155035                0.00566991
               0.08690229                1.01658626                8.09773200                0.85412392               -0.34106388               -0.38484208                1.27627127               -0.00134148                0.01221370               -0.00779222
               1.08349166                1.01337685                8.07656917                0.63647858               -0.30020769               -0.29865598                0.99910419               -0.00467638                0.03128862               -0.01424449
               2.08089814                1.01011871                8.05574430                0.56190729               -0.21889257               -0.21751577                0.72721278               -0.00917417                0.05875671               -0.01260601
               3.07911380                1.00681972                8.03509018                0.52469331               -0.13811154               -0.13627969                0.45689893               -0.01243119                0.07589566               -0.00895867
               4.07813591                1.00347912                8.01455885                0.50472460               -0.05705252               -0.05506438                0.18615174               -0.01458684                0.08735160               -0.00371056
               5.07797275                1.00011078                7.99408699                0.50065725                0.02471761                0.02616680               -0.08539391               -0.01508297                0.09116618                0.00224857
               6.07863026                0.99673275                7.97360297                0.51208864                0.10675487                0.10737649               -0.35719522               -0.01383762                0.08648654                0.00794967
               7.08010785                0.99336157                7.95303472                0.53932765                0.18853255                0.18853670               -0.62861504               -0.01104048                0.07376825                0.01243975
               8.08240091                0.99000601                7.93231775                0.58350404                0.27006506                0.26973440               -0.89964595               -0.00742263                0.05441967                0.01484499
               9.08550915                0.98665736                7.91139872                0.64692558                0.35153126                0.35132959               -1.17145178               -0.00358764                0.02944082                0.01451417
              10.08943154                0.98330502                7.89022497                0.84938514                0.39223861                0.43618686               -1.44606400                0.00096744                0.01413203                0.01085605
               0.08965699                2.01274601                8.09715603                0.84638308               -0.34234632               -0.38244717                1.27714799               -0.00229853                0.01100216               -0.00917601
               1.08623352                2.01038782                8.07593944                0.62205261               -0.30155738               -0.29893110                1.00140663               -0.00763406                0.03574053               -0.01778242
               2.08362584                2.00794338                8.05514778                0.55137810               -0.22010501               -0.21739518                0.72887251               -0.01497919                0.07071126               -0.01723494
               3.08183142                2.00545794                8.03456088                0.52014498               -0.13860490               -0.13579996                0.45638034               -0.01965805                0.09141637               -0.01241636
               4.08085374                2.00293442                8.01411212                0.50362683               -0.05651859               -0.05375718                0.18257494               -0.02277847                0.10467252               -0.00507531
               5.08070105                2.00038449                7.99372985                0.50029847                0.02630817                0.02851130               -0.09244462               -0.02350805                0.10901391                0.00337864
               6.08137990                1.99782439                7.97333377                0.50968971                0.10947495                0.11071312               -0.36771055               -0.02160481                0.10353933                0.01143457
               7.08289055                1.99526901                7.95284317                0.53214864                0.19241359                0.19258713               -0.64215214               -0.01746036                0.08857834                0.01762747
               8.08522818                1.99272640                7.93218360                0.56892374                0.27473295                0.27407014               -0.91526040               -0.01195954                0.06534402                0.02066122
               9.08838521                1.99019697                7.91128964                0.62246815                0.35647844                0.35579003               -1.18758569               -0.00597247                0.03494723                0.01953444
              10.09235775                1.98768178                7.89009759                0.83312207                0.39725357                0.43847768               -1.46079608               -0.00043617                0.01589648                0.01363937
               0.09157270                3.00893732                8.09660032                0.84648885               -0.34311052               -0.37917352                1.27623059               -0.00245529                0.01272056               -0.00438946
               1.08814160                3.00739823                8.07535117                0.62237321               -0.30221377               -0.29851232                1.00194529               -0.00723301                0.04114283               -0.01181622
               2.08552843                3.00577080                8.05458096                0.55159711               -0.22059972               -0.21690522                0.72885931               -0.01377775                0.08149035               -0.01213537
               3.08372960                3.00410372                8.03404970                0.52021902               -0.13873192               -0.13488999                0.45476191               -0.01741562                0.10573743               -0.00894443
               4.08275379                3.00240397                8.01367519                0.50366509               -0.05584914               -0.05228106                0.17859110               -0.01974813                0.12090846               -0.00354042
               5.08261262                3.00068101                7.99337456                0.50048078                0.02799311                0.03066840               -0.09916280               -0.02021883                0.12574351                0.00278710
               6.08331365                2.99894702                7.97305820                0.51022037                0.11220079                0.11351574               -0.37713290               -0.01862488                0.11939475                0.00874682
               7.08485664                2.99721332                7.95263633                0.53320986                0.19600545                0.19585925               -0.65383010               -0.01525665                0.10217500                0.01309610
               8.08723376                2.99548741                7.93202483                0.57062026                0.27888403                0.27755148               -0.92831476               -0.01073041                0.07535151                0.01473597
               9.09043432                2.99377316                7.91114829                0.62475138                0.36097126                0.35874293               -1.20077306               -0.00548289                0.04034722                0.01278890
              10.09445319                2.99207457                7.88993526                0.83439505                0.40188687                0.43955263               -1.47275693               -0.00060073                0.01820793                0.00661031
               0.09268607                4.00516254                8.09610688                0.84628754               -0.34306855               -0.37607129                1.27329355               -0.00208098                0.01403728                0.00109375
               1.08925538                4.00441757                8.07482691                0.62221603               -0.30206371               -0.29733491                0.99995533               -0.00490287                0.04532438               -0.00478179
               2.08664479                4.00360528                8.05407131                0.55155808               -0.22027206               -0.21593421                0.72656259               -0.00919210                0.08962257               -0.00563990
               3.08484994                4.00276014                8.03357734                0.52016499               -0.13816524               -0.13367570                0.45154930               -0.01132473                0.11627315               -0.00433610
               4.08388149                4.00188880                8.01325533                0.50366203               -0.05481538               -0.05071933                0.17398089               -0.01257783                0.13291063               -0.00161549
               5.08375363                4.00099786                7.99301365                0.50063881                0.02968062                0.03260126               -0.10542515               -0.01274228                0.13813349                0.00167885
               6.08447510                4.00009471                7.97275467                0.51066406                0.11456932                0.11578557               -0.38501713               -0.01171825                0.13109039                0.00468742
               7.08604502                3.99918619                7.95238088                0.53405280                0.19893107                0.19835701               -0.66299915               -0.00965489                0.11212757                0.00658519
               8.08845372                3.99827743                7.93180048                0.57193568                0.28216870                0.28001799               -0.93814685               -0.00684858                0.08263168                0.00663121
               9.09168839                3.99737183                7.91093082                0.62653482                0.36445936                0.36064660               -1.21045619               -0.00352509                0.04424384                0.00421588
              10.09574291                3.99647284                7.88969450                0.83540680                0.40545162                0.44009665               -1.48146306               -0.00025019                0.01993822               -0.00113592
               0.09302102                5.00141589                8.09567876                0.84578223               -0.34202167               -0.37388433                1.26880396               -0.00143701                0.01481141                0.00536952
               1.08960080                5.00145153                8.07437776                0.62154168               -0.30095022               -0.29583308                0.99566915               -0.00161553                0.04760019                0.00209591
               2.08700201                5.00145212                8.05362716                0.55121225               -0.21906061               -0.21453687                0.72210134               -0.00284353                0.09399180                0.00080706
               3.08521959                5.00143020                8.03315095                0.51995546               -0.13687483               -0.13219009                0.44676917               -0.00325475                0.12184931                0.00033155
               4.08426452                5.00138959                8.01285516                0.50360040               -0.05338594               -0.04909351                0.16873519               -0.00336981                0.13922383                0.00029521
               5.08415187                5.00133303                7.99264345                0.50075515                0.03132207                0.03435864               -0.11122150               -0.00325422                0.14464357                0.00037680
               6.08489096                5.00126273                7.97241338                0.51099758                0.11644748                0.11764628               -0.39134539               -0.00293199                0.13722524                0.00027765
               7.08648082                5.00118046                7.95206272                0.53464400                0.20100992                0.20026223               -0.66972052               -0.00242357                0.11733074               -0.00028848
               8.08891116                5.00108777                7.93149508                0.57281745                0.28437948                0.28184947               -0.94502100               -0.00174675                0.08640866               -0.00160555
               9.09216841                5.00098609                7.91062363                0.62772238                0.36675055                0.36221271               -1.21719647               -0.00092209                0.04623425               -0.00395242
              10.09624617                5.00087651                7.88936813                0.83609271                0.40777582                0.44114304               -1.48784228                0.00038096                0.02087196               -0.00753923
               0.09258606                5.99768485                8.09530978                0.84501003               -0.33992104               -0.37295351                1.26308040               -0.00079655                0.01495997                0.00880454
               1.08918685                5.99850091                8.07399999                0.62039418               -0.29884055               -0.29427152                0.98931693                0.00167843                0.04783475                0.00815825
               2.08660925                5.99931454                8.05324600                0.55057530               -0.21697352               -0.21282100                0.71565438                0.00351466                0.09441901                0.00658637
               3.08484738                6.00011634                8.03276896                0.51959358               -0.13489923               -0.13044658                0.44052248                0.00477143                0.12229440                0.00452693
               4.08391126                6.00090693                8.01247372                0.50347686               -0.05159844               -0.04739623                0.16289417                0.00571491                0.13965685                0.00196598
               5.08381541                6.00168504                7.99226298                0.50082345                0.03288885                0.03597160               -0.11655737                0.00605796                0.14506705               -0.00092488
               6.08456904                6.00244763                7.97203336                0.51121463                0.11780464                0.11916671               -0.39617709                0.00566372                0.13763865               -0.00388152
               7.08617150                6.00319144                7.95168160                0.53498361                0.20220550                0.20171530               -0.67414640                0.00462623                0.11771551               -0.00664566
               8.08861315                6.00391442                7.93111026                0.57328583                0.28548592                0.28331209               -0.94923928                0.00319410                0.08671550               -0.00904991
               9.09188122                6.00461608                7.91023138                0.62837626                0.36782779                0.36384497               -1.22149235                0.00157298                0.04638506               -0.01107712
              10.09596970                6.00529570                7.88896388                0.83650269                0.40884856                0.44324617               -1.49255228                0.00097036                0.02104792               -0.01281217
               0.09137297                6.99395682                8.09498978                0.84394470               -0.33682900               -0.37289852                1.25585847               -0.00042403                0.01461605                0.01185269
               1.08800468                6.99556610                8.07368142                0.61874933               -0.29580483               -0.29243239                0.98072776                0.00409398                0.04634811                0.01295396
               2.08545687                6.99719570                8.05291717                0.54964717               -0.21410252               -0.21063420                0.70713729                0.00819939                0.09148889                0.01112283
               3.08372263                6.99882127                8.03242378                0.51908590               -0.13233750               -0.12835414                0.43279275                0.01073455                0.11836492                0.00777638
               4.08281012                7.00044166                8.01210762                0.50329763               -0.04951510               -0.04558835                0.15647021                0.01250052                0.13510000                0.00320564
               5.08273233                7.00205247                7.99187371                0.50084796                0.03438540                0.03742760               -0.12142467                0.01300157                0.14034766               -0.00201409
               6.08349783                7.00364606                7.97162091                0.51131815                0.11871164                0.12028658               -0.39951364                0.01202700                0.13322789               -0.00718893
               7.08510656                7.00521476                7.95124806                0.53507211                0.20262820                0.20261286               -0.67626553                0.00976567                0.11405234               -0.01165188
               8.08755039                7.00675402                7.93065958                0.57333345                0.28560151                0.28424327               -0.95074638                0.00671534                0.08414087               -0.01490560
               9.09081859                7.00826299                7.90976888                0.62847228                0.36779752                0.36530187               -1.22322016                0.00330422                0.04504462               -0.01676944
              10.09490634                7.00974143                7.88849515                0.83661624                0.40877553                0.44599814               -1.49536694                0.00124447                0.02065562               -0.01740127
               0.08935903                7.99022688                8.09470087                0.84251934               -0.33291751               -0.37281288                1.24644651               -0.00047959                0.01410644                0.01363795
               1.08602985                7.99265226                8.07339847                0.61654755               -0.29204840               -0.28967861                0.96947723                0.00484484                0.04389899                0.01498566
               2.08351806                7.99510186                8.05261969                0.54843255               -0.21068746               -0.20768284                0.69636481                0.00963409                0.08658068                0.01306826
               3.08181610                7.99754926                8.03210027                0.51845300               -0.12939906               -0.12579003                0.42358631                0.01273012                0.11185286                0.00910762
               4.08093008                7.99999516                8.01175062                0.50308124               -0.04725319               -0.04360194                0.14950441                0.01483030                0.12769128                0.00364644
               5.08087104                8.00243359                7.99148008                0.50084513                0.03586023                0.03869790               -0.12585042                0.01537702                0.13274117               -0.00253377
               6.08164728                8.00485336                7.97119109                0.51132831                0.11939097                0.12087937               -0.40144745                0.01415135                0.12607962               -0.00859310
               7.08325886                8.00724369                7.95078567                0.53493000                0.20259704                0.20273906               -0.67612562                0.01138485                0.10802141               -0.01372856
               8.08569922                8.00959928                7.93017155                0.57295684                0.28505153                0.28422840               -0.94937139                0.00769034                0.07983407               -0.01732068
               9.08895989                8.01192212                7.90926488                0.62793931                0.36692491                0.36582848               -1.22186641                0.00375808                0.04281275               -0.01920389
              10.09303772                8.01421566                7.88798577                0.83636555                0.40778324                0.44833204               -1.49542710                0.00107679                0.02001851               -0.01991792
               0.08651261                8.98650057                8.09440486                0.84071119               -0.32860153               -0.37184606                1.23440684               -0.00120280                0.01387865                0.01072438
               1.08322660                8.98977253                8.07310550                0.61383031               -0.28800294               -0.28553317                0.95547723                0.00335857                0.04172177                0.01109197
               2.08075255                8.99304204                8.05231471                0.54701829               -0.20713369               -0.20412806                0.68372751                0.00680821                0.08207466                0.00984351
               3.07908392                8.99630547                8.03177123                0.51776324               -0.12650771               -0.12270132                0.41339152                0.00917097                0.10594791                0.00680823
               4.07822240                8.99956962                8.01139201                0.50286658               -0.04511296               -0.04140422                0.14223417                0.01076091                0.12123195                0.00267916
               5.07818166                9.00282642                7.99109051                0.50084830                0.03741747                0.03981731               -0.13001151                0.01112979                0.12622113               -0.00194627
               6.07897075                9.00606365                7.97077102                0.51130506                0.12033359                0.12097037               -0.40255160                0.01022771                0.11984176               -0.00645861
               7.08058834                9.00926954                7.95033713                0.53465907                0.20275135                0.20208371               -0.67448887                0.00815558                0.10253848               -0.01027178
               8.08302578                9.01243858                7.92969929                0.57227253                0.28445186                0.28327189               -0.94568163                0.00541575                0.07577882               -0.01290774
               9.08627737                9.01557956                7.90877654                0.62682890                0.36575116                0.36486457               -1.21741201                0.00265048                0.04068480               -0.01423958
              10.09034080                9.01870807                7.88748786                0.83573396                0.40634256                0.44942634               -1.49221312                0.00034267                0.01959075               -0.01544912
               0.08279105                9.98278996                8.09402192                0.91967799               -0.32355023               -0.37106091                1.21972218                0.04300792                0.01517343                0.00812926
               1.07955555                9.98694160                8.07272456                0.80594137               -0.28348870               -0.28309294                0.94039735                0.04436214                0.04180043                0.00701021
               2.07712128                9.99101929                8.05193777                0.77303712               -0.20418044               -0.20227462                0.67133689                0.04455424                0.08168282                0.00618021
               3.07547194                9.99509523                8.03139334                0.75866528               -0.12484666               -0.12102394                0.40374628                0.04619091                0.10567094                0.00417542
               4.07462435                9.99916708                8.01101564                0.75137467               -0.04361654               -0.04025453                0.13528138                0.04692956                0.12152583                0.00154587
               5.07459961               10.00322993                7.99071802                0.75043713                0.03921869                0.04035089               -0.13436526                0.04707924                0.12673627               -0.00135880
               6.07540872               10.00727277                7.97040206                0.75565844                0.12237128                0.12091224               -0.40432541                0.04656876                0.12001265               -0.00418635
               7.07704704               10.01128537                7.94996868                0.76725103                0.20444002                0.20158254               -0.67364458                0.04546742                0.10208906               -0.00660123
               8.07949752               10.01526472                7.92932829                0.78589854                0.28481885                0.28261365               -0.94227076                0.04387641                0.07516788               -0.00833043
               9.08274341               10.01921941                7.90840429                0.81297556                0.36450210                0.36398470               -1.21185503                0.04357722                0.04070756               -0.00929225
              10.08678756               10.02320419                7.88711209                0.91759396                0.40441484                0.44961155               -1.48641087                0.04315379                0.02104768               -0.01114613
               0.10593163                0.02086602                9.11094088                0.93033742               -0.33902488               -0.38354640                1.26856928               -0.04417689                0.01395976               -0.00587065
               1.10254138                0.01677402                9.08703367                0.82480456               -0.29889419               -0.29753006                0.99471869               -0.04314089                0.03267679               -0.00751676
               2.09995375                0.01269859                9.06346541                0.78595858               -0.21876428               -0.21698039                0.72509996               -0.04279656                0.06168694               -0.00499375
               3.09816609                0.00858859                9.04009975                0.76452242               -0.13849275               -0.13612037                0.45692207               -0.04370711                0.08023550               -0.00333882
               4.09718389                0.00444870                9.01686026                0.75291370               -0.05755401               -0.05560052                0.18888930               -0.04409325                0.09121479               -0.00136426
               5.09701501                0.00028601                8.99367826                0.75055800                0.02396174                0.02482479               -0.07942401               -0.04415940                0.09423344                0.00070175
               6.09766312               -0.00388832                8.97048167                0.75727399                0.10550578                0.10524456               -0.34781611               -0.04386507                0.08886258                0.00267539
               7.09912513               -0.00806426                8.94719937                0.77319522                0.18646712                0.18574980               -0.61601038               -0.04326583                0.07558107                0.00436217
               8.10139247               -0.01223807                8.92376557                0.79880746                0.26662605                0.26654226               -0.88417779               -0.04233871                0.05552043                0.00557309
               9.10445765               -0.01641391                8.90012111                0.83507101                0.34636582                0.34734278               -1.15325997               -0.04258212                0.02972111                0.00617478
              10.10831978               -0.02063761                8.87620979                0.93228709                0.38621331                0.43240047               -1.42510473               -0.04154774                0.01451916                0.00594894
               0.10958186                1.01703056                9.11045426                0.85265315               -0.33881749               -0.38261456                1.26766641               -0.00137322                0.01350119               -0.00809273
               1.10619369                1.01379872                9.08653483                0.63466489               -0.29816849               -0.29756492                0.99357174               -0.00328714                0.03475083               -0.01243724
               2.10361849                1.01052878                9.06299389                0.56106856               -0.21698596               -0.21670918                0.72272317               -0.00626942                0.06479115               -0.01033438
               3.10185397                1.00722739                9.03963965                0.52431801               -0.13621224               -0.13579030                0.45331938               -0.00841789                0.08200876               -0.00713197
               4.10089425                1.00389269                9.01640834                0.50463663               -0.05560211               -0.05492729                0.18409753               -0.00986448                0.09241702               -0.00297288
               5.10074193                1.00053426                8.99323228                0.50065302                0.02526799                0.02591962               -0.08535496               -0.01018582                0.09532423                0.00158717
               6.10139961                0.99716413                8.97004237                0.51193068                0.10627104                0.10674460               -0.35491689               -0.00935059                0.09042443                0.00593421
               7.10286735                0.99379324                8.94677004                0.53879275                0.18721504                0.18754893               -0.62438540               -0.00749347                0.07793583                0.00946840
               8.10514391                0.99042736                8.92334975                0.58238585                0.26821272                0.26841335               -0.89389758               -0.00515764                0.05840801                0.01164646
               9.10823160                0.98705951                8.89971898                0.64490357                0.34920469                0.34959817               -1.16420238               -0.00260350                0.03195015                0.01205958
              10.11212800                0.98368639                8.87581091                0.84794713                0.38964010                0.43356277               -1.43637454                0.00072512                0.01542014                0.01035241
               0.11236784                2.01321373                9.10987602                0.84462378               -0.33904328               -0.38051675                1.26662118               -0.00201058                0.01171430               -0.00964815
               1.10897741                2.01082272                9.08591409                0.61979432               -0.29840782               -0.29762059                0.99345807               -0.00546582                0.03735070               -0.01547142
               2.10639969                2.00836440                9.06240088                0.55032413               -0.21717910               -0.21627989                0.72214701               -0.01050127                0.07294158               -0.01424343
               3.10463383                2.00587278                9.03909586                0.51966645               -0.13599784               -0.13504020                0.45122365               -0.01363525                0.09236820               -0.00999342
               4.10367973                2.00335015                9.01592207                0.50348983               -0.05469845               -0.05353260                0.17989693               -0.01571841                0.10381680               -0.00409888
               5.10353986                2.00080440                8.99280718                0.50024625                0.02687004                0.02810412               -0.09193667               -0.01619563                0.10699020                0.00248032
               6.10421713                1.99824658                8.96967694                0.50944165                0.10860879                0.10969116               -0.36386633               -0.01491457                0.10153195                0.00873940
               7.10571203                1.99568672                8.94645762                0.53143843                0.19029557                0.19107381               -0.63539992               -0.01215847                0.08758676                0.01372115
               8.10802304                1.99313020                8.92307768                0.56750841                0.27172539                0.27223611               -0.90635145               -0.00849961                0.06558397                0.01657836
               9.11114654                1.99057805                8.89946716                0.62004539                0.35287413                0.35370423               -1.17709126               -0.00440486                0.03563667                0.01662510
              10.11508052                1.98803364                8.87555106                0.83148807                0.39339818                0.43585114               -1.44845341               -0.00031006                0.01665558                0.01330531
               0.11432367                3.00942022                9.10930644                0.84452313               -0.33899737               -0.37818281                1.26475206               -0.00205633                0.01297420               -0.00491712
               1.11093370                3.00784630                9.08532344                0.61975872               -0.29826343               -0.29733577                0.99253597               -0.00522271                0.04115332               -0.01011242
               2.10835840                3.00620319                9.06182641                0.55032610               -0.21690905               -0.21583904                0.72074535               -0.00987779                0.08053270               -0.01002164
               3.10659552                3.00452658                9.03856282                0.51962604               -0.13550696               -0.13413115                0.44857877               -0.01238894                0.10245629               -0.00724428
               4.10564826                3.00282204                9.01544282                0.50347780               -0.05369639               -0.05206918                0.17548548               -0.01397576                0.11515558               -0.00287141
               5.10552159                3.00109634                8.99238617                0.50038710                0.02853675                0.03020249               -0.09835592               -0.01428765                0.11860435                0.00212569
               6.10621900                2.99935795                8.96931258                0.50988097                0.11094832                0.11240209               -0.37226512               -0.01320557                0.11252165                0.00683651
               7.10774055                2.99761472                8.94614254                0.53230870                0.19317957                0.19427847               -0.64547798               -0.01092456                0.09704800                0.01040798
               8.11008259                2.99587208                8.92279826                0.56889011                0.27497530                0.27576029               -0.91753133               -0.00781766                0.07261917                0.01207411
               9.11324006                2.99413360                8.89920271                0.62191353                0.35640105                0.35694558               -1.18854592               -0.00407489                0.03947811                0.01116496
              10.11721061                2.99240342                8.87527448                0.83254175                0.39705497                0.43781802               -1.45922020               -0.00033396                0.01831232                0.00708674
               0.11547455                4.00565007                9.10878289                0.84423873               -0.33845568               -0.37596997                1.26154123               -0.00175955                0.01395573                0.00113254
               1.11208999                4.00487600                9.08477663                0.61944192               -0.29763478               -0.29644513                0.98995330               -0.00359644                0.04429065               -0.00366148
               2.10952185                4.00404762                9.06129093                0.55017992               -0.21613983               -0.21501916                0.71784791               -0.00675250                0.08665317               -0.00443754
               3.10776719                4.00319016                9.03805597                0.51951093               -0.13456975               -0.13301123                0.44489438               -0.00830887                0.11035834               -0.00343465
               4.10683046                4.00230877                9.01497577                0.50344364               -0.05245013               -0.05055475                0.17067466               -0.00920565                0.12409848               -0.00130087
               5.10671819                4.00140845                8.99196334                0.50051641                0.03020926                0.03212917               -0.10445985               -0.00932399                0.12779033                0.00127338
               6.10743464                4.00049462                8.96893267                0.51026826                0.11306134                0.11471799               -0.37963550               -0.00860991                0.12119245                0.00362865
               7.10897942                3.99957229                8.94579902                0.53304488                0.19565824                0.19690632               -0.65389063               -0.00716139                0.10447459                0.00515003
               8.11134781                3.99864541                8.92247913                0.57004478                0.27771436                0.27849598               -0.92657558               -0.00514815                0.07812204                0.00527152
               9.11453371                3.99771696                8.89889038                0.62350956                0.35931997                0.35937152               -1.19766634               -0.00268548                0.04246361                0.00348258
              10.11853421                3.99679001                8.87494598                0.83346582                0.40005006                0.43936732               -1.46778955               -0.00003489                0.01965317               -0.00068079
               0.11583662                5.00190082                9.10830995                0.84371743               -0.33723993               -0.37415063                1.25700507               -0.00128550                0.01461249                0.00664939
               1.11246422                5.00191740                9.08428434                0.61873491               -0.29637118               -0.29509359                0.98555930               -0.00126593                0.04622097                0.00300959
               2.10990919                5.00190280                9.06080187                0.54981109               -0.21480123               -0.21370464                0.71328622               -0.00229037                0.09039074                0.00134483
               3.10816819                5.00186636                9.03758145                0.51928767               -0.13316672               -0.13158118                0.44003038               -0.00269852                0.11512573                0.00056936
               4.10724586                5.00181094                9.01452301                0.50337328               -0.05094682               -0.04896291                0.16540256               -0.00285548                0.12946460                0.00030088
               5.10714926                5.00173892                8.99153544                0.50062166                0.03185507                0.03387953               -0.11019283               -0.00279684                0.13330045                0.00020100
               6.10788296                5.00165231                8.96852875                0.51058045                0.11486409                0.11660793               -0.38581379               -0.00254153                0.12638918               -0.00003958
               7.10944654                5.00155284                8.94541438                0.53359991                0.19759977                0.19889325               -0.66042501               -0.00210831                0.10891500               -0.00071294
               8.11183496                5.00144200                8.92210534                0.57087841                0.27976065                0.28048933               -0.93331057               -0.00151620                0.08139054               -0.00211259
               9.11504175                5.00132103                8.89851526                0.62464994                0.36144334                0.36122339               -1.20440120               -0.00079363                0.04421098               -0.00453160
              10.11906382                5.00119076                8.87455428                0.83413343                0.40220712                0.44088460               -1.47432418                0.00046187                0.02048648               -0.00820615
               0.11541568                5.99816706                9.10788315                0.84296508               -0.33529842               -0.37286657                1.25123427               -0.00080858                0.01488271                0.01135120
               1.11206269                5.99897413                9.08384378                0.61764004               -0.29442938               -0.29338460                0.97938123                0.00108731                0.04684427                0.00888993
               2.10952709                5.99977353                9.06035736                0.54921723               -0.21288053               -0.21190500                0.70707296                0.00220956                0.09160220                0.00649263
               3.10780508                6.00055854                9.03713798                0.51895346               -0.13131530               -0.12980139                0.43398310                0.00291921                0.11660700                0.00413225
               4.10690078                6.00132951                9.01408369                0.50326371               -0.04920975               -0.04726661                0.15966611                0.00345327                0.13108383                0.00168477
               5.10682089                6.00208604                8.99110155                0.50069843                0.03345549                0.03546401               -0.11554598                0.00365693                0.13494610               -0.00086702
               6.10756989                6.00282678                8.96809975                0.51081045                0.11633409                0.11807688               -0.39078512                0.00344510                0.12794955               -0.00347909
               7.10914757                6.00355016                8.94498788                0.53396475                0.19897029                0.20026939               -0.66508772                0.00286811                0.11026538               -0.00611665
               8.11154930                6.00425519                8.92167704                0.57138506                0.28107500                0.28183840               -0.93780563                0.00204920                0.08238977               -0.00881079
               9.11476907                6.00494143                8.89807909                0.62534272                0.36273379                0.36267148               -1.20892299                0.00105453                0.04472398               -0.01166909
              10.11880397                6.00560770                8.87410300                0.83455632                0.40349058                0.44263465               -1.47909479                0.00094340                0.02081301               -0.01478976
               0.11420630                6.99444349                9.10749072                0.84197495               -0.33268074               -0.37192507                1.24412054               -0.00049947                0.01488437                0.01492213
               1.11087949                6.99604971                9.08344198                0.61615735               -0.29186617               -0.29121407                0.97138093                0.00282180                0.04645819                0.01305964
               2.10836898                6.99766470                9.05994656                0.54840682               -0.21044483               -0.20955670                0.69921510                0.00548814                0.09082966                0.01014552
               3.10667060                6.99927033                9.03671815                0.51851662               -0.12907791               -0.12764639                0.42678113                0.00702138                0.11547739                0.00665535
               4.10578742                7.00086561                9.01365459                0.50312033               -0.04727352               -0.04545282                0.15348162                0.00809267                0.12972006                0.00262835
               5.10572513                7.00244820                8.99066299                0.50075050                0.03501646                0.03689330               -0.12054137                0.00840163                0.13352079               -0.00169799
               6.10648775                7.00401385                8.96765150                0.51096341                0.11751788                0.11913366               -0.39461292                0.00781698                0.12663103               -0.00600948
               7.10807549                7.00555823                8.94452941                0.53414738                0.19984588                0.20103512               -0.66796385                0.00645401                0.10918822               -0.01002920
               8.11048467                7.00707877                8.92120735                0.57157348                0.28174264                0.28250950               -0.94013842                0.00458882                0.08163264               -0.01361534
               9.11371034                7.00857446                8.89759673                0.62559183                0.36327429                0.36363669               -1.21127455                0.00236853                0.04430147               -0.01682680
              10.11775015                7.01004346                8.87360635                0.83473282                0.40398149                0.44445220               -1.48207731                0.00122544                0.02078969               -0.01981469
               0.11219325                7.99072856                9.10711099                0.84073950               -0.32953301               -0.37093032                1.23544431               -0.00044968                0.01490746                0.01624341
               1.10889792                7.99314985                9.08305384                0.61430127               -0.28885075               -0.28828319                0.96153258                0.00335883                0.04576159                0.01399862
               2.10641623                7.99558240                9.05954858                0.54740956               -0.20766588               -0.20661769                0.68979835                0.00638380                0.08932845                0.01111632
               3.10474460                7.99800561                9.03630787                0.51800207               -0.12657342               -0.12516041                0.41855898                0.00828071                0.11328528                0.00735268
               4.10388476                8.00042045                9.01323008                0.50295846               -0.04519590               -0.04351458                0.14691440                0.00959157                0.12712744                0.00284726
               5.10384068                8.00282391                8.99022355                0.50079100                0.03657209                0.03819156               -0.12525689                0.00994327                0.13084323               -0.00200835
               6.10461620                8.00520945                8.96719710                0.51106131                0.11855265                0.11981652               -0.39751474                0.00919475                0.12414484               -0.00679631
               7.10621173                8.00757086                8.94406029                0.53418344                0.20043214                0.20124027               -0.66932946                0.00750739                0.10713829               -0.01115052
               8.10862485                8.00990538                8.92072375                0.57148356                0.28200073                0.28244774               -0.94051367                0.00525520                0.08019528               -0.01486708
               9.11185175                8.01221416                8.89709831                0.62541750                0.36328190                0.36383763               -1.21148356                0.00275617                0.04353997               -0.01812556
              10.11589049                8.01449674                8.87309229                0.83465986                0.40387372                0.44592831               -1.48308154                0.00122745                0.02073417               -0.02159819
               0.10935472                8.98702488                9.10670504                0.83929779               -0.32618905               -0.36965647                1.22528182               -0.00092026                0.01532628                0.01232169
               1.10609283                8.99028405                9.08263594                0.61217491               -0.28569149               -0.28446752                0.95016162                0.00222291                0.04592453                0.00955270
               2.10364089                8.99353235                9.05912984                0.54631689               -0.20473395               -0.20351750                0.67936451                0.00434492                0.08921549                0.00787429
               3.10199815                8.99676712                9.03588512                0.51746849               -0.12399707               -0.12244184                0.40980513                0.00582638                0.11255650                0.00521503
               4.10116095                8.99999532                9.01280174                0.50280772               -0.04315799               -0.04147074                0.14016777                0.00686669                0.12615841                0.00199421
               5.10113499                9.00321203                8.98978965                0.50084517                0.03818708                0.03943572               -0.12988092                0.00710969                0.12985598               -0.00147135
               6.10192469                9.00641018                8.96675766                0.51115454                0.11973528                0.12028964               -0.40005551                0.00655578                0.12324261               -0.00486900
               7.10352970                9.00958304                8.94361483                0.53416739                0.20108861                0.20111954               -0.66998765                0.00527310                0.10646850               -0.00792219
               8.10594647                9.01272772                8.92027164                0.57124722                0.28222012                0.28201218               -0.93972382                0.00361833                0.07991866               -0.01046153
               9.10917410                9.01585121                8.89663717                0.62494832                0.36315384                0.36320169               -1.21006389                0.00194500                0.04348989               -0.01264873
              10.11320954                9.01896202                8.87261285                0.83438764                0.40354407                0.44695393               -1.48232862                0.00077708                0.02114155               -0.01611783
               0.10565652                9.98333543                9.10619637                0.91914205               -0.32216056               -0.36894544                1.21407173                0.04268619                0.01826810                0.00952646
               1.10243491                9.98746050                9.08212614                0.80536512               -0.28182308               -0.28235464                0.93869431                0.04303841                0.04930273                0.00600170
               2.10002005                9.99151205                9.05864422                0.77280786               -0.20183781               -0.20203026                0.66949963                0.04272958                0.09343405                0.00502329
               3.09839815                9.99555677                9.03541960                0.75857189               -0.12214346               -0.12103492                0.40163330                0.04394947                0.11679272                0.00322616
               4.09757718                9.99959104                9.01235850                0.75136527               -0.04150698               -0.04042831                0.13366929                0.04441561                0.13075566                0.00114528
               5.09756801               10.00361262                8.98937028                0.75045154                0.03995673                0.04005881               -0.13476639                0.04451216                0.13456147               -0.00105764
               6.09837632               10.00761524                8.96636165                0.75562336                0.12158212                0.12050618               -0.40333903                0.04419372                0.12766833               -0.00321224
               7.09999966               10.01159325                8.94323951                0.76709842                0.20263604                0.20102126               -0.67163883                0.04351472                0.11039158               -0.00517072
               8.10242904               10.01554563                8.91991358                0.78556123                0.28283451                0.28179056               -0.93977358                0.04250464                0.08353051               -0.00685305
               9.10565635               10.01947820                8.89629427                0.81231078                0.36276814                0.36269854               -1.20878925                0.04273400                0.04659784               -0.00834303
              10.10968440               10.02343582                8.87226844                0.91708690                0.40280563                0.44737971               -1.48088487                0.04324828                0.02437265               -0.01189048
               0.13135860                0.02129866               10.12359327                0.92958062               -0.33700954               -0.38093934                1.26106098               -0.04378063                0.01565181               -0.00596052
               1.12798850                0.01720827               10.09696259                0.82385844               -0.29693705               -0.29605930                0.99018618               -0.04223504                0.03636727               -0.00688133
               2.12541986                0.01313686               10.07070248                0.78552869               -0.21690931               -0.21603202                0.72181768               -0.04163653                0.06757743               -0.00433731
               3.12365032                0.00903696               10.04465762                0.76434921               -0.13687648               -0.13559921                0.45452555               -0.04230959                0.08648087               -0.00282596
               4.12268233                0.00491226               10.01874210                0.75288270               -0.05653568               -0.05544026                0.18758273               -0.04256064                0.09700423               -0.00117919
               5.12251960                0.00076715                9.99288329                0.75056336                0.02406313                0.02464532               -0.07935049               -0.04260393                0.09956006                0.00047598
               6.12316359               -0.00339103                9.96700967                0.75720236                0.10463727                0.10472058               -0.34627611               -0.04240902                0.09411694                0.00205217
               7.12461235               -0.00755583                9.94105127                0.77293386                0.18487458                0.18485164               -0.61314650               -0.04202444                0.08095355                0.00345004
               8.12686108               -0.01172520                9.91494036                0.79823530                0.26469137                0.26520286               -0.88015065               -0.04139709                0.06053596                0.00457330
               9.12990617               -0.01590187                9.88861056                0.83399947                0.34428362                0.34543767               -1.14787343               -0.04191897                0.03307309                0.00534210
              10.13374675               -0.02012523                9.86199250                0.93151492                0.38405787                0.42960183               -1.41733974               -0.04140323                0.01629006                0.00579364
               0.13501118                1.01748927               10.12308532                0.85101109               -0.33641276               -0.37988950                1.25820304               -0.00133253                0.01417974               -0.00764527
               1.13164705                1.01424768               10.09644060                0.63260488               -0.29610144               -0.29592480                0.98718415               -0.00227768                0.03680314               -0.01070520
               2.12908915                1.01097654               10.07019876                0.56015647               -0.21537641               -0.21554348                0.71810623               -0.00418338                0.06868040               -0.00844393
               3.12733952                1.00768096               10.04415657                0.52394853               -0.13487645               -0.13510269                0.45014408               -0.00556999                0.08637624               -0.00570820
               4.12639162                1.00435785               10.01824080                0.50455938               -0.05471582               -0.05471461                0.18256004               -0.00654613                0.09645739               -0.00244603
               5.12624521                1.00101361                9.99237989                0.50064492                0.02546842                0.02565257               -0.08498349               -0.00676490                0.09892524                0.00101425
               6.12690099                0.99765617                9.96650463                0.51176130                0.10569909                0.10600052               -0.35254476               -0.00622018                0.09381579                0.00430011
               7.12835919                0.99429269                9.94054701                0.53822922                0.18595705                0.18633780               -0.62012624               -0.00500770                0.08123472                0.00704873
               8.13062013                0.99092682                9.91443979                0.58117224                0.26639047                0.26673311               -0.88789911               -0.00354712                0.06127421                0.00893066
               9.13368700                0.98755251                9.88811468                0.64266466                0.34679771                0.34738060               -1.15633255               -0.00188245                0.03363346                0.00968983
              10.13755608                0.98417079                9.86149748                0.84636537                0.38690865                0.43047737               -1.42598796                0.00064233                0.01621773                0.00912370
               0.13781512                2.01370087               10.12248845                0.84282048               -0.33594470               -0.37785806                1.25576193               -0.00175972                0.01204099               -0.00891915
               1.13445567                2.01128978               10.09580860                0.61750008               -0.29561079               -0.29571207                0.98534994               -0.00386177                0.03818822               -0.01296749
               2.13190291                2.00882599               10.06959072                0.54931315               -0.21490349               -0.21481090                0.71596260               -0.00721602                0.07429391               -0.01151640
               3.13015760                2.00633490               10.04358535                0.51924415               -0.13420728               -0.13411203                0.44696428               -0.00926186                0.09327850               -0.00794902
               4.12921876                2.00381796               10.01771006                0.50338246               -0.05358107               -0.05325047                0.17795970               -0.01063828                0.10389481               -0.00334692
               5.12908598                2.00128021                9.99189112                0.50020704                0.02706713                0.02768791               -0.09118345               -0.01096186                0.10646186                0.00165309
               6.12976010                1.99872898                9.96605644                0.50922165                0.10777792                0.10859183               -0.36033308               -0.01012734                0.10096665                0.00639812
               7.13124154                1.99617093                9.94013517                0.53078790                0.18851079                0.18936942               -0.62930440               -0.00833974                0.08746452                0.01027524
               8.13353032                1.99360946                9.91405657                0.56616127                0.26915100                0.27003128               -0.89806306               -0.00596683                0.06596270                0.01273433
               9.13662456                1.99104575                9.88774782                0.61764950                0.34963625                0.35103645               -1.16683902               -0.00322398                0.03609547                0.01330211
              10.14052304                1.98848432                9.86112852                0.82984802                0.38984816                0.43253037               -1.43602752               -0.00015284                0.01708513                0.01149962
               0.13979817                3.00993211               10.12189536                0.84255022               -0.33534772               -0.37595976                1.25299972               -0.00173821                0.01297601               -0.00422480
               1.13644469                3.00833344               10.09520189                0.61718277               -0.29492334               -0.29531681                0.98320014               -0.00371507                0.04085513               -0.00796998
               2.13389971                3.00668032               10.06899587                0.54915032               -0.21411900               -0.21424631                0.71343408               -0.00695509                0.07962509               -0.00782736
               3.13216231                3.00499872               10.04302128                0.51911978               -0.13330770               -0.13310410                0.44351947               -0.00864084                0.10037082               -0.00563277
               4.13123355                3.00329284               10.01718490                0.50333569               -0.05236801               -0.05176858                0.17324680               -0.00970120                0.11178663               -0.00228909
               5.13111495                3.00156737                9.99140744                0.50031881                0.02870833                0.02969294               -0.09731793               -0.00991422                0.11449201                0.00147532
               6.13180772                2.99982801                9.96561290                0.50959170                0.10984792                0.11110668               -0.36786756               -0.00920603                0.10855290                0.00501986
               7.13331191                2.99808008                9.93972677                0.53150911                0.19091299                0.19232106               -0.63804677               -0.00770224                0.09402155                0.00775656
               8.13562598                2.99632745                9.91367421                0.56729131                0.27178728                0.27331602               -0.90764391               -0.00561788                0.07088242                0.00914476
               9.13874766                2.99457324                9.88737738                0.61917161                0.35249528                0.35415928               -1.17671443               -0.00298988                0.03880665                0.00867118
              10.14267588                2.99282140                9.86075085                0.83071048                0.39282247                0.43475550               -1.44552327               -0.00009752                0.01826429                0.00583374
               0.14097769                4.00618168               10.12133770                0.84217860               -0.33445364               -0.37417423                1.24936977               -0.00150840                0.01371410                0.00186494
               1.13763316                4.00538344               10.09462597                0.61671455               -0.29395861               -0.29444326                0.97998413               -0.00260031                0.04321850               -0.00221161
               2.13509852                4.00454107               10.06842826                0.54891156               -0.21304440               -0.21338687                0.70994321               -0.00488052                0.08424800               -0.00307567
               3.13337227                4.00367282               10.04247523                0.51895578               -0.13212136               -0.13195719                0.43940490               -0.00599162                0.10631853               -0.00248413
               4.13245609                4.00278259               10.01666882                0.50327932               -0.05098679               -0.05025824                0.16827793               -0.00662416                0.11848072               -0.00097720
               5.13235253                4.00187406                9.99092445                0.50042750                0.03035878                0.03157380               -0.10324617               -0.00671440                0.12133821                0.00087986
               6.13306327                4.00095111                9.96516196                0.50993331                0.11177620                0.11334271               -0.37473551               -0.00623173                0.11501411                0.00257112
               7.13458806                4.00001735                9.93930307                0.53215285                0.19307657                0.19486287               -0.64571316               -0.00523616                0.09958264                0.00362423
               8.13692480                3.99907578                9.91326897                0.56829725                0.27413810                0.27600804               -0.91584694               -0.00381521                0.07504000                0.00359377
               9.14007082                3.99812893                9.88697749                0.62057305                0.35499896                0.35667556               -1.18508055               -0.00201579                0.04108030                0.00205387
              10.14402478                3.99717943                9.86033871                0.83153102                0.39539611                0.43669839               -1.45358705                0.00014836                0.01929467               -0.00140533
               0.14136447                5.00244862               10.12081886                0.84163424               -0.33311751               -0.37252889                1.24470666               -0.00116700                0.01428097                0.00765311
               1.13803330                5.00244457               10.09408895                0.61596798               -0.29258787               -0.29311837                0.97542050               -0.00098330                0.04487845                0.00378573
               2.13551272                5.00241259               10.06789289                0.54851899               -0.21161709               -0.21206846                0.70523630               -0.00182133                0.08748146                0.00184660
               3.13380096                5.00235958               10.04195156                0.51872029               -0.13064467               -0.13052636                0.43444118               -0.00219975                0.11044113                0.00082357
               4.13289982                5.00228768               10.01616321                0.50320253               -0.04944052               -0.04867693                0.16298360               -0.00237284                0.12310618                0.00034920
               5.13281215                5.00219884                9.99043960                0.50052429                0.03199866                0.03330393               -0.10890271               -0.00235348                0.12607583                0.00008202
               6.13353980                5.00209486                9.96469711                0.51022692                0.11351880                0.11520919               -0.38074322               -0.00215364                0.11948271               -0.00029532
               7.13508252                5.00197734                9.93885422                0.53267305                0.19491485                0.19683641               -0.65201828               -0.00178978                0.10341398               -0.00108270
               8.13743809                5.00184761                9.91282887                0.56907802                0.27605855                0.27802086               -0.92235256               -0.00128272                0.07787753               -0.00257925
               9.14060369                5.00170675                9.88653560                0.62164706                0.35698820                0.35861489               -1.19164804               -0.00066608                0.04260486               -0.00507717
              10.14457786                5.00155536                9.85988164                0.83216384                0.39741639                0.43842014               -1.46004911                0.00053018                0.02002630               -0.00880845
               0.14096245                5.99873110               10.12033447                0.84090923               -0.33129229               -0.37105982                1.23898661               -0.00081880                0.01463527                0.01261314
               1.13764953                5.99952107               10.09358762                0.61492806               -0.29076801               -0.29136692                0.96944263                0.00066498                0.04577531                0.00898210
               2.13514709                6.00029970               10.06738746                0.54796355               -0.20981726               -0.21026025                0.69925259                0.00128968                0.08924106                0.00613485
               3.13345318                6.00106229               10.04144863                0.51840878               -0.12888576               -0.12875436                0.42858201                0.00162763                0.11264610                0.00369612
               4.13256937                6.00180905               10.01566704                0.50310307               -0.04774518               -0.04699205                0.15734420                0.00188541                0.12555635                0.00146231
               5.13249828                6.00254014                9.98995206                0.50060632                0.03361638                0.03488343               -0.11427417                0.00199613                0.12857813               -0.00071632
               6.13324170                6.00325529                9.96421766                0.51046632                0.11506184                0.11668266               -0.38584837                0.00190863                0.12184352               -0.00295295
               7.13479951                6.00395408                9.93837985                0.53305845                0.19640150                0.19822132               -0.65690703                0.00164273                0.10543261               -0.00537006
               8.13716973                6.00463620                9.91235415                0.56961796                0.27751149                0.27936943               -0.92711862                0.00123920                0.07935182               -0.00813231
               9.14034974                6.00530123                9.88605292                0.62237807                0.35842126                0.36002433               -1.19641766                0.00067798                0.04336501               -0.01142930
              10.14433816                6.00594783                9.85938199                0.83260310                0.39884127                0.44002387               -1.46496491                0.00091223                0.02045131               -0.01537846
               0.13976815                6.99502743               10.11987219                0.84000495               -0.32901466               -0.36968329                1.23217721               -0.00056722                0.01488022                0.01610901
               1.13647800                6.99661724               10.09310904                0.61360369               -0.28854274               -0.28914015                0.96206887                0.00189608                0.04617614                0.01235639
               2.13399729                6.99820738               10.06690147                0.54725561               -0.20769231               -0.20793953                0.69203127                0.00353811                0.09001016                0.00891478
               3.13232415                6.99978449               10.04095940                0.51802918               -0.12688054               -0.12664726                0.42186651                0.00437922                0.11351507                0.00556546
               4.13145968                7.00134784               10.01517725                0.50298552               -0.04591635               -0.04520500                0.15137318                0.00497996                0.12646562                0.00215800
               5.13140583                7.00289651                9.98946288                0.50067698                0.03521758                0.03633072               -0.11939121                0.00516459                0.12949199               -0.00130926
               6.13216403                7.00442852                9.96372866                0.51065698                0.11643249                0.11779930               -0.39012718                0.00484918                0.12271779               -0.00478725
               7.13373448                7.00594176                9.93788879                0.53331871                0.19758475                0.19905929               -0.66048604                0.00409720                0.10619422               -0.00826415
               8.13611573                7.00743500                9.91185681                0.56993029                0.27855709                0.28007239               -0.93025901                0.00304277                0.07990151               -0.01183250
               9.13930562                7.00890724                9.88554338                0.62277948                0.35935857                0.36089663               -1.19948753                0.00166235                0.04361570               -0.01571278
              10.14330290                7.01035584                9.85885360                0.83285411                0.39972808                0.44146829               -1.46838967                0.00117501                0.02070068               -0.02008936
               0.13777148                7.99133743               10.11940975                0.83893806               -0.32639928               -0.36829011                1.22428509               -0.00045671                0.01526571                0.01701206
               1.13450749                7.99373827               10.09262912                0.61203592               -0.28604449               -0.28629765                0.95344127                0.00228792                0.04669353                0.01253227
               2.13205059                7.99614091               10.06641566                0.54643027               -0.20535915               -0.20517448                0.68375447                0.00407357                0.09087199                0.00922333
               3.13040031                7.99852935               10.04047145                0.51760465               -0.12468202               -0.12432254                0.41445810                0.00515233                0.11432297                0.00583913
               4.12955695                8.00090495               10.01468890                0.50286222               -0.04397099               -0.04333707                0.14513385                0.00593790                0.12721219                0.00222977
               5.12952089                8.00326676                9.98897494                0.50074672                0.03682389                0.03768786               -0.12433882                0.00616846                0.13022393               -0.00148559
               6.13029343                8.00561128                9.96324079                0.51081862                0.11770433                0.11866029               -0.39380950                0.00574515                0.12345277               -0.00517590
               7.13187498                8.00793526                9.93739909                0.53348997                0.19858398                0.19950582               -0.66307603                0.00478026                0.10690322               -0.00876267
               8.13426511                8.01023764                9.91136128                0.57006564                0.27935868                0.28022638               -0.93209797                0.00349862                0.08047658               -0.01230813
               9.13746215                8.01251916                9.88503521                0.62290389                0.35996685                0.36116975               -1.20110447                0.00199524                0.04390691               -0.01621738
              10.14146445                8.01477720                9.85832414                0.83293945                0.40022996                0.44268604               -1.47044028                0.00127282                0.02106749               -0.02128410
               0.13495734                8.98766162               10.11891049                0.83776518               -0.32370507               -0.36698043                1.21557997               -0.00076437                0.01609587                0.01270462
               1.13172028                8.99089128               10.09210873                0.61033589               -0.28348242               -0.28285174                0.94399916                0.00142648                0.04837819                0.00804588
               2.12928769                8.99410389               10.06590200                0.54556726               -0.20285654               -0.20249521                0.67494099                0.00263272                0.09363627                0.00621477
               3.12766315                8.99729804               10.03996733                0.51718178               -0.12233289               -0.12192846                0.40676955                0.00352074                0.11701450                0.00395891
               4.12684103                9.00048110               10.01419536                0.50275538               -0.04201431               -0.04142402                0.13878464                0.00420296                0.12987961                0.00149474
               5.12682287                9.00365027                9.98849289                0.50083454                0.03846993                0.03903901               -0.12927841                0.00437138                0.13289786               -0.00105262
               6.12761043                9.00680172                9.96276991                0.51099075                0.11904257                0.11946337               -0.39736514                0.00405132                0.12607555               -0.00356732
               7.12920372                9.00993188                9.93693738                0.53364972                0.19956880                0.19986581               -0.66536875                0.00328828                0.10941196               -0.00597143
               8.13160180                9.01303953                9.91090481                0.57014181                0.28011255                0.28030760               -0.93339365                0.00235089                0.08270164               -0.00828886
               9.13480597                9.01613063                9.88457527                0.62288952                0.36052411                0.36095995               -1.20191565                0.00141950                0.04524604               -0.01086359
              10.13881229                9.01920956                9.85784128                0.83292682                0.40063156                0.44389937               -1.47159918                0.00100386                0.02203452               -0.01561392
               0.13129688                9.98399782               10.11830336                0.91848822               -0.32031260               -0.36637997                1.20660097                0.04229567                0.01996972                0.01001699
               1.12809375                9.98808124               10.09149844                0.80461139               -0.28001943               -0.28100461                0.93485472                0.04200580                0.05369988                0.00511355
               2.12569649                9.99209100               10.06532777                0.77251387               -0.20001171               -0.20128895                0.66673462                0.04135749                0.10061905                0.00411122
               3.12409352                9.99609078               10.03942601                0.75846478               -0.12038519               -0.12072627                0.39958331                0.04231006                0.12399557                0.00253260
               4.12328879               10.00007647               10.01368902                0.75135250               -0.04029147               -0.04046238                0.13261501                0.04261376                0.13710684                0.00087866
               5.12328769               10.00404754                9.98802269                0.75045642                0.04020301                0.03972700               -0.13446582                0.04268602                0.14016801               -0.00080549
               6.12409285               10.00800055                9.96233528                0.75556698                0.12076237                0.11988253               -0.40157436                0.04249414                0.13310870               -0.00246294
               7.12570294               10.01193258                9.93653591                0.76689917                0.20102645                0.20007024               -0.66857664                0.04208417                0.11601181               -0.00406036
               8.12811338               10.01584380                9.91053282                0.78512089                0.28087835                0.28042685               -0.93561719                0.04144623                0.08887904               -0.00563108
               9.13132050               10.01973836                9.88422850                0.81145802                0.36066452                0.36077283               -1.20332992                0.04202281                0.05020278               -0.00736086
              10.13532667               10.02365518                9.85749439                0.91646319                0.40061623                0.44456217               -1.47289830                0.04312038                0.02629798               -0.01183789
               0.15950603                0.02176270               11.13616210                0.92871987               -0.33465195               -0.37802364                1.25215575               -0.04334834                0.01657892               -0.00580755
               1.15615951                0.01768036               11.10683739                0.82274560               -0.29478853               -0.29417608                0.98416481               -0.04149132                0.03850887               -0.00633981
               2.15361026                0.01361928               11.07790176                0.78501854               -0.21517098               -0.21476172                0.71763320               -0.04072202                0.07114770               -0.00383834
               3.15185609                0.00953417               11.04919026                0.76415056               -0.13559832               -0.13486838                0.45183822               -0.04124281                0.09050150               -0.00246120
               4.15089830                0.00542771               11.02061191                0.75284580               -0.05587270               -0.05519018                0.18639868               -0.04141376                0.10096822               -0.00105938
               5.15073864                0.00130234               10.99209125                0.75056078                0.02395946                0.02443805               -0.07892015               -0.04144867                0.10335499                0.00030336
               6.15137749               -0.00283719               10.96355615                0.75710845                0.10374356                0.10405518               -0.34418826               -0.04132175                0.09785019                0.00159834
               7.15281351               -0.00698673               10.93493644                0.77261916                0.18332046                0.18370475               -0.60945034               -0.04107728                0.08463110                0.00278441
               8.15504390               -0.01114546               10.90616255                0.79755254                0.26267312                0.26352251               -0.87487274               -0.04064563                0.06381391                0.00382129
               9.15806697               -0.01531530               10.87716365                0.83274303                0.34189075                0.34313575               -1.14081887               -0.04134971                0.03518619                0.00466176
              10.16188171               -0.01953169               10.84786299                0.93063130                0.38147358                0.42645396               -1.40786757               -0.04113365                0.01735996                0.00549794
               0.16315490                1.01798247               11.13561833                0.84925909               -0.33385854               -0.37686961                1.24815984               -0.00127067                0.01452532               -0.00695829
               1.15981631                1.01473860               11.10627852                0.63036629               -0.29393807               -0.29391377                0.98008350               -0.00157059                0.03800927               -0.00924290
               2.15727614                1.01147166               11.07735601                0.55916759               -0.21384295               -0.21411577                0.71315426               -0.00272795                0.07114800               -0.00695899
               3.15553945                1.00818549               11.04864253                0.52356232               -0.13380311               -0.13425386                0.44701030               -0.00359482                0.08940020               -0.00463433
               4.15460007                1.00487581               11.02005954                0.50448091               -0.05414260               -0.05442996                0.18124476               -0.00425998                0.09950924               -0.00206913
               5.15445660                1.00154672               10.99153261                0.50063021                0.02543648                0.02537875               -0.08438144               -0.00441814                0.10181592                0.00056451
               6.15510880                0.99820337               10.96299148                0.51157409                0.10501384                0.10517274               -0.34997806               -0.00407400                0.09654440                0.00305435
               7.15655688                0.99485032               10.93436752                0.53762353                0.18464602                0.18495980               -0.61562429               -0.00329607                0.08375591                0.00519268
               8.15880172                0.99148976               10.90559177                0.57986229                0.26448555                0.26479698               -0.88147877               -0.00242534                0.06332174                0.00678841
               9.16184659                0.98811606               10.87659233                0.64025396                0.34425182                0.34483471               -1.14783659               -0.00136893                0.03477794                0.00768600
              10.16568676                0.98473285               10.84729115                0.84468013                0.38401715                0.42709747               -1.41499473                0.00063528                0.01672078                0.00778546
               0.16596836                2.01422531               11.13499126                0.84100173               -0.33294578               -0.37479968                1.24474440               -0.00156176                0.01217919               -0.00780915
               1.16263891                2.01180208               11.10562109                0.61518402               -0.29297749               -0.29345313                0.97705974               -0.00271862                0.03861917               -0.01073668
               2.16010881                2.00933697               11.07672013                0.54831504               -0.21294248               -0.21312845                0.70993942               -0.00488050                0.07510426               -0.00927072
               3.15838006                2.00684909               11.04803515                0.51884545               -0.13284755               -0.13307171                0.44310459               -0.00617064                0.09402631               -0.00633583
               4.15745186                2.00433911               11.01948126                0.50328855               -0.05286686               -0.05291536                0.17639597               -0.00707079                0.10434088               -0.00278305
               5.15732272                2.00180992               10.99098351                0.50017355                0.02702734                0.02728953               -0.09028914               -0.00730056                0.10664143                0.00098043
               6.15799241                1.99926627               10.96247028                0.50901452                0.10692380                0.10747310               -0.35693735               -0.00677648                0.10110132                0.00453921
               7.15946120                1.99671247               10.93387153                0.53016477                0.18686197                0.18758155               -0.62350861               -0.00564953                0.08774340                0.00750707
               8.16172965                1.99415048               10.90511642                0.56484429                0.26676551                0.26764068               -0.89003125               -0.00415829                0.06637370                0.00952996
               9.16479651                1.99158139               10.87613038                0.61526764                0.34655883                0.34806450               -1.15664642               -0.00236280                0.03642548                0.01028347
              10.16866083                1.98901026               10.84683051                0.82820986                0.38643204                0.42885223               -1.42353466               -0.00000405                0.01733647                0.00937075
               0.16797012                3.01048647               11.13436643                0.84060488               -0.33198375               -0.37307208                1.24125323               -0.00149779                0.01289130               -0.00313520
               1.16465029                3.00886953               11.10498745                0.61466097               -0.29193041               -0.29286850                0.97396138               -0.00262419                0.04050237               -0.00594695
               2.16213152                3.00720910               11.07609509                0.54803516               -0.21181941               -0.21239382                0.70656178               -0.00483688                0.07887570               -0.00590458
               3.16041390                3.00552405               11.04743321                0.51866285               -0.13168395               -0.13194483                0.43907753               -0.00593221                0.09905430               -0.00428014
               4.15949784                3.00381750               11.01890776                0.50321855               -0.05152333               -0.05140954                0.17148445               -0.00662774                0.10986979               -0.00181993
               5.15938343                3.00209251               10.99043981                0.50026510                0.02864438                0.02919876               -0.09618302               -0.00677883                0.11222397                0.00092693
               6.16007072                3.00035283               10.96195523                0.50933390                0.10881249                0.10977828               -0.36379935               -0.00633330                0.10636225                0.00350371
               7.16155968                2.99860195               10.93338161                0.53077540                0.18894536                0.19024297               -0.63121873               -0.00536911                0.09230314                0.00549678
               8.16384963                2.99684257               10.90464538                0.56578495                0.26899333                0.27060705               -0.89835588               -0.00400328                0.06981833                0.00651699
               9.16693955                2.99507735               10.87566842                0.61652279                0.34896563                0.35092080               -1.16522958               -0.00218077                0.03833539                0.00617205
              10.17082894                2.99330990               10.84636402                0.82892115                0.38893962                0.43104232               -1.43191043                0.00009655                0.01817505                0.00406138
               0.16917229                4.00676387               11.13377029                0.84015980               -0.33084882               -0.37146768                1.23721193               -0.00131948                0.01345770                0.00278696
               1.16586380                4.00594471               11.10437632                0.61407055               -0.29073656               -0.29190309                0.97019035               -0.00186557                0.04230981               -0.00081716
               2.16335756                4.00508909               11.07548979                0.54772538               -0.21053964               -0.21142795                0.70257298               -0.00349094                0.08242053               -0.00182776
               3.16165301                4.00421020               11.04684407                0.51846311               -0.13033544               -0.13073095                0.43462163               -0.00426869                0.10360166               -0.00163835
               4.16075085                4.00331092               11.01834133                0.50314699               -0.05005969               -0.04988951                0.16640666               -0.00470972                0.11496719               -0.00069021
               5.16065181                4.00239389               10.98989841                0.50035909                0.03027289                0.03102202               -0.10194917               -0.00478203                0.11741765                0.00054843
               6.16135631                4.00146183               10.96143796                0.50964032                0.11061258                0.11189434               -0.37024110               -0.00446488                0.11125871                0.00166034
               7.16286407                4.00051733               10.93288475                0.53134541                0.19089392                0.19262316               -0.63824933               -0.00379213                0.09652586                0.00226655
               8.16517419                3.99956262               10.90416219                0.56666782                0.27107513                0.27313298               -0.90581039               -0.00280125                0.07298760                0.00200463
               9.16828557                3.99859981               10.87518877                0.61775374                0.35117361                0.35333569               -1.17285859               -0.00149893                0.04007239                0.00052056
              10.17219766                3.99763111               10.84587424                0.82964611                0.39120889                0.43307116               -1.43937648                0.00029633                0.01896844               -0.00252624
               0.16958205                5.00305712               11.13320408                0.83959453               -0.32942964               -0.36989419                1.23240826               -0.00107549                0.01395864                0.00842335
               1.16628776                5.00303147               11.10379275                0.61328977               -0.28929200               -0.29055145                0.96545629               -0.00075907                0.04376578                0.00442061
               2.16379621                5.00298054               11.07490659                0.54731364               -0.20905298               -0.21007244                0.69772581               -0.00143466                0.08526821                0.00228642
               3.16210670                5.00290943               11.04627028                0.51821855               -0.12881318               -0.12927877                0.42957153               -0.00177055                0.10723231                0.00106699
               4.16121995                5.00281971               11.01778269                0.50306583               -0.04849104               -0.04831013                0.16110189               -0.00194292                0.11903633                0.00041732
               5.16113687                5.00271295               10.98935738                0.50044942                0.03190219                0.03272712               -0.10752834               -0.00194875                0.12157999                0.00000055
               6.16185799                5.00259071               10.96091388                0.50991845                0.11230905                0.11371685               -0.37608785               -0.00179338                0.11518113               -0.00050458
               7.16338306                5.00245441               10.93237402                0.53183516                0.19265651                0.19454312               -0.64433191               -0.00149089                0.09988775               -0.00140361
               8.16571112                5.00230523               10.90365829                0.56739942                0.27290109                0.27509940               -0.91206841               -0.00106355                0.07547704               -0.00299714
               9.16884108                5.00214406               10.87468230                0.61875997                0.35305755                0.35526259               -1.17919602               -0.00054776                0.04140765               -0.00556899
              10.17277227                5.00197132               10.84535329                0.83024054                0.39311954                0.43485303               -1.44566027                0.00058583                0.01961097               -0.00933509
               0.16920208                5.99936599               11.13266288                0.83889690               -0.32768731               -0.36833678                1.22677429               -0.00082246                0.01436929                0.01319951
               1.16592520                6.00013368               11.10323263                0.61229914               -0.28755865               -0.28880665                0.95966297                0.00038175                0.04484850                0.00882995
               2.16345090                6.00088764               11.07434241                0.54678983               -0.20733897               -0.20828695                0.69193854                0.00067745                0.08739685                0.00575015
               3.16177842                6.00162462               11.04570962                0.51792489               -0.12712159               -0.12753098                0.42387100                0.00077520                0.10992181                0.00332965
               4.16090847                6.00234472               11.01723058                0.50297365               -0.04682951               -0.04663999                0.15554725                0.00085591                0.12204218                0.00130718
               5.16084183                6.00304843               10.98881607                0.50053444                0.03352538                0.03430953               -0.11290720                0.00090708                0.12465450               -0.00055568
               6.16157898                6.00373617               10.96038278                0.51016353                0.11389472                0.11521278               -0.38129249                0.00089805                0.11807503               -0.00247569
               7.16311973                6.00440819               10.93184974                0.53223436                0.19421430                0.19596489               -0.64939435                0.00082948                0.10234959               -0.00467768
               8.16546327                6.00506460               10.90313467                0.56796278                0.27443999                0.27648757               -0.91704771                0.00069250                0.07726539               -0.00741266
               9.16860853                6.00570506               10.87415074                0.61951911                0.35457953                0.35669240               -1.18417082                0.00041750                0.04233127               -0.01092627
              10.17255486                6.00632817               10.84480370                0.83069262                0.39463278                0.43641012               -1.45071913                0.00088381                0.02009881               -0.01536047
               0.16803021                6.99569039               11.13213427                0.83807092               -0.32564749               -0.36677428                1.22031084               -0.00061711                0.01478020                0.01639210
               1.16477374                6.99725534               11.10268335                0.61110930               -0.28556944               -0.28664394                0.95284695                0.00125429                0.04579517                0.01145519
               2.16231882                6.99881480               11.07378719                0.54616352               -0.20543055               -0.20606510                0.68525584                0.00219544                0.08923295                0.00778656
               3.16066512                7.00035881               11.04515548                0.51758893               -0.12527840               -0.12550797                0.41755644                0.00257517                0.11216804                0.00466826
               4.15981325                7.00188691               11.01668205                0.50287437               -0.04507819               -0.04488898                0.14975279                0.00286880                0.12450964                0.00180906
               5.15976356                7.00339914               10.98827517                0.50061721                0.03514720                0.03578760               -0.11811445                0.00297489                0.12716720               -0.00095573
               6.16051620                7.00489497               10.95984896                0.51038058                0.11538255                0.11642515               -0.38592312                0.00283510                0.12044955               -0.00375043
               7.16207121                7.00637371               10.93131969                0.53255192                0.19559501                0.19694110               -0.65353326                0.00247994                0.10437802               -0.00673261
               8.16442810                7.00783499               10.90260217                0.56837060                0.27573257                0.27733082               -0.92085657                0.00195941                0.07872915               -0.01014549
               9.16758586                7.00927791               10.87360698                0.62004561                0.35578178                0.35764360               -1.18788515                0.00115184                0.04306252               -0.01432316
              10.17154373                7.01069952               10.84423855                0.83100918                0.39578705                0.43776045               -1.45462807                0.00111775                0.02054411               -0.01950262
               0.16605983                7.99203050               11.13159669                0.83713966               -0.32339499               -0.36525064                1.21311345               -0.00047229                0.01540530                0.01695829
               1.16282588                7.99440080               11.10212266                0.60976494               -0.28342445               -0.28398495                0.94519541                0.00154968                0.04713200                0.01110869
               2.16039134                7.99676634               11.07322367                0.54546675               -0.20340307               -0.20351300                0.67786991                0.00249284                0.09169165                0.00764879
               3.15875782                7.99911446               11.04459703                0.51723006               -0.12329093               -0.12335350                0.41077739                0.00302770                0.11500128                0.00465804
               4.15792552                8.00144694               11.01613276                0.50277780               -0.04322722               -0.04309062                0.14377153                0.00347279                0.12750315                0.00178104
               5.15789327                8.00376418               10.98773677                0.50070610                0.03677976                0.03720453               -0.12322365                0.00362882                0.13018832               -0.00104820
               6.15866111                8.00606467               10.95932091                0.51058583                0.11680202                0.11746883               -0.39017707                0.00341709                0.12334967               -0.00388329
               7.16022931                8.00834701               10.93079877                0.53281883                0.19685703                0.19765381               -0.65703564                0.00291881                0.10695364               -0.00682603
               8.16259825                8.01061122               10.90208179                0.56866975                0.27688587                0.27777096               -0.92381524                0.00227199                0.08068507               -0.01010733
               9.16576703                8.01285793               10.87307622                0.62039579                0.35678646                0.35813697               -1.19063434                0.00144232                0.04409039               -0.01428443
              10.16973398                8.01508338               10.84368348                0.83121865                0.39669550                0.43899821               -1.45760731                0.00126783                0.02120928               -0.02025772
               0.16328016                8.98838537               11.13101664                0.83615738               -0.32112679               -0.36402299                1.20548715               -0.00067779                0.01649020                0.01256679
               1.16006889                8.99157564               11.10151592                0.60836314               -0.28125692               -0.28087262                0.93712481                0.00088920                0.04978705                0.00678218
               2.15765502                8.99474454               11.07262866                0.54476301               -0.20119050               -0.20118042                0.67021210                0.00148169                0.09630468                0.00492834
               3.15604508                8.99789174               11.04402051                0.51688367               -0.12110173               -0.12121955                0.40385509                0.00197770                0.11990532                0.00302628
               4.15523299                9.00102510               11.01557743                0.50270058               -0.04133411               -0.04128240                0.13772147                0.00243056                0.13252617                0.00114380
               5.15521840                9.00414323               10.98720409                0.50081538                0.03843644                0.03863657               -0.12835920                0.00255472                0.13523301               -0.00072258
               6.15600172                9.00724435               10.95881035                0.51080905                0.11823209                0.11852888               -0.39441327                0.00238565                0.12825616               -0.00258154
               7.15758304                9.01032679               10.93030745                0.53309453                0.19804496                0.19839899               -0.66044239                0.00195511                0.11152633               -0.00447767
               8.15996261                9.01339040               10.90160377                0.56895462                0.27797559                0.27828874               -0.92655138                0.00148173                0.08454254               -0.00655548
               9.16314255                9.01644065               10.87259886                0.62068947                0.35777934                0.35832887               -1.19301687                0.00104385                0.04634409               -0.00927874
              10.16711820                9.01947949               10.84318086                0.83138419                0.39756483                0.44047316               -1.46016581                0.00111346                0.02254556               -0.01474686
               0.15966574                9.98475004               11.13032839                0.91775721               -0.31812401               -0.36353307                1.19792172                0.04188862                0.02088456                0.01009385
               1.15648450                9.98878335               11.10082323                0.80373241               -0.27804337               -0.27922884                0.92945436                0.04119485                0.05623751                0.00440455
               2.15410487                9.99274273               11.07197891                0.77216450               -0.19838428               -0.20018069                0.66308276                0.04032066                0.10491395                0.00342866
               3.15251681                9.99669007               11.04341127                0.75833963               -0.11911135               -0.12016729                0.39732739                0.04110070                0.12851906                0.00204125
               4.15172264               10.00062129               11.01501080                0.75133387               -0.03958468               -0.04038091                0.13179730                0.04130775                0.14132647                0.00070376
               5.15172512               10.00453692               10.98668096                0.75045306                0.04013168                0.03936835               -0.13369808                0.04136987                0.14404294               -0.00061165
               6.15252527               10.00843525               10.95833016                0.75549159                0.11986197                0.11909049               -0.39916619                0.04125958                0.13685967               -0.00191593
               7.15412236               10.01231499               10.92986798                0.76665818                0.19943764                0.19882037               -0.66459127                0.04101864                0.11974009               -0.00324277
               8.15651403               10.01617700               10.90120123                0.78459676                0.27882348                0.27865908               -0.93010321                0.04061734                0.09226086               -0.00469352
               9.15969883               10.02002451               10.87222767                0.81046748                0.35822746                0.35838627               -1.19607795                0.04141946                0.05240176               -0.00651918
              10.16367858               10.02389284               10.84281048                0.91575816                0.39797516                0.44133548               -1.46314960                0.04287058                0.02740932               -0.01150575
               0.19033958                0.02227005               12.14863639                0.92779356               -0.33205643               -0.37491120                1.24234030               -0.04291032                0.01708121               -0.00558199
               1.18701902                0.01819923               12.11664588                0.82152179               -0.29248165               -0.29201079                0.97711352               -0.04086966                0.03974790               -0.00591069
               2.18448995                0.01415159               12.08505515                0.78444814               -0.21344127               -0.21326058                0.71273340               -0.03998746                0.07329459               -0.00346550
               3.18275019                0.01008318               12.05369438                0.76392845               -0.13446249               -0.13397968                0.44882673               -0.04040904                0.09305242               -0.00220011
               4.18180070                0.00599581               12.02247007                0.75280198               -0.05538641               -0.05486834                0.18520789               -0.04053123                0.10362703               -0.00097768
               5.18164246                0.00189050               11.99130489                0.75055168                0.02373524                0.02421351               -0.07827055               -0.04056395                0.10599749                0.00017893
               6.18227540               -0.00222972               11.96012591                0.75699682                0.10280518                0.10328574               -0.34168527               -0.04048299                0.10045987                0.00127674
               7.18369857               -0.00636229               11.92886227                0.77226264                0.18173742                0.18237422               -0.60510530               -0.04032995                0.08713906                0.00231003
               8.18591015               -0.01050722               11.89744291                0.79678836                0.26054474                0.26159405               -0.86866302               -0.04002610                0.06597372                0.00327272
               9.18890946               -0.01466601               11.86579419                0.83135906                0.33925556                0.34055041               -1.13258730               -0.04084763                0.03654106                0.00413857
              10.19269526               -0.01887160               11.83383515                0.92967307                0.37858012                0.42305703               -1.39721580               -0.04079948                0.01802071                0.00519769
               0.19398130                1.01852094               12.14804852                0.84743843               -0.33117499               -0.37367357                1.23770632               -0.00120932                0.01469679               -0.00627046
               1.19066955                1.01527912               12.11604227                0.62800620               -0.29166019               -0.29165587                0.97242796               -0.00108959                0.03872491               -0.00809284
               2.18814810                1.01201899               12.08446185                0.55811482               -0.21227787               -0.21250464                0.70783283               -0.00173730                0.07271073               -0.00583529
               3.18642399                1.00874339               12.05309677                0.52315353               -0.13281851               -0.13328405                0.44375570               -0.00225244                0.09145435               -0.00384024
               4.18549173                1.00544712               12.02186570                0.50439645               -0.05372026               -0.05408602                0.17998505               -0.00271169                0.10172834               -0.00179557
               5.18534959                1.00213264               11.99069226                0.50060881                0.02526216                0.02510528               -0.08363376               -0.00283286                0.10401834                0.00023450
               6.18599697                0.99880313               11.95950507                0.51136952                0.10422127                0.10428690               -0.34720617               -0.00262417                0.09863926                0.00214350
               7.18743401                0.99546145               11.92823452                0.53697766                0.18323887                0.18346362               -0.61082568               -0.00213560                0.08563662                0.00382451
               8.18966175                0.99210872               11.89681022                0.57847205                0.26245809                0.26268307               -0.87462274               -0.00165782                0.06478469                0.00517631
               9.19268318                0.98873950               11.86515795                0.63771659                0.34155558                0.34206664               -1.13878621               -0.00101170                0.03557018                0.00611126
              10.19649286                0.98535897               11.83319758                0.84292251                0.38096833                0.42352318               -1.40347848                0.00065930                0.01704653                0.00660053
               0.19679903                2.01479658               12.14738334                0.83918166               -0.32998520               -0.37152837                1.23363409               -0.00141374                0.01223241               -0.00670017
               1.19349918                2.01236611               12.11534980                0.61285840               -0.29040471               -0.29099233                0.96860531               -0.00192750                0.03885406               -0.00892796
               2.19099094                2.00990150               12.08378951                0.54731849               -0.21110875               -0.21132064                0.70390398               -0.00326266                0.07560739               -0.00752447
               3.18927701                2.00741750               12.05244745                0.51845450               -0.13168619               -0.13195950                0.43937570               -0.00403380                0.09460531               -0.00510990
               4.18835721                2.00491409               12.02123798                0.50319966               -0.05236055               -0.05253726                0.17498727               -0.00461389                0.10487064               -0.00236188
               5.18822979                2.00239261               11.99008533                0.50014215                0.02684459                0.02691819               -0.08932504               -0.00478463                0.10708722                0.00047428
               6.18889411                1.99985602               11.95891769                0.50881255                0.10602350                0.10636307               -0.35358750               -0.00447126                0.10151502                0.00314204
               7.19035026                1.99730698               11.92766500                0.52955285                0.18524203                0.18576709               -0.61781816               -0.00378828                0.08816770                0.00540345
               8.19259895                1.99474645               11.89625595                0.56353955                0.26443570                0.26516480               -0.88206458               -0.00289355                0.06676819                0.00703434
               9.19563898                1.99217533               11.86461489                0.61289431                0.34352758                0.34493950               -1.14641498               -0.00175114                0.03668140                0.00781606
              10.19946950                1.98959887               11.83265782                0.82657650                0.38305199                0.42499641               -1.41094935                0.00012043                0.01749303                0.00742527
               0.19881396                3.01109037               12.14672042                0.83869677               -0.32878802               -0.36984085                1.22959372               -0.00132230                0.01279655               -0.00203509
               1.19552608                3.00945928               12.11468112                0.61219416               -0.28912549               -0.29021608                0.96481476               -0.00185683                0.04021075               -0.00425273
               2.19303145                3.00779257               12.08312711                0.54695992               -0.20976769               -0.21042470                0.69991807               -0.00334194                0.07832803               -0.00435493
               3.19133073                3.00610420               12.05180283                0.51823348               -0.13035552               -0.13072581                0.43494398               -0.00402165                0.09824149               -0.00321328
               4.19042434                3.00439638               12.02061459                0.50311465               -0.05093817               -0.05101132                0.16995223               -0.00446586                0.10881115               -0.00145387
               5.19031197                3.00267100               11.98948378                0.50021975                0.02844138                0.02874275               -0.09502723               -0.00457649                0.11102796                0.00050333
               6.19099317                3.00093040               11.95833691                0.50909564                0.10779255                0.10848238               -0.35994879               -0.00431066                0.10521337                0.00232547
               7.19246782                2.99917679               11.92710239                0.53008387                0.18711789                0.18816447               -0.62476453               -0.00371463                0.09137573                0.00371289
               8.19473553                2.99741202               11.89570709                0.56434290                0.26639568                0.26782593               -0.88944858               -0.00284569                0.06920212                0.00437888
               9.19779573                2.99563829               11.86407278                0.61395312                0.34563291                0.34750698               -1.15400380               -0.00159383                0.03803516                0.00402324
              10.20164819                2.99385890               11.83211264                0.82717503                0.38524563                0.42703801               -1.41842498                0.00024715                0.01809404                0.00233706
               0.20003478                4.00739977               12.14608194                0.83819688               -0.32749380               -0.36829414                1.22521069               -0.00118061                0.01324522                0.00366473
               1.19675984                4.00656179               12.11402978                0.61151453               -0.28778020               -0.28913038                0.96060649               -0.00133720                0.04163032                0.00036890
               2.19427918                4.00569301               12.08247972                0.54659999               -0.20835385               -0.20934376                0.69554821               -0.00248520                0.08111871               -0.00079080
               3.19259277                4.00480299               12.05116766                0.51800940               -0.12890428               -0.12944167                0.43023862               -0.00301822                0.10181207               -0.00094409
               4.19170109                4.00389386               12.01999695                0.50303314               -0.04942606               -0.04948023                0.16480735               -0.00332127                0.11280189               -0.00045159
               5.19160425                4.00296746               11.98888547                0.50030328                0.03005042                0.03050991               -0.10065494               -0.00338065                0.11507988                0.00029096
               6.19230210                4.00202566               11.95775714                0.50937562                0.10950502                0.11047808               -0.36605210               -0.00317891                0.10902466                0.00093380
               7.19379435                4.00107027               11.92653808                0.53059757                0.18892175                0.19037437               -0.63129063               -0.00273241                0.09465887                0.00115930
               8.19608054                4.00010296               11.89515276                0.56512981                0.26829368                0.27015846               -0.89629333               -0.00204882                0.07166388                0.00066285
               9.19916022                3.99912547               11.86352032                0.61504676                0.34763389                0.34975563               -1.16100084               -0.00111129                0.03938054               -0.00085116
              10.20303321                3.99813963               11.83155118                0.82782086                0.38729936                0.42901489               -1.42533482                0.00041068                0.01871338               -0.00365704
               0.20046630                5.00372449               12.14546702                0.83761647               -0.32601995               -0.36674315                1.22028621               -0.00100491                0.01369924                0.00900589
               1.19720610                5.00367667               12.11339808                0.61070934               -0.28628719               -0.28773596                0.95573054               -0.00058344                0.04293716                0.00492664
               2.19474056                5.00360570               12.08184741                0.54617516               -0.20682946               -0.20794504                0.69058794               -0.00112242                0.08368116                0.00265610
               3.19306951                5.00351536               12.05054299                0.51775912               -0.12735567               -0.12796514                0.42512576               -0.00141220                0.10507916                0.00128491
               4.19219344                5.00340677               12.01938525                0.50294930               -0.04784801               -0.04790138                0.15950487               -0.00157411                0.11646378                0.00049033
               5.19211255                5.00328120               11.98828903                0.50038864                0.03166717                0.03218924               -0.10616056               -0.00159485                0.11882294               -0.00005648
               6.19282679                5.00313996               11.95717535                0.50964106                0.11116586                0.11225210               -0.37175726               -0.00147455                0.11254599               -0.00067690
               7.19433587                5.00298428               11.92596758                0.53106184                0.19062851                0.19222929               -0.63717642               -0.00122494                0.09766854               -0.00167868
               8.19663936                5.00281519               11.89458750                0.56581906                0.27004873                0.27205508               -0.90232118               -0.00086884                0.07388353               -0.00336064
               9.19973684                5.00263340               11.86295168                0.61599199                0.34943621                0.35162779               -1.16710359               -0.00044357                0.04056454               -0.00599569
              10.20362808                5.00243920               11.83096844                0.82837956                0.38912378                0.43078670               -1.43141065                0.00062983                0.01928407               -0.00978134
               0.20011033                6.00006490               12.14486995                0.83694358               -0.32433613               -0.36515175                1.21474461               -0.00081923                0.01414641                0.01345017
               1.19686697                6.00080707               12.11278088                0.60976042               -0.28461474               -0.28601792                0.95009295                0.00020408                0.04414179                0.00862382
               2.19441804                6.00153410               12.08122623                0.54567664               -0.20517604               -0.20619254                0.68495954                0.00029397                0.08604941                0.00543039
               3.19276345                6.00224368               12.04992605                0.51747934               -0.12571302               -0.12624584                0.41955401                0.00024355                0.10808066                0.00305868
               4.19190378                6.00293583               12.01877799                0.50286243               -0.04621416               -0.04624699                0.15402439                0.00021537                0.11982614                0.00120713
               5.19183917                6.00361125               11.98769392                0.50047507                0.03328771                0.03377464               -0.11153253                0.00022921                0.12226371               -0.00041973
               6.19256953                6.00427071               11.95659181                0.50988867                0.11277253                0.11377095               -0.37702220                0.00026624                0.11578029               -0.00210346
               7.19409462                6.00491486               11.92539196                0.53146849                0.19222542                0.19368975               -0.64235382                0.00031598                0.10041277               -0.00413217
               8.19641404                6.00554407               11.89401319                0.56639590                0.27163619                0.27348884               -0.90744638                0.00034161                0.07587187               -0.00681094
               9.19952734                6.00615802               11.86236950                0.61676747                0.35100878                0.35309443               -1.17222331                0.00024672                0.04159260               -0.01042378
              10.20343421                6.00675536               11.83036761                0.82883898                0.39068740                0.43234007               -1.43657767                0.00086124                0.01981092               -0.01513705
               0.19896558                6.99642146               12.14427841                0.83618239               -0.32245951               -0.36353372                1.20859884               -0.00064863                0.01466714                0.01629343
               1.19574098                6.99795631               12.11216598                0.60867721               -0.28278753               -0.28395978                0.94373098                0.00082863                0.04545626                0.01062731
               2.19330982                6.99948185               12.08060659                0.54511239               -0.20341630               -0.20408467                0.67870245                0.00130784                0.08860281                0.00688192
               3.19167265                7.00099045               12.04931053                0.51717570               -0.12398192               -0.12431012                0.41355296                0.00138921                0.11124793                0.00399101
               4.19083019                7.00248183               12.01817230                0.50277597               -0.04451957               -0.04453214                0.14837332                0.00148758                0.12332991                0.00156293
               5.19078226                7.00395669               11.98710059                0.50056540                0.03491582                0.03528133               -0.11679378                0.00154421                0.12583700               -0.00067488
               6.19152850                7.00541538               11.95601019                0.51012278                0.11432820                0.11507564               -0.38190036                0.00151376                0.11915214               -0.00295582
               7.19306883                7.00685807               11.92481812                0.53182493                0.19372594                0.19480618               -0.64689936                0.00140712                0.10329033               -0.00554199
               8.19540302                7.00828497               11.89343968                0.56687085                0.27308274                0.27449130               -0.91175689                0.00122703                0.07795765               -0.00877197
               9.19853048                7.00969529               11.86178568                0.61738549                0.35238031                0.35417832               -1.17644648                0.00079784                0.04265694               -0.01305975
              10.20245063                7.01108600               11.82976104                0.82920523                0.39201459                0.43371858               -1.44090536                0.00106591                0.02039258               -0.01869669
               0.19702765                7.99279423               12.14367202                0.83535451               -0.32044995               -0.36200960                1.20196419               -0.00048546                0.01544654                0.01660445
               1.19382315                7.99512788               12.11153303                0.60749863               -0.28087971               -0.28149759                0.93682024                0.00106021                0.04733314                0.00992726
               2.19141006                7.99745241               12.07997306                0.54450858               -0.20159525               -0.20173138                0.67198301                0.00144875                0.09211532                0.00644436
               3.18979125                7.99975748               12.04868700                0.51686361               -0.12213872               -0.12230585                0.40724398                0.00163056                0.11541545                0.00378969
               4.18896728                8.00204519               12.01756433                0.50269772               -0.04273698               -0.04279482                0.14259315                0.00185895                0.12779863                0.00146591
               5.18893651                8.00431687               11.98651047                0.50066634                0.03655699                0.03674669               -0.12200106                0.00196861                0.13035861               -0.00071574
               6.18969842                8.00657222               11.95543725                0.51035618                0.11583307                0.11627334               -0.38654482                0.00188932                0.12347485               -0.00292427
               7.19125317                8.00881098               11.92425837                0.53215565                0.19514710                0.19575210               -0.65104132                0.00168377                0.10710198               -0.00537156
               8.19360136                8.01103389               11.89288497                0.56728201                0.27445473                0.27520042               -0.91552050                0.00144174                0.08084071               -0.00839455
               9.19674226                8.01324159               11.86122252                0.61789440                0.35363727                0.35491601               -1.18004001                0.00105602                0.04418790               -0.01265400
              10.20067411                8.01542973               11.82917199                0.82950402                0.39318466                0.43508161               -1.44461817                0.00124269                0.02126300               -0.01913708
               0.19428857                8.98918126               12.14302023                0.83450447               -0.31845670               -0.36090152                1.19511205               -0.00062889                0.01668546                0.01225713
               1.19110400                8.99232636               12.11085123                0.60630126               -0.27896866               -0.27865838                0.92970311                0.00053915                0.05059632                0.00580896
               2.18870920                8.99544722               12.07930624                0.54391324               -0.19957574               -0.19966700                0.66513251                0.00073219                0.09789567                0.00398456
               3.18711249                8.99854433               12.04804443                0.51656929               -0.12006114               -0.12037035                0.40086432                0.00097437                0.12172347                0.00236142
               4.18630797                9.00162594               12.01694979                0.50264025               -0.04089400               -0.04106843                0.13676931                0.00128205                0.13431781                0.00090243
               5.18629461                9.00469163               11.98592571                0.50078873                0.03821056                0.03823417               -0.12724396                0.00137927                0.13690960               -0.00048073
               6.18707218                9.00774084               11.95488165                0.51061082                0.11731108                0.11752011               -0.39121492                0.00130439                0.12983518               -0.00187362
               7.18864083                9.01077312               11.92372853                0.53250436                0.19645314                0.19678445               -0.65517741                0.00108144                0.11299417               -0.00339475
               8.19100125                9.01378898               11.89237378                0.56770029                0.27574664                0.27605554               -0.91921544                0.00090173                0.08574838               -0.00526375
               9.19415576                9.01679361               11.86071493                0.61838759                0.35489735                0.35543847               -1.18348762                0.00078456                0.04703505               -0.00802401
              10.19809919                9.01978763               11.82863797                0.82978610                0.39434324                0.43680540               -1.44815274                0.00115892                0.02283936               -0.01389184
               0.19072489                9.98557620               12.14226179                0.91697753               -0.31569060               -0.36050669                1.18843279                0.04148284                0.02136703                0.01000933
               1.18756798                9.98955471               12.11008753                0.80277028               -0.27590779               -0.27716491                0.92295793                0.04054144                0.05769443                0.00387386
               2.18520673                9.99345907               12.07858942                0.77177365               -0.19679816               -0.19881485                0.65869647                0.03952164                0.10744623                0.00293828
               3.18363202                9.99735007               12.04737256                0.75819804               -0.11805510               -0.11942553                0.39477654                0.04019040                0.13128821                0.00170164
               4.18284563               10.00122382               12.01632497                0.75130938               -0.03914150               -0.04021163                0.13103212                0.04033963                0.14403870                0.00058957
               5.18284919               10.00508156               11.98534873                0.75044330                0.03986955                0.03899320               -0.13263984                0.04039786                0.14662547               -0.00047157
               6.18364302               10.00892262               11.95435196                0.75540128                0.11887396                0.11817765               -0.39626641                0.04033901                0.13936828               -0.00153247
               7.18522667               10.01274667               11.92324408                0.76638447                0.19779434                0.19735515               -0.65986999                0.04020280                0.12216792               -0.00266541
               8.18759891               10.01655500               11.89193075                0.78401072                0.27663153                0.27660272               -0.92354971                0.03995037                0.09438435               -0.00401268
               9.19075930               10.02035036               11.86030694                0.80938172                0.35551676                0.35567485               -1.18752558                0.04089537                0.05374645               -0.00586823
              10.19470924               10.02416584               11.82823140                0.91499867                0.39499446                0.43782075               -1.45213952                0.04255294                0.02805470               -0.01113593
               0.22382866                0.02282680               13.16100890                0.92682703               -0.32929523               -0.37166925                1.23191897               -0.04247706                0.01735436               -0.00536225
               1.22053571                0.01876936               13.12637966                0.82022700               -0.29005041               -0.28965376                0.96935599               -0.04033410                0.04047385               -0.00558731
               2.21802766                0.01473657               13.09215643                0.78383556               -0.21167479               -0.21159758                0.70729269               -0.03937950                0.07459200               -0.00319129
               3.21630222                0.01068538               13.05816679                0.76368765               -0.13336647               -0.13297659                0.44551777               -0.03973577                0.09466298               -0.00201244
               4.21536033                0.00661691               13.02431607                0.75275194               -0.05497309               -0.05449220                0.18394943               -0.03982739                0.10538817               -0.00091888
               5.21520275                0.00253118               12.99052584                0.75053771                0.02344912                0.02397874               -0.07749789               -0.03986004                0.10780830                0.00009370
               6.21582931               -0.00156997               12.95672245                0.75687233                0.10182695                0.10244244               -0.33888612               -0.03980970                0.10226355                0.00105433
               7.21723929               -0.00568505               12.92283433                0.77187594                0.18010697                0.18091205               -0.60028003               -0.03971613                0.08884846                0.00197891
               8.21943145               -0.00981463               12.88878929                0.79596761                0.25831300                0.25948811               -0.86177901               -0.03949552                0.06741246                0.00288257
               9.22240555               -0.01396005               12.85451190                0.82989021                0.33643743                0.33776285               -1.12352955               -0.04039067                0.03742744                0.00375288
              10.22616020               -0.01815260               12.81991867                0.92866615                0.37546438                0.41947855               -1.38573631               -0.04043263                0.01844029                0.00494552
               0.22746133                1.01911010               13.16037245                0.84557658               -0.32838436               -0.37036943                1.22694858               -0.00115614                0.01478185               -0.00567887
               1.22417748                1.01587282               13.12572708                0.62556809               -0.28927385               -0.28923424                0.96435322               -0.00077014                0.03916411               -0.00722924
               2.22167585                1.01262059               13.09151267                0.55701507               -0.21063968               -0.21076763                0.70217910               -0.00107748                0.07371368               -0.00500667
               3.21996469                1.00935562               13.05751764                0.52272409               -0.13183483               -0.13222721                0.44032811               -0.00135679                0.09283941               -0.00326058
               4.21903915                1.00607199               13.02365924                0.50430516               -0.05335477               -0.05369664                0.17869868               -0.00167941                0.10330372               -0.00159350
               5.21889760                1.00277097               12.98985993                0.50058184                0.02500859                0.02483513               -0.08280242               -0.00177686                0.10563966                0.00000493
               6.21953933                0.99945445               12.95604736                0.51115101                0.10334332                0.10336192               -0.34425823               -0.00165787                0.10019727                0.00149822
               7.22096446                0.99612408               12.92215100                0.53629973                0.18173348                0.18188544               -0.60575132               -0.00135989                0.08701574                0.00284499
               8.22317400                0.99278025               12.88809932                0.57702189                0.26030844                0.26044623               -0.86738206               -0.00114110                0.06583082                0.00400285
               9.22617063                0.98941758               12.85381661                0.63509134                0.33872123                0.33914626               -1.12927369               -0.00076806                0.03612697                0.00493084
              10.22994842                0.98604219               12.81922158                0.84111630                0.37777900                0.41981515               -1.39151830                0.00069164                0.01726256                0.00565140
               0.23028010                2.01541941               13.15966394                0.83736706               -0.32702811               -0.36814661                1.22244989               -0.00130629                0.01225172               -0.00574639
               1.22700982                2.01298468               13.12499320                0.61053223               -0.28783927               -0.28841648                0.96001130               -0.00139284                0.03900411               -0.00754231
               2.22452331                2.01052122               13.09079821                0.54632091               -0.20930641               -0.20944057                0.69778820               -0.00216624                0.07594751               -0.00621598
               3.22282369                2.00804084               13.05682266                0.51806473               -0.13059632               -0.13080236                0.43564775               -0.00258471                0.09504752               -0.00420024
               4.22191139                2.00554297               13.02298100                0.50311189               -0.05194687               -0.05212676                0.17361734               -0.00294991                0.10536320               -0.00204609
               5.22178475                2.00302788               12.98919701                0.50011124                0.02658291                0.02657372               -0.08833522               -0.00308179                0.10758142                0.00011455
               6.22244305                2.00049726               12.95539853                0.50861241                0.10507722                0.10527193               -0.35024201               -0.00290864                0.10199220                0.00213149
               7.22388630                1.99795266               12.92151517                0.52894506                0.18360383                0.18395229               -0.61213784               -0.00252058                0.08860670                0.00386419
               8.22611512                1.99539429               12.88747513                0.56223983                0.26209788                0.26265434               -0.87406996               -0.00202492                0.06712027                0.00517522
               9.22912825                1.99282288               12.85320208                0.61052811                0.34048460                0.34174000               -1.13609457               -0.00132612                0.03688760                0.00592134
              10.23292481                1.99024371               12.81861153                0.82494927                0.37965598                0.42105452               -1.39824467                0.00021716                0.01759663                0.00583904
               0.23230466                3.01174717               13.15895831                0.83682491               -0.32568448               -0.36644217                1.21801976               -0.00119682                0.01272074               -0.00108223
               1.22904782                3.01010450               13.12428374                0.60977687               -0.28641486               -0.28747728                0.95573906               -0.00132902                0.04001572               -0.00292584
               2.22657636                3.00843178               13.09009345                0.54591241               -0.20782886               -0.20841219                0.69338518               -0.00230933                0.07797534               -0.00316700
               3.22489124                3.00673957               13.05613209                0.51781972               -0.12916266               -0.12948436                0.43094672               -0.00270023                0.09776232               -0.00240270
               4.22399311                3.00502945               13.02230680                0.50301759               -0.05047851               -0.05058710                0.16851176               -0.00297174                0.10825200               -0.00117243
               5.22388167                3.00330244               12.98853927                0.50017924                0.02816312                0.02832868               -0.09388840               -0.00305442                0.11043524                0.00019524
               6.22455637                3.00155989               12.95475625                0.50886973                0.10676761                0.10724042               -0.35623926               -0.00290913                0.10465310                0.00145113
               7.22601702                2.99980312               12.92088632                0.52941971                0.18534553                0.18613306               -0.61853378               -0.00256133                0.09091110                0.00237090
               8.22826328                2.99803334               12.88685641                0.56294588                0.26388373                0.26505831               -0.88077109               -0.00203190                0.06887166                0.00273778
               9.23129470                2.99625238               12.85258834                0.61144695                0.34239109                0.34405049               -1.14294811               -0.00117778                0.03786228                0.00232017
              10.23511111                2.99446328               12.81799552                0.82546680                0.38164101                0.42292341               -1.40503559                0.00035902                0.01803514                0.00088297
               0.23354152                4.00809056               13.15827450                0.83628788               -0.32428894               -0.36489716                1.21337984               -0.00107976                0.01309065                0.00440858
               1.23029863                4.00723513               13.12358845                0.60903742               -0.28497316               -0.28627939                0.95121109               -0.00096455                0.04117149                0.00131206
               2.22784205                4.00635297               13.08940076                0.54551964               -0.20633037               -0.20723167                0.68874300               -0.00177129                0.08025116                0.00002406
               3.22617202                4.00545115               13.05544884                0.51758023               -0.12764860               -0.12814116                0.42607109               -0.00212723                0.10066594               -0.00039993
               4.22528908                4.00453123               13.02163747                0.50292993               -0.04893967               -0.04904827                0.16333222               -0.00233099                0.11148920               -0.00025975
               5.22519323                4.00359446               12.98788531                0.50025532                0.02975526                0.03004638               -0.09940131               -0.00237997                0.11371025                0.00010163
               6.22588419                4.00264207               12.95411692                0.50913001                0.10841990                0.10913114               -0.36208228               -0.00225736                0.10772279                0.00038097
               7.22736162                4.00167532               12.92025894                0.52989132                0.18705202                0.18819199               -0.62467468               -0.00196799                0.09354544                0.00030205
               8.22962523                4.00069546               12.88623632                0.56366040                0.26565671                0.26721265               -0.88714334               -0.00150164                0.07083761               -0.00039885
               9.23267476                3.99970389               12.85196875                0.61243504                0.34424861                0.34612935               -1.14944044               -0.00082739                0.03892958               -0.00197183
              10.23651020                3.99870217               12.81736754                0.82605078                0.38354407                0.42479961               -1.41148087                0.00049581                0.01853053               -0.00463604
               0.23399393                5.00444923               13.15760980                0.83569876               -0.32278147               -0.36334805                1.20836636               -0.00095023                0.01351206                0.00944330
               1.23076612                5.00437891               13.12290736                0.60821802               -0.28345059               -0.28484386                0.94623131               -0.00044723                0.04237218                0.00532346
               2.22832492                5.00428715               13.08871835                0.54508750               -0.20478395               -0.20579556                0.68370296               -0.00087437                0.08260843                0.00295846
               3.22667044                5.00417675               13.05477279                0.51732719               -0.12608664               -0.12664474                0.42092029               -0.00111999                0.10367061                0.00147195
               4.22580319                5.00404848               13.02097278                0.50284471               -0.04736036               -0.04747158                0.15804346               -0.00126679                0.11485800                0.00056000
               5.22572323                5.00390337               12.98723417                0.50033681                0.03135868                0.03170101               -0.10483832               -0.00129549                0.11715164               -0.00009731
               6.22643036                5.00374251               12.95347874                0.50938506                0.11005230                0.11085936               -0.36766617               -0.00120252                0.11095351               -0.00081870
               7.22792428                5.00356696               12.91963049                0.53033463                0.18871653                0.18998398               -0.63039386               -0.00099749                0.09629601               -0.00191108
               8.23020469                5.00337759               12.88561187                0.56431444                0.26735794                0.26903737               -0.89297213               -0.00070284                0.07285469               -0.00366935
               9.23327143                5.00317497               12.85134022                0.61332854                0.34598791                0.34793504               -1.15533129               -0.00035540                0.03999807               -0.00635557
              10.23712445                5.00295927               12.81672508                0.82657868                0.38530140                0.42653255               -1.41735802                0.00066359                0.01904640               -0.01015071
               0.23366315                6.00082360               13.15695777                0.83504748               -0.32113929               -0.36175215                1.20291195               -0.00081064                0.01398201                0.01354759
               1.23045176                6.00153825               13.12223449                0.60730382               -0.28182138               -0.28315852                0.94072058                0.00010121                0.04365400                0.00844422
               2.22802673                6.00223706               13.08804160                0.54460923               -0.20317379               -0.20407706                0.67820083                0.00007064                0.08512676                0.00519860
               3.22638828                6.00291826               13.05410070                0.51705838               -0.12448021               -0.12495338                0.41545284               -0.00006643                0.10686529                0.00287577
               4.22553712                6.00358180               13.02031106                0.50276185               -0.04574979               -0.04583326                0.15262939               -0.00015869                0.11843976                0.00114722
               5.22547329                6.00422848               12.98658541                0.50042360                0.03297122                0.03328634               -0.11019011               -0.00016786                0.12081694               -0.00031779
               6.22619655                6.00485926               12.95284233                0.50963277                0.11166541                0.11239487               -0.37295708               -0.00010615                0.11439592               -0.00183959
               7.22770660                6.00547500               12.91900266                0.53074366                0.19033090                0.19147480               -0.63563514                0.00001005                0.09921262               -0.00374381
               8.23000316                6.00607621               12.88498574                0.56489658                0.26896861                0.27050887               -0.89818367                0.00012913                0.07496521               -0.00636837
               9.23308597                6.00666259               12.85070627                0.61411005                0.34758499                0.34943617               -1.16053918                0.00014134                0.04109028               -0.01002291
              10.23695486                6.00723282               12.81607214                0.82704026                0.38688944                0.42809669               -1.42259199                0.00084481                0.01959659               -0.01489461
               0.23254841                6.99721419               13.15630624                0.83433746               -0.31937341               -0.36014186                1.19703176               -0.00066517                0.01457343                0.01607561
               1.22935468                6.99871574               13.12155797                0.60630224               -0.28010425               -0.28120774                0.93471007                0.00055823                0.04520987                0.00996768
               2.22694633                7.00020561               13.08736124                0.54409108               -0.20151549               -0.20207426                0.67226759                0.00074445                0.08814990                0.00621300
               3.22532437                7.00167768               13.05342654                0.51677844               -0.12282686               -0.12309531                0.40969117                0.00063885                0.11063236                0.00350905
               4.22448979                7.00313182               13.01964952                0.50268439               -0.04409785               -0.04415160                0.14709556                0.00061609                0.12261480                0.00139544
               5.22444241                7.00456910               12.98593929                0.50051831                0.03459591                0.03481378               -0.11547328                0.00064146                0.12507574               -0.00046977
               6.22518171                7.00599041               12.95221095                0.50987686                0.11325585                0.11377365               -0.37799385                0.00067597                0.11841411               -0.00238679
               7.22670753                7.00739646               12.91838170                0.53112428                0.19189901                0.19270806               -0.64045467                0.00071947                0.10264514               -0.00468064
               8.22901969                7.00878777               12.88436703                0.56541486                0.27050568                0.27165100               -0.90284350                0.00074944                0.07746326               -0.00774946
               9.23211764                7.01016369               12.85007805                0.61478890                0.34905899                0.35065095               -1.16513010                0.00056199                0.04237894               -0.01206249
              10.23600087                7.01152120               12.81542045                0.82744020                0.38832263                0.42954424               -1.42723831                0.00102382                0.02027040               -0.01795798
               0.23064675                7.99362077               13.15563598                0.83358603               -0.31752447               -0.35867198                1.19083021               -0.00049326                0.01544993                0.01620107
               1.22747150                7.99591410               13.12085907                0.60524367               -0.27835372               -0.27892105                0.92834292                0.00074726                0.04743526                0.00903006
               2.22507967                7.99819558               13.08666333                0.54355327               -0.19983256               -0.19988715                0.66603343                0.00078262                0.09234332                0.00557460
               3.22347485                8.00045635               13.05274191                0.51649932               -0.12108233               -0.12121326                0.40372708                0.00074110                0.11566000                0.00317865
               4.22265802                8.00269877               13.01898462                0.50261868               -0.04236611               -0.04246538                0.14147312                0.00083399                0.12803146                0.00125007
               5.22262753                8.00492475               12.98529675                0.50062645                0.03623403                0.03631299               -0.12072855                0.00091424                0.13056057               -0.00047942
               6.22338271                8.00713473               12.95159001                0.51012721                0.11480505                0.11508796               -0.38288771                0.00091473                0.12365290               -0.00224951
               7.22492363                8.00932917               12.91777795                0.53149501                0.19341067                0.19383621               -0.64502134                0.00088759                0.10725924               -0.00433815
               8.22725092                8.01150923               12.88377138                0.56589814                0.27200713                0.27257920               -0.90715587                0.00089684                0.08095610               -0.00714852
               9.23036377                8.01367561               12.84947542                0.61540231                0.35046963                0.35160293               -1.16931630                0.00079552                0.04424567               -0.01141139
              10.23426031                8.01582371               12.81479112                0.82779868                0.38965404                0.43105164               -1.43148570                0.00121248                0.02127867               -0.01818041
               0.22795188                8.99004075               13.15491888                0.83282676               -0.31570671               -0.35768240                1.18452244               -0.00060042                0.01678017                0.01193805
               1.22479481                8.99313732               13.12010998                0.60418501               -0.27660750               -0.27629364                0.92187822                0.00031853                0.05107422                0.00510177
               2.22241973                8.99620787               13.08593131                0.54303107               -0.19794062               -0.19802237                0.65973934                0.00025964                0.09884981                0.00332105
               3.22083600                8.99925341               13.05203779                0.51624029               -0.11908304               -0.11942473                0.39772912                0.00034125                0.12284389                0.00190284
               4.22003807                9.00228251               13.01831282                0.50257431               -0.04056336               -0.04080229                0.13582259                0.00055812                0.13548446                0.00073917
               5.22002473                9.00529536               12.98465921                0.50075641                0.03787615                0.03783452               -0.12601705                0.00063834                0.13805258               -0.00031320
               6.22079559                9.00829217               12.95098606                0.51039988                0.11630275                0.11646266               -0.38781812                0.00062019                0.13092445               -0.00138648
               7.22235079                9.01127318               12.91720390                0.53188715                0.19477972                0.19507092               -0.64961424                0.00052357                0.11398319               -0.00264325
               8.22469119                9.01423935               12.88321946                0.56639749                0.27341417                0.27367896               -0.91146442                0.00052520                0.08653084               -0.00434980
               9.22781907                9.01719575               12.84892911                0.61601836                0.35188634                0.35237575               -1.17345784                0.00061102                0.04747306               -0.00710243
              10.23172891                9.02014224               12.81421781                0.82815309                0.39098416                0.43297720               -1.43567014                0.00117078                0.02300956               -0.01319405
               0.22444160                9.98646712               13.15409704                0.91616865               -0.31308450               -0.35736280                1.17839520                0.04108260                0.02161934                0.00988510
               1.22131075                9.99038823               13.11928239                0.80175615               -0.27364154               -0.27490889                0.91570987                0.03999449                0.05854130                0.00349594
               2.21896877                9.99423513               13.08515284                0.77135447               -0.19518615               -0.19727353                0.65374790                0.03888501                0.10893867                0.00259888
               3.21740703                9.99806786               13.05130680                0.75804375               -0.11707606               -0.11855581                0.39193678                0.03948243                0.13295300                0.00147268
               4.21662724               10.00188272               13.01763144                0.75128007               -0.03881953               -0.03997887                0.13023053                0.03959687                0.14573389                0.00051537
               5.21663064               10.00568144               12.98402816                0.75042903                0.03950206                0.03860863               -0.13141348                0.03965360                0.14829210               -0.00037543
               6.21741729               10.00946399               12.95040483                0.75530036                0.11781399                0.11718180               -0.39301507                0.03962635                0.14100008               -0.00127347
               7.21898692               10.01323058               12.91667058                0.76608747                0.19607848                0.19574031               -0.65460011                0.03955391                0.12372266               -0.00227303
               8.22133886               10.01698281               12.88273024                0.78338223                0.27430938                0.27434554               -0.91623634                0.03939371                0.09571137               -0.00354117
               9.22447311               10.02072312               12.84847716                0.80823382                0.35259479                0.35273723               -1.17805048                0.04042570                0.05457408               -0.00540022
              10.22839075               10.02448325               12.81376769                0.91420451                0.39176457                0.43410162               -1.44022921                0.04219696                0.02843476               -0.01082669
               0.25994514                0.02343571               14.17327477                0.92583691               -0.32641755               -0.36833831                1.22108370               -0.04205073                0.01750820               -0.00517874
               1.25668097                0.01939266               14.13603300                0.81888888               -0.28752414               -0.28716583                0.96111422               -0.03985643                0.04091558               -0.00535259
               2.25419466                0.01537529               14.09920100                0.78319525               -0.20985812               -0.20982207                0.70145461               -0.03885752                0.07539574               -0.00299209
               3.25248381                0.01134123               14.06260474                0.76343327               -0.13226237               -0.13189225                0.44196119               -0.03917051                0.09568955               -0.00187711
               4.25154941                0.00729108               14.02614906                0.75269701               -0.05457765               -0.05407627                0.18260355               -0.03924244                0.10655394               -0.00087459
               5.25139225                0.00322419               13.98975493                0.75052039                0.02313825                0.02373801               -0.07666413               -0.03927539                0.10904208                0.00003814
               6.25201218               -0.00085846               13.95334819                0.75673924                0.10082174                0.10154752               -0.33588562               -0.03924512                0.10350543                0.00090390
               7.25340869               -0.00495605               13.91685666                0.77146897                0.17843269                0.17935664               -0.59511247               -0.03918997                0.09001791                0.00175194
               8.25558083               -0.00906961               13.88020733                0.79510970                0.25599702                0.25725585               -0.85441645               -0.03902330                0.06838337                0.00261067
               9.25852863               -0.01320037               13.84332359                0.82836732                0.33348429                0.33483030               -1.11389233               -0.03996256                0.03801974                0.00347693
              10.26225052               -0.01737850               13.80612042                0.92762869                0.37218899                0.41576534               -1.37366849               -0.04004981                0.01871485                0.00475326
               0.26356769                1.01975233               14.17258749                0.84369187               -0.32550705               -0.36699553                1.21595558               -0.00111254                0.01482707               -0.00520957
               1.26031262                1.01652100               14.13532934                0.62308337               -0.28679425               -0.28670303                0.95596446               -0.00056223                0.03945152               -0.00660176
               2.25783180                1.01327707               14.09850543                0.55588385               -0.20892067               -0.20894451                0.69625155               -0.00064654                0.07437815               -0.00440651
               3.25613420                1.01002231               14.06190334                0.52227866               -0.13081456               -0.13110893                0.43672831               -0.00076942                0.09377857               -0.00284082
               4.25521551                1.00675032               14.02543967                0.50420794               -0.05299673               -0.05327383                0.17735258               -0.00100127                0.10441034               -0.00144179
               5.25507427                1.00346157               13.98903621                0.50055075                0.02471675                0.02456882               -0.08192836               -0.00108269                0.10680976               -0.00014739
               6.25570985                1.00015702               13.95261990                0.51092256                0.10240489                0.10241041               -0.34117378               -0.00102204                0.10133337                0.00105240
               7.25712237                0.99683751               13.91611950                0.53559896                0.18014550                0.18025015               -0.60044834               -0.00084832                0.08801556                0.00215910
               8.25931276                0.99350295               13.87946258                0.57553067                0.25805410                0.25812344               -0.85982605               -0.00079835                0.06657895                0.00316918
               9.26228345                0.99014794               13.84257247                0.63240915                0.33577016                0.33611918               -1.11938817               -0.00060463                0.03652198                0.00407424
              10.26602816                0.98677915               13.80536721                0.83927962                0.37447107                0.41601084               -1.37918769                0.00072177                0.01740809                0.00493541
               0.26638555                2.01609580               14.17183234                0.83556119               -0.32405578               -0.36470795                1.21119280               -0.00122927                0.01226065               -0.00498877
               1.26314499                2.01365860               14.13455002                0.60821175               -0.28525585               -0.28577453                0.95129869               -0.00103844                0.03912355               -0.00652060
               2.26068043                2.01119640               14.09774527                0.54532316               -0.20749111               -0.20751876                0.69157324               -0.00143707                0.07620640               -0.00526010
               3.25899517                2.00871905               14.06116040                0.51767412               -0.12951491               -0.12961723                0.43186658               -0.00161859                0.09539051               -0.00353576
               4.25809013                2.00622561               14.02471033                0.50302373               -0.05156320               -0.05169291                0.17223129               -0.00183974                0.10578096               -0.00180784
               5.25796390                2.00371556               13.98831863                0.50008025                0.02628298                0.02625175               -0.08734375               -0.00194494                0.10803236               -0.00012920
               6.25861579                2.00118975               13.95191285                0.50841291                0.10409472                0.10420023               -0.34688477               -0.00186346                0.10243600                0.00142157
               7.26004580                1.99864895               13.91542224                0.52833896                0.18193266                0.18214619               -0.60642597               -0.00166926                0.08900080                0.00276856
               8.26225444                1.99609286               13.87877455                0.56094315                0.25972688                0.26013186               -0.86600686               -0.00143777                0.06741780                0.00383298
               9.26524033                1.99352202               13.84189300                0.60816984                0.33740444                0.33850400               -1.12566312               -0.00103612                0.03705393                0.00452552
              10.26900253                1.99094171               13.80469293                0.82332923                0.37621986                0.41707003               -1.38540415                0.00028848                0.01766772                0.00462872
               0.26841750                3.01245817               14.17108082                0.83498476               -0.32262502               -0.36296817                1.20650125               -0.00110795                0.01267042               -0.00032012
               1.26519125                3.01080551               14.13379590                0.60740198               -0.28374455               -0.28470947                0.94670682               -0.00097246                0.03991405               -0.00193031
               2.26274261                3.00912669               14.09699481                0.54488529               -0.20593151               -0.20639063                0.68689724               -0.00160857                0.07778606               -0.00228595
               3.26107262                3.00742996               14.06042176                0.51741526               -0.12802035               -0.12823819                0.42699569               -0.00180120                0.09750447               -0.00180163
               4.26018221                3.00571646               14.02398483                0.50292406               -0.05006992               -0.05014601                0.16709229               -0.00195433                0.10798131               -0.00095758
               5.26007122                3.00398660               13.98760601                0.50014162                0.02784915                0.02795150               -0.09278101               -0.00201685                0.11017309               -0.00001849
               6.26073919                3.00224102               13.95121213                0.50865189                0.10573266                0.10605225               -0.35261977               -0.00195111                0.10441364                0.00082343
               7.26218588                3.00048044               13.91473172                0.52877388                0.18358726                0.18415931               -0.61243095               -0.00176908                0.09070621                0.00139454
               8.26441093                2.99870558               13.87809167                0.56158106                0.26139961                0.26233385               -0.87222189               -0.00146926                0.06871320                0.00152646
               9.26741387                2.99691802               13.84121382                0.60899078                0.33918037                0.34060661               -1.13198709               -0.00088845                0.03777385                0.00103774
              10.27119454                2.99512055               13.80401193                0.82378996                0.37806710                0.41878160               -1.39169233                0.00043913                0.01799665               -0.00025145
               0.26966870                4.00883644               14.17034954                0.83442517               -0.32116837               -0.36140436                1.20168330               -0.00100676                0.01298879                0.00500024
               1.26645702                4.00796441               14.13305400                0.60662617               -0.28224464               -0.28342106                0.94196009               -0.00070558                0.04089433                0.00203149
               2.26402381                4.00706858               14.09625458                0.54447297               -0.20438232               -0.20513330                0.68207283               -0.00127210                0.07971747                0.00064237
               3.26236937                4.00615429               14.05968908                0.51716702               -0.12647014               -0.12685111                0.42201276               -0.00150145                0.09996030                0.00001456
               4.26149441                4.00522269               14.02326360                0.50283292               -0.04851841               -0.04860400                0.16190245               -0.00163392                0.11071207               -0.00010840
               5.26139900                4.00427459               13.98689744                0.50021234                0.02942625                0.02962756               -0.09819882               -0.00167412                0.11292498               -0.00003187
               6.26208293                4.00331080               13.95051550                0.50889744                0.10734261                0.10785741               -0.35826485               -0.00160512                0.10698156               -0.00002642
               7.26354585                4.00233214               13.91404459                0.52921422                0.18522739                0.18609501               -0.61828345               -0.00142422                0.09289790               -0.00033937
               8.26578748                4.00133953               13.87740989                0.56224176                0.26308713                0.26434019               -0.87823849               -0.00111024                0.07033735               -0.00120503
               9.26880760                4.00033415               13.84053151                0.60989961                0.34093863                0.34253761               -1.13809285               -0.00062343                0.03864792               -0.00283920
              10.27260625                3.99931734               13.80332157                0.82432704                0.37986532                0.42055155               -1.39777197                0.00055707                0.01840583               -0.00541876
               0.27014142                5.00523008               14.16963435                0.83383305               -0.31964256               -0.35985110                1.19661354               -0.00090749                0.01338792                0.00977172
               1.26694500                5.00513709               14.13232270                0.60580137               -0.28070627               -0.28195316                0.93691355               -0.00034250                0.04202109                0.00563208
               2.26452730                5.00502403               14.09552146                0.54403833               -0.20282515               -0.20366965                0.67698466               -0.00067998                0.08193032                0.00320179
               3.26288849                5.00489294               14.05896140                0.51691358               -0.12490370               -0.12534164                0.41684615               -0.00088624                0.10277880                0.00162838
               4.26202922                5.00474438               14.02254612                0.50274730               -0.04694307               -0.04703205                0.15663693               -0.00101666                0.11387228                0.00062259
               5.26194963                5.00457915               13.98619226                0.50029076                0.03101594                0.03125913               -0.10357176               -0.00104891                0.11615094               -0.00012704
               6.26264954                5.00439817               13.94982203                0.50914383                0.10895131                0.10954513               -0.36374529               -0.00097706                0.11000341               -0.00093491
               7.26412866                5.00420234               13.91335970                0.52964025                0.18685874                0.18783157               -0.62386393               -0.00080886                0.09546044               -0.00210496
               8.26638672                5.00399239               13.87672806                0.56286688                0.26474662                0.26610017               -0.88390115               -0.00056572                0.07220579               -0.00392705
               9.26942359                5.00376877               13.83984506                0.61075035                0.34262895                0.34427954               -1.14380355               -0.00028304                0.03963099               -0.00665359
              10.27323929                5.00353158               13.80262128                0.82482927                0.38157047                0.42223797               -1.40347533                0.00068862                0.01888137               -0.01045223
               0.26983653                6.00163942               14.16892819                0.83320062               -0.31803088               -0.35826580                1.19123796               -0.00079866                0.01387156                0.01358518
               1.26665622                6.00232535               14.13159529                0.60491637               -0.27910865               -0.28030009                0.93150574                0.00004810                0.04335018                0.00831669
               2.26425436                6.00299519               14.09479025                0.54357657               -0.20124677               -0.20198259                0.67158366               -0.00004669                0.08453929                0.00504846
               3.26263129                6.00364745               14.05823510                0.51665369               -0.12332501               -0.12367606                0.41146482               -0.00023078                0.10608812                0.00276311
               4.26178786                6.00428204               14.02183057                0.50266759               -0.04535274               -0.04540994                0.15128399               -0.00035857                0.11758286                0.00111499
               5.26172423                6.00489977               13.98549012                0.50037723                0.03261710                0.03284058               -0.10889264               -0.00038165                0.11994714               -0.00024756
               6.26244020                6.00550170               13.94913266                0.50938994                0.11056141                0.11108951               -0.36903553               -0.00030856                0.11356664               -0.00166700
               7.26393546                6.00608877               13.91267926                0.53004794                0.18847648                0.18934192               -0.62912961               -0.00015849                0.09847695               -0.00349011
               8.26620973                6.00666154               13.87604952                0.56344821                0.26636398                0.26759758               -0.88915246                0.00000990                0.07438724               -0.00607402
               9.26926274                6.00721974               13.83915872                0.61152998                0.34423347                0.34580600               -1.14905373                0.00008105                0.04076076               -0.00974495
              10.27309440                6.00776210               13.80191577                0.82528886                0.38316590                0.42381418               -1.40873975                0.00083340                0.01944486               -0.01470612
               0.26875358                6.99806477               14.16821905                0.83253028               -0.31634009               -0.35669002                1.18556972               -0.00067097                0.01450738                0.01585939
               1.26559018                6.99953109               14.13086018                0.60397650               -0.27746631               -0.27844402                0.92575999                0.00039410                0.04506094                0.00948710
               2.26320426                7.00098437               14.09405194                0.54309253               -0.19965794               -0.20006801                0.66589241                0.00040227                0.08786306                0.00574804
               3.26159702                7.00241942               14.05750435                0.51639120               -0.12172637               -0.12188264                0.40588494                0.00018380                0.11023647                0.00318266
               4.26076973                7.00383618               14.02111422                0.50259657               -0.04373401               -0.04375785                0.14584789                0.00008808                0.12218226                0.00128535
               5.26072234                7.00523596               13.98479112                0.50047418                0.03423228                0.03437980               -0.11417265                0.00009366                0.12463842               -0.00032923
               6.26145438                7.00661996               13.94845032                0.50963893                0.11216535                0.11252114               -0.37416221                0.00016464                0.11799376               -0.00200115
               7.26296565                7.00798918               13.91200903                0.53044186                0.19007824                0.19066220               -0.63411937                0.00029502                0.10226352               -0.00409251
               8.26525594                7.00934434               13.87538281                0.56399164                0.26794964                0.26884758               -0.89403839                0.00044961                0.07715178               -0.00703808
               9.26832464                7.01068489               13.83848308                0.61224507                0.34576485                0.34712793               -1.15389043                0.00041096                0.04219651               -0.01134451
              10.27217124                7.01200786               13.80121627                0.82570907                0.38465941                0.42533298               -1.41360598                0.00099159                0.02017938               -0.01738659
               0.26689047                7.99450562               14.16748863                0.83183474               -0.31459681               -0.35529037                1.17969189               -0.00049598                0.01544386                0.01585396
               1.26374450                7.99675647               14.13009989                0.60300400               -0.27581954               -0.27630084                0.91978362                0.00055429                0.04750746                0.00839042
               2.26137408                7.99899383               14.09329373                0.54260137               -0.19806722               -0.19801200                0.66000637                0.00037289                0.09248876                0.00497523
               3.25978316                8.00120980               14.05676154                0.51613540               -0.12005001               -0.12009598                0.40017263                0.00019440                0.11580815                0.00276482
               4.25897308                8.00340689               14.02039380                0.50253947               -0.04204134               -0.04211380                0.14035129                0.00020438                0.12819653                0.00110580
               5.25894233                8.00558737               13.98409590                0.50058629                0.03586022                0.03589920               -0.11943933                0.00026565                0.13073009               -0.00032035
               6.25969028                8.00775212               13.94777950                0.50989845                0.11373289                0.11391678               -0.37920227                0.00031207                0.12381182               -0.00179577
               7.26121699                8.00990201               13.91135795                0.53083568                0.19163646                0.19192201               -0.63895172                0.00039003                0.10738930               -0.00363758
               8.26352301                8.01203849               13.87474186                0.56451808                0.26952244                0.26993918               -0.89870511                0.00055036                0.08103825               -0.00629000
               9.26660744                8.01416230               13.83783620                0.61292234                0.34726368                0.34824678               -1.15846947                0.00062551                0.04428284               -0.01053071
              10.27046828                8.01626876               13.80054228                0.82610440                0.38608487                0.42696621               -1.41821699                0.00118382                0.02127849               -0.01746224
               0.26424196                8.99095896               14.16671068                0.83113780               -0.31289062               -0.35440242                1.17376280               -0.00058296                0.01682757                0.01167445
               1.26111305                8.99400507               14.12928879                0.60203953               -0.27417882               -0.27383249                0.91376139                0.00018409                0.05137667                0.00461108
               2.25875838                8.99702413               14.09250103                0.54212863               -0.19625986               -0.19629222                0.65409346               -0.00002807                0.09944228                0.00287183
               3.25718786                9.00001750               14.05599902                0.51590047               -0.11810674               -0.11841450                0.39444371               -0.00004516                0.12353106                0.00159622
               4.25639625                9.00299391               14.01966624                0.50250390               -0.04027167               -0.04049986                0.13483617                0.00011577                0.13622399                0.00063071
               5.25638242                9.00595395               13.98340537                0.50072024                0.03748635                0.03743834               -0.12473252                0.00018489                0.13880175               -0.00020266
               6.25714597                9.00889830               13.94712529                0.51018034                0.11523315                0.11537394               -0.38427520                0.00019947                0.13164713               -0.00106407
               7.25868709                9.01182762               13.91073625                0.53125158                0.19303425                0.19329206               -0.64381476                0.00017744                0.11463162               -0.00214207
               8.26100666                9.01474312               13.87414450                0.56506334                0.27098963                0.27120700               -0.90338804                0.00028773                0.08703258               -0.00373180
               9.26410688                9.01764983               13.83724577                0.61360913                0.34876634                0.34919771               -1.16304287                0.00049807                0.04775171               -0.00646458
              10.26798199                9.02054719               13.79992456                0.82650069                0.38751089                0.42903936               -1.42281273                0.00116614                0.02310852               -0.01268480
               0.26078658                9.98741757               14.16582969                0.91534359               -0.31035741               -0.35413919                1.16797983                0.04068733                0.02175430                0.00977402
               1.25768301                9.99127982               14.12840173                0.80071180               -0.27127456               -0.27252547                0.90795275                0.03951643                0.05905501                0.00323831
               2.25536109                9.99506799               14.09166438                0.77091752               -0.19352643               -0.19561466                0.64838860                0.03835537                0.10983871                0.00237268
               3.25381248                9.99884151               14.05521129                0.75788062               -0.11610731               -0.11759880                0.38885289                0.03890749                0.13394927                0.00132269
               4.25303894               10.00259689               14.01892958                0.75124727               -0.03854214               -0.03970167                0.12935935                0.03900095                0.14677379                0.00046772
               5.25304164               10.00633614               13.98272046                0.75041180                0.03908285                0.03821901               -0.13009775                0.03905690                0.14934126               -0.00031252
               6.25382060               10.01005960               13.94649165                0.75519249                0.11670375                0.11613034               -0.38952518                0.03904844                0.14203777               -0.00110504
               7.25537571               10.01376785               13.91015208                0.76577520                0.19429776                0.19402369               -0.64894043                0.03901391                0.12470439               -0.00201663
               8.25770656               10.01746263               13.87360603                0.78272671                0.27188096                0.27195061               -0.90838520                0.03890968                0.09653826               -0.00322935
               9.26081333               10.02114625               13.83674593                0.80704817                0.34951623                0.34964288               -1.16793009                0.03999138                0.05508841               -0.00508423
              10.26469688               10.02484955               13.79942682                0.91338990                0.38835506                0.43023625               -1.42767793                0.04181909                0.02866370               -0.01060488
               0.29866235                0.02409777               15.18543058                0.92483401               -0.32345648               -0.36494299                1.20995615               -0.04163039                0.01760293               -0.00503831
               1.29542779                0.02006964               15.14560195                0.81752610               -0.28492585               -0.28458721                0.95253723               -0.03941603                0.04120467               -0.00518723
               2.29296384                0.01606787               15.10618552                0.78253788               -0.20799216               -0.20796809                0.69532859               -0.03839202                0.07592066               -0.00284845
               3.29126795                0.01205064               15.06700601                0.76316972               -0.13113142               -0.13075057                0.43820920               -0.03867623                0.09636385               -0.00177907
               4.29034121                0.00801820               15.02796814                0.75263855               -0.05417373               -0.05363167                0.18117174               -0.03873516                0.10733771               -0.00084006
               5.29018447                0.00396939               14.98899255                0.75050088                0.02282392                0.02349374               -0.07580604               -0.03876820                0.10988907                0.00000383
               6.29079769               -0.00009533               14.95000473                0.75660080                0.09980194                0.10061650               -0.33275281               -0.03875084                0.10436563                0.00080420
               7.29218051               -0.00417567               14.91093208                0.77104928                0.17672495                0.17773516               -0.58970643               -0.03872027                0.09082566                0.00159864
               8.29433219               -0.00827292               14.87170096                0.79422884                0.25361714                0.25493324               -0.84671728               -0.03858834                0.06904881                0.00242400
               9.29725285               -0.01238826               14.83223405                0.82681211                0.33043262                0.33179268               -1.10384662               -0.03955204                0.03842429                0.00328337
              10.30094084               -0.01655112               14.79244530                0.92657339                0.36879853                0.41195052               -1.36117684               -0.03965961                0.01890000                0.00461515
               0.30227418                1.02044834               15.18469156                0.84179650               -0.32256002               -0.36357306                1.20477363               -0.00107753                0.01485616               -0.00485602
               1.29904858                1.01722377               15.14484637                0.62057397               -0.28423812               -0.28409684                0.94733900               -0.00042917                0.03965790               -0.00615679
               2.29658942                1.01398819               15.10543770                0.55473360               -0.20712786               -0.20706179                0.69010739               -0.00037014                0.07484205               -0.00397655
               3.29490602                1.01074314               15.06625221                0.52182213               -0.12974655               -0.12994737                0.43297801               -0.00039050                0.09442880               -0.00253775
               4.29399448                1.00748188               15.02720630                0.50410618               -0.05262326               -0.05282694                0.17593940               -0.00056213                0.10519024               -0.00132617
               5.29385356                1.00420433               14.98822137                0.50051684                0.02441118                0.02430571               -0.08103625               -0.00063228                0.10764874               -0.00024379
               6.29448271                1.00091083               14.94922388                0.51068769                0.10142723                0.10144027               -0.33798894               -0.00060889                0.10215432                0.00075052
               7.29588210                0.99760168               14.91014203                0.53488343                0.17849456                0.17857416               -0.59496621               -0.00051538                0.08873621                0.00168655
               8.29805260                0.99427641               14.87090280                0.57401379                0.25571661                0.25573909               -0.85202092               -0.00057409                0.06711391                0.00258678
               9.30099643                0.99092966               14.83142884                0.62969364                0.33272480                0.33301506               -1.10920649               -0.00049651                0.03680346                0.00346591
              10.30470710                0.98756839               14.79163783                0.83742607                0.37106631                0.41213403               -1.36655219                0.00074568                0.01750662                0.00441578
               0.30508994                2.01682631               15.18388779                0.83376567               -0.32105893               -0.36123848                1.19985852               -0.00117399                0.01226900               -0.00441656
               1.30187935                2.01438770               15.14401917                0.60590121               -0.28264391               -0.28309296                0.94248303               -0.00080722                0.03923641               -0.00578758
               2.29943707                2.01192664               15.10462968                0.54432713               -0.20564546               -0.20557177                0.68526082               -0.00096011                0.07642752               -0.00457361
               3.29776645                2.00945170               15.06545999                0.51728261               -0.12841436               -0.12841415                0.42801562               -0.00098435                0.09566578               -0.00305482
               4.29686878                2.00696166               15.02642563                0.50293481               -0.05117845               -0.05124262                0.17080769               -0.00110931                0.10612332               -0.00162680
               5.29674288                2.00445550               14.98745013                0.50004904                0.02596881                0.02594674               -0.08636165               -0.00119562                0.10841216               -0.00028717
               6.29738815                2.00193347               14.94846083                0.50821382                0.10308720                0.10314419               -0.34351063               -0.00117307                0.10281232                0.00093405
               7.29880462                1.99939581               14.90938665                0.52773413                0.18022842                0.18034913               -0.60066715               -0.00110500                0.08932927                0.00200440
               8.30099272                1.99684186               14.87015499                0.55964981                0.25731645                0.25760514               -0.85786124               -0.00104647                0.06765819                0.00288524
               9.30395095                1.99427204               14.83068881                0.60582137                0.33427892                0.33524786               -1.11511435               -0.00084122                0.03718533                0.00352606
              10.30767830                1.99169156               14.79090344                0.82171764                0.37273521                0.41306127               -1.37242234                0.00033886                0.01771658                0.00374410
               0.30712791                3.01322357               15.18308833                0.83317136               -0.31957997               -0.35946358                1.19500302               -0.00104497                0.01264307                0.00026018
               1.30393211                3.01156191               15.14321788                0.60506284               -0.28108419               -0.28193723                0.93769090               -0.00073501                0.03988814               -0.00120494
               2.30150622                3.00987675               15.10383139                0.54387412               -0.20403978               -0.20437346                0.68041666               -0.00113992                0.07772188               -0.00164701
               3.29985131                3.00817485               15.06467201                0.51701687               -0.12688646               -0.12699434                0.42304617               -0.00119808                0.09739228               -0.00136285
               4.29896849                3.00645703               15.02564865                0.50283240               -0.04967396               -0.04969414                0.16566144               -0.00127046                0.10787613               -0.00079398
               5.29885783                3.00472326               14.98668365                0.50010577                0.02752225                0.02760319               -0.09170672               -0.00131808                0.11008714               -0.00016077
               6.29951894                3.00297372               14.94770385                0.50843951                0.10468889                0.10490870               -0.34905583               -0.00130408                0.10434145                0.00038382
               7.30095161                3.00120866               14.90863770                0.52814084                0.18182544                0.18223697               -0.60639544               -0.00123178                0.09063906                0.00070104
               8.30315545                2.99942852               14.86941197                0.56023999                0.25891500                0.25965507               -0.86373355               -0.00108576                0.06865067                0.00065646
               9.30612991                2.99763462               14.82994860                0.60657431                0.33596871                0.33719143               -1.12106281               -0.00069041                0.03773550                0.00010484
              10.30987482                2.99582961               14.79016167                0.82213899                0.37449117                0.41464447               -1.37834921                0.00049455                0.01797216               -0.00109423
               0.30839236                4.00963704               15.18230817                0.83260031               -0.31808950               -0.35787792                1.19007225               -0.00095363                0.01292828                0.00545316
               1.30521147                4.00874896               15.14242765                0.60426818               -0.27955208               -0.28058237                0.93280530               -0.00052758                0.04075383                0.00256576
               2.30280132                4.00783917               15.10304221                0.54345190               -0.20246295               -0.20306172                0.67547993               -0.00092708                0.07942672                0.00110118
               3.30116221                4.00691181               15.06388910                0.51676461               -0.12531794               -0.12557795                0.41800369               -0.00106693                0.09955128                0.00032482
               4.30029496                4.00596778               15.02487552                0.50273962               -0.04811906               -0.04815335                0.16047934               -0.00114843                0.11026942                0.00000981
               5.30019983                4.00500757               14.98592134                0.50017257                0.02908534                0.02924471               -0.09704424               -0.00118121                0.11248887               -0.00012273
               6.30087667                4.00403165               14.94695163                0.50867386                0.10626772                0.10664649               -0.35454965               -0.00114822                0.10657171               -0.00031999
               7.30232518                4.00304055               14.90789327                0.52855775                0.18341907                0.18407652               -0.61203312               -0.00104184                0.09253095               -0.00080845
               8.30454505                4.00203497               14.86867155                0.56086065                0.26054310                0.26154526               -0.86948618               -0.00083400                0.07004182               -0.00180091
               9.30753604                4.00101587               14.82920689                0.60742403                0.33765770                0.33900350               -1.12687931               -0.00047914                0.03847735               -0.00348790
              10.31129821                3.99998445               14.78941210                0.82264085                0.37621605                0.41632062               -1.38415043                0.00059966                0.01832233               -0.00601562
               0.30888499                5.00606601               15.18154208                0.83200979               -0.31655622               -0.35632121                1.18497483               -0.00087370                0.01331241                0.01002005
               1.30571942                5.00595026               15.14164564                0.60344495               -0.27800779               -0.27909250                0.92772373               -0.00026262                0.04183006                0.00587178
               2.30332483                5.00581552               15.10225805                0.54301844               -0.20090311               -0.20158062                0.67037039               -0.00052946                0.08153965                0.00339612
               3.30170136                5.00566330               15.06310972                0.51651254               -0.12375316               -0.12406225                0.41283949               -0.00070230                0.10223930                0.00175737
               4.30084977                5.00549396               15.02410552                0.50265433               -0.04655118               -0.04658875                0.15524468               -0.00081704                0.11328216                0.00067705
               5.30077034                5.00530815               14.98516274                0.50024849                0.03066102                0.03085493               -0.10235673               -0.00085024                0.11556143               -0.00014887
               6.30146299                5.00510665               14.94620383                0.50891292                0.10785576                0.10829933               -0.35994093               -0.00079461                0.10944393               -0.00102975
               7.30292745                5.00489019               14.90715321                0.52896935                0.18502326                0.18576632               -0.61749817               -0.00065630                0.09495808               -0.00226528
               8.30516345                5.00465942               14.86793384                0.56146191                0.26216927                0.26325048               -0.87501200               -0.00045529                0.07180280               -0.00413996
               9.30817084                5.00441469               14.82846415                0.60823952                0.33930934                0.34068998               -1.13244098               -0.00022513                0.03939863               -0.00689803
              10.31194964                5.00415603               14.78865557                0.82312187                0.37788010                0.41796257               -1.38970788                0.00070637                0.01876891               -0.01069715
               0.30860639                6.00251061               15.18078253                0.83139406               -0.31496802               -0.35475354                1.17967010               -0.00078498                0.01380394                0.01360756
               1.30545671                6.00316711               15.14086461                0.60258507               -0.27643438               -0.27746889                0.92240083                0.00002603                0.04318720                0.00824165
               2.30307770                6.00380755               15.10147327                0.54257061               -0.19934921               -0.19992151                0.66505246               -0.00009778                0.08420137                0.00496365
               3.30146972                6.00443056               15.06233000                0.51626019               -0.12219677               -0.12242008                0.40753155               -0.00030432                0.10561334                0.00270222
               4.30063376                6.00503600               15.02333674                0.50257724               -0.04497907               -0.04498292                0.14994947               -0.00045000                0.11706398                0.00110130
               5.30057014                6.00562467               14.98440756                0.50033419                0.03224876                0.03242899               -0.10763878               -0.00048124                0.11942903               -0.00020256
               6.30127874                6.00619763               14.94546162                0.50915626                0.10945695                0.10984547               -0.36521126               -0.00040457                0.11307250               -0.00156356
               7.30275928                6.00675588               14.90642007                0.52937313                0.18663554                0.18728619               -0.62275976               -0.00024024                0.09802847               -0.00333965
               8.30501145                6.00729997               14.86720269                0.56203817                0.26378296                0.26476236               -0.88026923               -0.00004959                0.07402266               -0.00589854
               9.30803494                6.00782967               14.82772520                0.60901164                0.34091058                0.34223144               -1.13769943                0.00005016                0.04054904               -0.00957677
              10.31182966                6.00834370               14.78789735                0.82357647                0.37947223                0.41954682               -1.39497431                0.00082546                0.01933951               -0.01458912
               0.30755629                6.99897094               15.18001764                0.83075459               -0.31332886               -0.35322023                1.17416786               -0.00066974                0.01446712                0.01569135
               1.30442300                7.00040088               15.14007317                0.60169215               -0.27484354               -0.27569064                0.91685266                0.00029958                0.04499562                0.00916160
               2.30205942                7.00181709               15.10067909                0.54211212               -0.19780872               -0.19807773                0.65954168                0.00020510                0.08771396                0.00544293
               3.30046683                7.00321489               15.06154424                0.51601086               -0.12063766               -0.12067899                0.40209111               -0.00007819                0.10999893                0.00297255
               4.29964667                7.00459430               15.02256647                0.50251092               -0.04338726               -0.04335712                0.14459696               -0.00021609                0.12192561                0.00121610
               5.29959908                7.00595673               14.98365584                0.50043200                0.03385082                0.03397198               -0.11289741               -0.00022297                0.12438683               -0.00023811
               6.30032368                7.00730355               14.94472771                0.50940665                0.11106118                0.11131079               -0.37037799               -0.00013317                0.11775235               -0.00175324
               7.30182030                7.00863592               14.90569931                0.52977270                0.18824957                0.18866571               -0.62784356                0.00004454                0.10203571               -0.00371259
               8.30408867                7.00995467               14.86648626                0.56259369                0.26539032                0.26608836               -0.88528854                0.00026925                0.07695544               -0.00657306
               9.30712811                7.01125932               14.82700024                0.60974478                0.34246985                0.34363170               -1.14268634                0.00031813                0.04207893               -0.01086611
              10.31093807                7.01254696               14.78714833                0.82400674                0.38099589                0.42112347               -1.39997772                0.00096753                0.02011315               -0.01699338
               0.30573310                7.99544621               15.17922981                0.83010004               -0.31165555               -0.35188868                1.16852893               -0.00049490                0.01544027                0.01559582
               1.30261655                7.99765330               15.13925474                0.60078173               -0.27326561               -0.27365942                0.91115486                0.00043976                0.04758097                0.00795829
               2.30026779                7.99984600               15.09986346                0.54165423               -0.19628013               -0.19612201                0.65390455                0.00013114                0.09261074                0.00458003
               3.29869094                8.00201698               15.06074537                0.51577181               -0.11900948               -0.11896533                0.39656389               -0.00012801                0.11590954                0.00249525
               4.29788760                8.00416886               15.02179165                0.50245989               -0.04172573               -0.04174797                0.13920322               -0.00016730                0.12831056                0.00101220
               5.29785643                8.00630410               14.98290796                0.50054598                0.03546455                0.03550037               -0.11815033               -0.00011838                0.13085465               -0.00021843
               6.29859689                8.00842385               14.94400597                0.50967014                0.11263124                0.11275870               -0.37549208               -0.00004710                0.12393091               -0.00150380
               7.30010905                8.01052919               14.90499891                0.53017808                0.18982705                0.19001438               -0.63282903                0.00008998                0.10748272               -0.00318381
               8.30239343                8.01262174               14.86579728                0.56314320                0.26699768                0.26729376               -0.89016927                0.00033740                0.08109207               -0.00572788
               9.30544901                8.01470230               14.82630603                0.61045709                0.34401458                0.34487015               -1.14750936                0.00051792                0.04430659               -0.00994487
              10.30927372                8.01676617               14.78642678                0.82442240                0.38247160                0.42285182               -1.40481880                0.00115896                0.02127140               -0.01697257
               0.30313221                8.99193317               15.17839413                0.82944655               -0.31002083               -0.35108144                1.16286318               -0.00057136                0.01685533                0.01148315
               1.30003200                8.99492770               15.13838521                0.59988214               -0.27169293               -0.27130853                0.90543270                0.00010510                0.05159152                0.00428457
               2.29769835                8.99789465               15.09901318                0.54121551               -0.19452986               -0.19450617                0.64825372               -0.00019620                0.09983894                0.00257886
               3.29614141                9.00083559               15.05992667                0.51555372               -0.11710771               -0.11736137                0.39102704               -0.00027173                0.12396172                0.00139789
               4.29535620                9.00375934               15.02100954                0.50243036               -0.03998408               -0.04017276                0.13379672               -0.00014458                0.13668823                0.00056038
               5.29534172                9.00666674               14.98216456                0.50068169                0.03707263                0.03704523               -0.12342231               -0.00008291                0.13928015               -0.00013303
               6.29609765                9.00955873               14.94330055                0.50995562                0.11412429                0.11426500               -0.38063019               -0.00005048                0.13211223               -0.00085894
               7.29762421                9.01243621               14.90432761                0.53060503                0.19123313                0.19146982               -0.63783814               -0.00003021                0.11504610               -0.00182103
               8.29992231                9.01530054               14.86515170                0.56371150                0.26849138                0.26867089               -0.89506576                0.00014261                0.08734925               -0.00333219
               9.30299404                9.01815672               14.82566825                0.61118038                0.34555931                0.34594090               -1.15233564                0.00042639                0.04792851               -0.00604687
              10.30683350                9.02100400               14.78576155                0.82484042                0.38394625                0.42502375               -1.40965859                0.00115419                0.02316553               -0.01234533
               0.29973262                9.98842458               15.17745664                0.91451089               -0.30754507               -0.35085883                1.15729803                0.04029520                0.02183320                0.00969439
               1.29665717                9.99222713               15.13744144                0.79965195               -0.26883206               -0.27005699                0.89985124                0.03908105                0.05939449                0.00307014
               2.29435597                9.99595588               15.09812061                0.77047053               -0.19181747               -0.19387743                0.64273717                0.03789369                0.11041506                0.00222824
               3.29282082                9.99966976               15.05908386                0.75771193               -0.11512099               -0.11658306                0.38557786                0.03841735                0.13455772                0.00122796
               4.29205355               10.00336540               15.02021863                0.75121214               -0.03827142               -0.03939402                0.12841405                0.03849819                0.14741058                0.00043788
               5.29205539               10.00704501               14.98142621                0.75039277                0.03864320                0.03782673               -0.12873985                0.03855346                0.14999353               -0.00027326
               6.29282642               10.01070915               14.94261433                0.75508047                0.11556236                0.11504195               -0.38587959                0.03855570                0.14268836               -0.00100007
               7.29436663               10.01435859               14.90369177                0.76545378                0.19246748                0.19223839               -0.64301259                0.03854298                0.12531866               -0.00185637
               8.29667577               10.01799516               14.86456253                0.78205549                0.26937238                0.26946151               -0.90016102                0.03847181                0.09705359               -0.00303334
               9.29975408               10.02162112               14.82511856                0.80584198                0.34632429                0.34643955               -1.15736129                0.03957883                0.05541250               -0.00488430
              10.30360225               10.02526665               14.78521413                0.91256481                0.38481723                0.42626499               -1.41466959                0.04142850                0.02880613               -0.01046557
               0.33995446                0.02481297               16.19747389                0.92382535               -0.32043391               -0.36149829                1.19861364               -0.04121426                0.01767058               -0.00493742
               1.33675012                0.02080008               16.15508375                0.81615100               -0.28227248               -0.28194411                0.94372333               -0.03899860                0.04141502               -0.00507353
               2.33430901                0.01681396               16.11310757                0.78187097               -0.20608295               -0.20605851                0.68899391               -0.03796240                0.07629325               -0.00274496
               3.33262846                0.01281326               16.07136892                0.76290044               -0.12996908               -0.12956819                0.43430718               -0.03822735                0.09683187               -0.00170746
               4.33170963                0.00879797               16.02977250                0.75257769               -0.05375088               -0.05316651                0.17966452               -0.03827755                0.10788367               -0.00081246
               5.33155344                0.00476664               15.98823881                0.75048004                0.02251680                0.02324716               -0.07494332               -0.03831039                0.11048435               -0.00001597
               6.33215996                0.00071933               15.94669313                0.75645930                0.09877638                0.09965983               -0.32953437               -0.03830114                0.10497227                0.00073931
               7.33352897               -0.00334398               15.90506254                0.77062231                0.17499376                0.17606623               -0.58413528               -0.03828612                0.09139335                0.00149617
               8.33565984               -0.00742480               15.86327298                0.79333503                0.25119018                0.25254507               -0.83878056               -0.03817642                0.06951394                0.00229690
               9.33855278               -0.01152428               15.82124666                0.82523961                0.32730883                0.32867757               -1.09350920               -0.03915162                0.03870723                0.00314887
              10.34220602               -0.01567125               15.77889689                0.92550903                0.36532412                0.40805766               -1.34837451               -0.03926624                0.01902866                0.00451972
               0.34355521                1.02119799               16.19668296                0.83989863               -0.31955657               -0.36011352                1.19343464               -0.00104936                0.01488049               -0.00459919
               1.34035964                1.01798064               16.15427612                0.61805492               -0.28162033               -0.28143741                0.93853182               -0.00034519                0.03982242               -0.00584677
               2.33792280                1.01475338               16.11230758                0.55357353               -0.20527294               -0.20513666                0.68379436               -0.00019590                0.07518938               -0.00366964
               3.33625418                1.01151757               16.07056290                0.52135869               -0.12863195               -0.12875490                0.42910379               -0.00015002                0.09489615               -0.00231828
               4.33535016                1.00826631               16.02895846                0.50400128               -0.05222610               -0.05236281                0.17446361               -0.00028180                0.10574990               -0.00123673
               5.33520966                1.00499911               15.98741549                0.50048114                0.02410518                0.02404471               -0.08013952               -0.00034382                0.10825433               -0.00030162
               6.33583226                1.00171593               15.94586013                0.51044909                0.10042579                0.10045627               -0.33473177               -0.00034381                0.10274839                0.00054917
               7.33721818                0.99841668               15.90422017                0.53415945                0.17679802                0.17686802               -0.58934692               -0.00030151                0.08925591                0.00136423
               8.33936822                0.99510065               15.86242216                0.57248286                0.25331550                0.25330904               -0.84402178               -0.00042922                0.06749697                0.00218364
               9.34228449                0.99176249               15.82038834                0.62696224                0.32960492                0.32985321               -1.09879068               -0.00042573                0.03700440                0.00303890
              10.34596032                0.98840933               15.77803617                0.83556575                0.36758377                0.40820016               -1.35366732                0.00076261                0.01757299                0.00404753
               0.34636817                2.01761070               16.19582951                0.83198139               -0.31803363               -0.35774937                1.18844246               -0.00113372                0.01228011               -0.00399932
               1.34318783                2.01517134               16.15339968                0.60360343               -0.28000036               -0.28038520                0.93357517               -0.00065824                0.03935175               -0.00527189
               2.34076816                2.01271123               16.11145049                0.54333472               -0.20376513               -0.20360796                0.67885948               -0.00065267                0.07663252               -0.00408536
               3.33911253                2.01023816               16.06972071                0.51689088               -0.12728529               -0.12719872                0.42409497               -0.00057392                0.09589638               -0.00270774
               4.33822246                2.00775072               16.02812648                0.50284524               -0.05077926               -0.05078085                0.16934177               -0.00063506                0.10640279               -0.00148798
               5.33809694                2.00524753               15.98659140                0.50001768                0.02565327                0.02565347               -0.08539219               -0.00070777                0.10872154               -0.00038486
               6.33873552                2.00272846               15.94504264                0.50801526                0.10206379                0.10209872               -0.34011840               -0.00072250                0.10311723                0.00060497
               7.34013822                2.00019338               15.90340890                0.52713098                0.17849601                0.17855782               -0.59485767               -0.00073558                0.08959115                0.00147866
               8.34230544                1.99764138               15.86161732                0.55836098                0.25486843                0.25507487               -0.84963131               -0.00078894                0.06784516                0.00222549
               9.34523559                1.99507278               15.81959071                0.60348492                0.33110824                0.33197707               -1.10445039               -0.00071174                0.03728597                0.00282327
              10.34892761                1.99249275               15.77724448                0.82011581                0.36920172                0.40903421               -1.35930162                0.00037302                0.01774902                0.00311542
               0.34841127                3.01404300               16.19498088                0.83138049               -0.31653154               -0.35594735                1.18349402               -0.00099984                0.01263345                0.00068774
               1.34524595                3.01237294               16.15254972                0.60275405               -0.27841714               -0.27916826                0.92866783               -0.00057863                0.03991796               -0.00068688
               2.34284292                3.01068122               16.11060314                0.54287612               -0.20213686               -0.20236354                0.67392133               -0.00083027                0.07774742               -0.00119024
               3.34120321                3.00897360               16.06888269                0.51662290               -0.12574202               -0.12575431                0.41907709               -0.00079837                0.09737448               -0.00104526
               4.34032808                3.00725069               16.02729806                0.50274183               -0.04927260               -0.04923536                0.16420678               -0.00081606                0.10786492               -0.00066920
               5.34021776                3.00551218               15.98577187                0.50007106                0.02719438                0.02727570               -0.09066108               -0.00085261                0.11009172               -0.00025178
               6.34087197                3.00375791               15.94423101                0.50823103                0.10363887                0.10379816               -0.34552351               -0.00087182                0.10435097                0.00008152
               7.34229054                3.00198784               15.90260381                0.52751718                0.18005349                0.18035381               -0.60038848               -0.00087151                0.09063884                0.00021648
               8.34447304                3.00020215               15.86081700                0.55891724                0.25641712                0.25701312               -0.85526170               -0.00082748                0.06863611                0.00004290
               9.34741888                2.99840204               15.81879257                0.60419034                0.33274017                0.33380300               -1.11013375               -0.00055655                0.03772317               -0.00055839
              10.35112784                2.99659001               15.77644495                0.82050984                0.37089623                0.41051893               -1.36497110                0.00053151                0.01795541               -0.00170057
               0.34968830                4.01049176               16.19415098                0.83080601               -0.31502542               -0.35434439                1.17850088               -0.00091444                0.01289765                0.00579192
               1.34653805                4.00958797               16.15171011                0.60195303               -0.27687026               -0.27776857                0.92370341               -0.00040622                0.04071000                0.00295609
               2.34415089                4.00866396               16.10976418                0.54245075               -0.20054790               -0.20101642                0.66892421               -0.00069072                0.07930508                0.00143733
               3.34252709                4.00772307               16.06804916                0.51636990               -0.12416709               -0.12432085                0.41401017               -0.00076794                0.09933824                0.00055502
               4.34166755                4.00676601               16.02647319                0.50264867               -0.04772055               -0.04769954                0.15904569               -0.00081324                0.11003412                0.00010186
               5.34157268                4.00579305               15.98495656                0.50013490                0.02874383                0.02888841               -0.09592872               -0.00083991                0.11225917               -0.00018257
               6.34224243                4.00480442               15.94342450                0.50845661                0.10519342                0.10548359               -0.35089947               -0.00083094                0.10635395               -0.00052843
               7.34367655                4.00380045               15.90180393                0.52791614                0.18161311                0.18212000               -0.60586480               -0.00077552                0.09232795               -0.00114672
               8.34587469                4.00278165               15.86002017                0.55950766                0.25800266                0.25881496               -0.86081849               -0.00064116                0.06986918               -0.00223422
               9.34883660                4.00174884               15.81799392                0.60499552                0.33437977                0.33552358               -1.11573550               -0.00037828                0.03837533               -0.00396309
              10.35256229                4.00070313               15.77563856                0.82098507                0.37256885                0.41211895               -1.37056326                0.00062811                0.01826554               -0.00645809
               0.35020055                5.00695612               16.19333385                0.83022056               -0.31349229               -0.35278755                1.17339882               -0.00084661                0.01327179                0.01021046
               1.34706563                5.00681757               16.15087718                0.60113653               -0.27532704               -0.27626633                0.91861201               -0.00020217                0.04175225                0.00605885
               2.34469401                5.00666089               16.10892887                0.54202119               -0.19899117               -0.19952665                0.66381444               -0.00041420                0.08134984                0.00355128
               3.34308580                5.00648718               16.06721819                0.51612050               -0.12260829               -0.12280478                0.40886263               -0.00055960                0.10193553                0.00186320
               4.34224184                5.00629670               16.02565101                0.50256421               -0.04616256               -0.04614453                0.15384788               -0.00066041                0.11294276                0.00072374
               5.34216255                5.00608995               15.98414513                0.50020873                0.03030523                0.03047876               -0.10118338               -0.00069316                0.11522233               -0.00016491
               6.34284795                5.00586758               15.94262321                0.50868926                0.10676270                0.10710654               -0.35621246               -0.00064989                0.10911881               -0.00110693
               7.34429781                5.00563024               15.90100974                0.52831542                0.18319410                0.18377098               -0.61123258               -0.00053543                0.09465774               -0.00239728
               8.34651183                5.00537845               15.85922782                0.56008886                0.25960130                0.26047512               -0.86623121               -0.00036819                0.07155307               -0.00431516
               9.34948983                5.00511251               15.81719624                0.60578161                0.33600004                0.33716393               -1.12117464               -0.00017971                0.03925249               -0.00709822
              10.35323183                5.00483239               15.77482712                0.82144836                0.37419984                0.41372195               -1.37599983                0.00071820                0.01869160               -0.01089684
               0.34994846                6.00343601               16.19252159                0.82961997               -0.31192338               -0.35124015                1.16815857               -0.00077085                0.01376770                0.01363363
               1.34682923                6.00406264               16.15004331                0.60029895               -0.27377340               -0.27466890                0.91336139                0.00002191                0.04312564                0.00820993
               2.34447300                6.00467342               16.10809130                0.54158553               -0.19745728               -0.19789223                0.65856734               -0.00011021                0.08404121                0.00492671
               3.34288008                6.00526698               16.06638573                0.51587481               -0.12107086               -0.12118395                0.40361961               -0.00032464                0.10534389                0.00267735
               4.34205158                6.00584312               16.02482956                0.50248940               -0.04460741               -0.04455503                0.14860826               -0.00047770                0.11676076                0.00109972
               5.34198794                6.00640262               15.98333734                0.50029339                0.03187834                0.03204262               -0.10642105               -0.00051348                0.11912503               -0.00017577
               6.34268915                6.00694655               15.94182844                0.50892910                0.10835144                0.10864874               -0.36144968               -0.00043751                0.11277888               -0.00150887
               7.34415496                6.00747587               15.90022406                0.52871364                0.18479558                0.18529229               -0.61647058               -0.00027007                0.09775394               -0.00326265
               8.34638506                6.00799115               15.85844414                0.56065727                0.26120505                0.26199202               -0.87147106               -0.00007289                0.07379147               -0.00581018
               9.34937907                6.00849212               15.81640473                0.60654250                0.33759155                0.33871127               -1.12641756                0.00003731                0.04041316               -0.00949412
              10.35313689                6.00897757               15.77401628                0.82189596                0.37578222                0.41530878               -1.38124771                0.00081957                0.01926559               -0.01453721
               0.34893185                6.99993131               16.19170240                0.82900499               -0.31032088               -0.34974844                1.16278654               -0.00066430                0.01444758                0.01558189
               1.34582865                7.00132419               16.14919723                0.59944258               -0.27221914               -0.27295242                0.90796172                0.00024873                0.04499508                0.00895725
               2.34348747                7.00270304               16.10724278                0.54114670               -0.19595153               -0.19610426                0.65319295                0.00009924                0.08767099                0.00525545
               3.34190962                7.00406350               16.06554617                0.51563570               -0.11954152               -0.11948501                0.39828865               -0.00021856                0.10987452                0.00284554
               4.34109664                7.00540560               16.02400616                0.50242669               -0.04303835               -0.04295282                0.14332934               -0.00037937                0.12178108                0.00117538
               5.34104885                7.00673080               15.98253318                0.50039117                0.03346530                0.03358300               -0.11164580               -0.00039395                0.12424342               -0.00018217
               6.34176595                7.00804055               15.94104276                0.50917859                0.10994804                0.11013237               -0.36662187               -0.00029582                0.11761139               -0.00160302
               7.34324781                7.00933608               15.89945216                0.52911368                0.18640882                0.18670835               -0.62159496               -0.00009478                0.10189568               -0.00348217
               8.34549412                7.01061829               15.85767704                0.56121592                0.26281738                0.26336710               -0.87655751                0.00016628                0.07682823               -0.00628953
               9.34850416                7.01188673               15.81562935                0.60728094                0.33916001                0.34016348               -1.13148450                0.00026361                0.04200208               -0.01057277
              10.35227732                7.01313856               15.77321672                0.82232903                0.37731675                0.41692583               -1.38632501                0.00094952                0.02006408               -0.01675255
               0.34714942                7.99644104               16.19085920                0.82838114               -0.30869499               -0.34847578                1.15732432               -0.00049134                0.01544318                0.01542560
               1.34406247                7.99860360               16.14832298                0.59857789               -0.27068785               -0.27100645                0.90246338                0.00037467                0.04766759                0.00768189
               2.34173567                8.00075134               16.10637182                0.54071314               -0.19446581               -0.19422426                0.64773553               -0.00000427                0.09273717                0.00433177
               3.34017316                8.00287728               16.06469282                0.51540907               -0.11794865               -0.11782702                0.39290019               -0.00030824                0.11599442                0.00232750
               4.33937669                8.00498406               16.02317786                0.50238006               -0.04140267               -0.04137300                0.13802220               -0.00037557                0.12839338                0.00095402
               5.33934510                8.00707428               15.98173289                0.50050571                0.03506278                0.03511193               -0.11686841               -0.00033471                0.13094157               -0.00015628
               6.34007795                8.00914920               15.94026965                0.50944266                0.11151138                0.11161039               -0.37176134               -0.00025123                0.12401164               -0.00132479
               7.34157533                8.01121004               15.89870137                0.52952304                0.18798914                0.18811269               -0.62665670               -0.00008311                0.10754214               -0.00290437
               8.34383773                8.01325849               15.85693847                0.56177510                0.26443664                0.26464661               -0.88155489                0.00021148                0.08112222               -0.00537974
               9.34686406                8.01529539               15.81488601                0.60800874                0.34072413                0.34148162               -1.13644582                0.00045181                0.04431982               -0.00958044
              10.35065221                8.01731609               15.77244590                0.82275369                0.37881502                0.41871863               -1.39129832                0.00113803                0.02126074               -0.01666965
               0.34459691                8.99296180               16.18996795                0.82775886               -0.30710725               -0.34772975                1.15184400               -0.00056285                0.01687715                0.01135943
               1.34152584                8.99590406               16.14739745                0.59772437               -0.26916018               -0.26874196                0.89694713                0.00006063                0.05176661                0.00407648
               2.33921371                8.99881856               16.10546610                0.54029861               -0.19275552               -0.19268274                0.64226777               -0.00028938                0.10013636                0.00239569
               3.33767073                9.00170696               16.06381956                0.51520322               -0.11607915               -0.11627955                0.38750396               -0.00039776                0.12424859                0.00127463
               4.33689212                9.00457814               16.02234218                0.50235487               -0.03968551               -0.03982901                0.13270565               -0.00029044                0.13698473                0.00051635
               5.33687702                9.00743304               15.98093692                0.50064183                0.03665217                0.03665429               -0.12210356               -0.00023387                0.13958312               -0.00009121
               6.33762517                9.01027276               15.93951268                0.50972828                0.11299203                0.11314242               -0.37691538               -0.00019254                0.13240556               -0.00073407
               7.33913686                9.01309834               15.89797949                0.52995309                0.18939185                0.18961794               -0.63173175               -0.00014961                0.11530495               -0.00162456
               8.34141300                9.01591122               15.85624318                0.56235199                0.26593699                0.26609032               -0.88655985                0.00005713                0.08754504               -0.00308641
               9.34445560                9.01871636               15.81419906                0.60874674                0.34228450                0.34262835               -1.14140649                0.00038189                0.04803961               -0.00578938
              10.34825869                9.02151294               15.77173139                0.82318048                0.38030965                0.42095027               -1.39626921                0.00113963                0.02319727               -0.01214015
               0.34125364                9.98948644               16.18897565                0.91367608               -0.30467142               -0.34753555                1.14642155                0.03990437                0.02188829                0.00964824
               1.33820692                9.99322876               16.14639875                0.79858616               -0.26633312               -0.26753043                0.89151389                0.03867082                0.05964850                0.00296568
               2.33592698                9.99689768               16.10451912                0.77001884               -0.19006516               -0.19208746                0.63687990                0.03747343                0.11082419                0.00214097
               3.33440562               10.00055169               16.06292285                0.75754010               -0.11410843               -0.11552780                0.38215912                0.03797934                0.13495236                0.00117117
               4.33364481               10.00418748               16.02149786                0.75117558               -0.03799079               -0.03906570                0.12740255                0.03805264                0.14781141                0.00042012
               5.33364581               10.00780737               15.98014566                0.75037275                0.03819978                0.03743292               -0.12736586                0.03810717                0.15040246               -0.00025003
               6.33440880               10.01141205               15.93877406                0.75496624                0.11440359                0.11392882               -0.38213463                0.03811513                0.14309631               -0.00093808
               7.33593388               10.01500240               15.89729183                0.76512754                0.19060210                0.19040637               -0.63690306                0.03811438                0.12570300               -0.00176179
               8.33822084               10.01858030               15.85560281                0.78137641                0.26680552                0.26690739               -0.89167963                0.03806206                0.09737680               -0.00291787
               9.34126999               10.02214796               15.81359871                0.80462700                0.34305087                0.34315929               -1.14647964                0.03917880                0.05562102               -0.00476775
              10.34508186               10.02573509               15.77113343                0.91173604                0.38118749                0.42221548               -1.40133225                0.04103030                0.02889870               -0.01039247
               0.38379605                0.02558087               17.20940285                0.92281544               -0.31736418               -0.35801344                1.18710528               -0.04080054                0.01772753               -0.00486880
               1.38062241                0.02158343               17.16447642                0.81477162               -0.27957599               -0.27925333                0.93473639               -0.03859453                0.04158701               -0.00499696
               2.37820453                0.01761296               17.11996540                0.78119963               -0.20413737               -0.20410839                0.68250588               -0.03755469                0.07658595               -0.00266985
               3.37653966                0.01362854               17.07569216                0.76262793               -0.12877695               -0.12835636                0.43029095               -0.03780664                0.09718280               -0.00165442
               4.37562899                0.00963002               17.03156143                0.75251532               -0.05330673               -0.05268650                0.17809485               -0.03785089                0.10828568               -0.00078993
               5.37547352                0.00561572               16.98749369                0.75045844                0.02222099                0.02299886               -0.07408508               -0.03788329                0.11091992               -0.00002624
               6.37607341                0.00158546               16.94341405                0.75631630                0.09775004                0.09868440               -0.32626000               -0.03787904                0.10541366                0.00069769
               7.37742853               -0.00246102               16.89924938                0.77019173                0.17324645                0.17436241               -0.57844833               -0.03787373                0.09180317                0.00142794
               8.37953834               -0.00652533               16.85492535                0.79243509                0.24872840                0.25010819               -0.83067321               -0.03777817                0.06984752                0.00221032
               9.38240309               -0.01060865               16.81036387                0.82366002                0.32413127                0.32550391               -1.08295859               -0.03875649                0.03891067                0.00305522
              10.38602096               -0.01473929               16.76547781                0.92444160                0.36178706                0.40410344               -1.33533877               -0.03887154                0.01912089                0.00445539
               0.38738548                1.02200073               17.20856026                0.83800373               -0.31650674               -0.35662300                1.18196088               -0.00102634                0.01490498               -0.00441760
               1.38422041                1.01879090               17.16361700                0.61553627               -0.27895284               -0.27873816                0.92958114               -0.00029268                0.03996618               -0.00563326
               2.38180643                1.01557188               17.11911359                0.55241014               -0.20336762               -0.20318002                0.67734913               -0.00008790                0.07547019               -0.00344954
               3.38015306                1.01234498               17.07483429                0.52089158               -0.12747666               -0.12753967                0.42512999                0.00000008                0.09525000               -0.00215771
               4.37925689                1.00910316               17.03069557                0.50389439               -0.05180439               -0.05188621                0.17293394               -0.00010546                0.10616486               -0.00116636
               5.37911697                1.00584571               16.98661858                0.50044439                0.02380492                0.02378478               -0.07924444               -0.00016154                0.10870028               -0.00033392
               6.37973299                1.00257230               16.94252925                0.51020870                0.09941057                0.09946124               -0.33142209               -0.00017595                0.10318362                0.00041607
               7.38110519                0.99928260               16.89835510                0.53343153                0.17506896                0.17513843               -0.58362263               -0.00016599                0.08963375                0.00114484
               8.38323437                0.99597575               16.85402236                0.57094627                0.25086613                0.25084357               -0.83587107               -0.00033672                0.06777267                0.00190459
               9.38612251                0.99264639               16.80945303                0.62422745                0.32642634                0.32664624               -1.08818853               -0.00037968                0.03714824                0.00273939
              10.38976290                0.98930174               16.76456448                0.83370597                0.36403883                0.40421948               -1.34057797                0.00077323                0.01761710                0.00378931
               0.39019520                2.01844841               17.20765664                0.83020895               -0.31497885               -0.35424423                1.17694127               -0.00110357                0.01229453               -0.00370277
               1.38704541                2.01600867               17.16269068                0.60132039               -0.27732548               -0.27765749                0.92458260               -0.00056306                0.03947180               -0.00491375
               2.38464869                2.01354936               17.11820687                0.54234751               -0.20185141               -0.20163102                0.67237876               -0.00045705                0.07683133               -0.00373879
               3.38300838                2.01107775               17.07394189                0.51649978               -0.12612684               -0.12597375                0.42011081               -0.00031194                0.09609795               -0.00245615
               4.38212615                2.00859230               17.02981247                0.50275528               -0.05036153               -0.05031087                0.16783604               -0.00033110                0.10663421               -0.00138023
               5.38200115                2.00609142               16.98574229                0.49998625                0.02534234                0.02536769               -0.08443462               -0.00039400                0.10897163               -0.00044194
               6.38263300                2.00357468               16.94165846                0.50781741                0.10103064                0.10105898               -0.33670782               -0.00043191                0.10335933                0.00038530
               7.38402176                2.00104175               16.89748950                0.52653004                0.17674085                0.17676802               -0.58899836               -0.00049654                0.08979443                0.00111918
               8.38616781                1.99849154               16.85316237                0.55707791                0.25238720                0.25253891               -0.84132036               -0.00062129                0.06798593                0.00176878
               9.38906951                1.99592428               16.80859981                0.60116265                0.32789595                0.32869216               -1.09367718               -0.00062641                0.03736039                0.00233301
              10.39272573                1.99334510               16.76371741                0.81852509                0.36562270                0.40498936               -1.34604877                0.00039516                0.01776897                0.00267556
               0.39224289                3.01491585               17.20675821                0.82960900               -0.31346945               -0.35242519                1.17195001               -0.00096678                0.01263641                0.00099588
               1.38910820                3.01323775               17.16179124                0.60047161               -0.27573469               -0.27640224                0.91961903               -0.00047645                0.03998614               -0.00032139
               2.38672820                3.01153926               17.11730982                0.54188959               -0.20021573               -0.20035896                0.66739785               -0.00062766                0.07783400               -0.00086593
               3.38510388                3.00982550               17.07305355                0.51623255               -0.12457987               -0.12451704                0.41507921               -0.00053626                0.09741642               -0.00081568
               4.38423660                3.00809694               17.02893279                0.50265199               -0.04885874               -0.04877199                0.16272546               -0.00051729                0.10790600               -0.00057346
               5.38412671                3.00635306               16.98487043                0.50003709                0.02687092                0.02696220               -0.08963755               -0.00054567                0.11014012               -0.00030754
               6.38477402                3.00459348               16.94079338                0.50802544                0.10258462                0.10270979               -0.34200590               -0.00058590                0.10439605               -0.00012389
               7.38617840                3.00281796               16.89662993                0.52690080                0.17826959                0.17849694               -0.59438501               -0.00063234                0.09066621               -0.00011908
               8.38833941                3.00102653               16.85230674                0.55760936                0.25390091                0.25439595               -0.84677752               -0.00065524                0.06864125               -0.00038565
               9.39125642                2.99922024               16.80774593                0.60183414                0.32948760                0.33043258               -1.09917174               -0.00046693                0.03772170               -0.00102393
              10.39492916                2.99740153               16.76286225                0.81889980                0.36727445                0.40640113               -1.35153381                0.00055504                0.01794182               -0.00212851
               0.39353207                4.01139990               17.20587818                0.82903670               -0.31195959               -0.35081193                1.16693176               -0.00088492                0.01288735                0.00604233
               1.39041247                4.01048062               17.16090172                0.59967282               -0.27418454               -0.27497525                0.91461919               -0.00032392                0.04073134                0.00323914
               2.38804838                4.00954218               17.11642070                0.54146564               -0.19862498               -0.19899139                0.66237764               -0.00052984                0.07929676                0.00168255
               3.38643997                4.00858741               17.07216930                0.51598103               -0.12300650               -0.12307608                0.41001298               -0.00056367                0.09925196                0.00072570
               4.38558825                4.00761686               17.02805644                0.50255926               -0.04731379               -0.04724413                0.15759509               -0.00058350                0.10992585                0.00017379
               5.38549369                4.00663066               16.98400276                0.50009862                0.02840669                0.02855039               -0.09484219               -0.00060528                0.11214976               -0.00022071
               6.38615638                4.00562888               16.93993364                0.50824388                0.10411893                0.10435432               -0.34728705               -0.00061222                0.10624488               -0.00067533
               7.38757607                4.00461169               16.89577598                0.52728554                0.17980288                0.18020746               -0.59973742               -0.00059150                0.09221727               -0.00138928
               8.38975244                4.00357946               16.85145518                0.55817630                0.25545458                0.25613143               -0.85218700               -0.00050768                0.06976670               -0.00254723
               9.39268516                4.00253293               16.80689218                0.60260492                0.33109070                0.33208431               -1.10461295               -0.00030843                0.03831303               -0.00430800
              10.39637425                4.00147312               16.76200083                0.81935443                0.36890859                0.40794193               -1.35696861                0.00064610                0.01822475               -0.00678165
               0.39406376                5.00789961               17.20501005                0.82845877               -0.31043187               -0.34925881                1.16184267               -0.00082452                0.01325492                0.01035944
               1.39095944                5.00773824               17.16001788                0.59886674               -0.27264727               -0.27346859                0.90953708               -0.00015680                0.04175110                0.00620642
               2.38861082                5.00755943               17.11553433                0.54104186               -0.19707544               -0.19749996                0.65728371               -0.00032686                0.08129551                0.00367594
               3.38701793                5.00736398               17.07128697                0.51573521               -0.12145674               -0.12156427                0.40489291               -0.00045032                0.10178634                0.00195025
               4.38618168                5.00715206               17.02718248                0.50247602               -0.04576744               -0.04570049                0.15243872               -0.00053934                0.11276080                0.00076367
               5.38610258                5.00692407               16.98313907                0.50017063                0.02995351                0.03012203               -0.10004080               -0.00057099                0.11503436               -0.00017657
               6.38678075                5.00668057               16.93907958                0.50847080                0.10567060                0.10595139               -0.35252966               -0.00053708                0.10893213               -0.00116974
               7.38821600                5.00642211               16.89492856                0.52767401                0.18136324                0.18182612               -0.60502146               -0.00044136                0.09447677               -0.00250601
               8.39040802                5.00614915               16.85060922                0.55874023                0.25702961                0.25775471               -0.85750475               -0.00030071                0.07139525               -0.00445966
               9.39335659                5.00586192               16.80604066                0.60336592                0.33268472                0.33368686               -1.10995033               -0.00014472                0.03915883               -0.00726304
              10.39706171                5.00556037               16.76113558                0.81980263                0.37051213                0.40951201               -1.36230449                0.00072528                0.01863640               -0.01106141
               0.39383831                6.00441473               17.20414570                0.82787225               -0.30887993               -0.34773215                1.15666234               -0.00075704                0.01375326                0.01366950
               1.39074951                6.00501125               17.15913184                0.59804957               -0.27111087               -0.27189440                0.90435041                0.00002710                0.04313394                0.00821024
               2.38841610                6.00559218               17.11464462                0.54061723               -0.19555898               -0.19588761                0.65209952               -0.00010215                0.08400318                0.00492264
               3.38683833                6.00615612               17.07040239                0.51549560               -0.11993631               -0.11996319                0.39970945               -0.00031638                0.10521144                0.00267638
               4.38601737                6.00670285               17.02630891                0.50240329               -0.04422850               -0.04412734                0.14725344               -0.00047082                0.11659462                0.00110592
               5.38595376                6.00723310               16.98227914                0.50025412                0.03151130                0.03167360               -0.10523038               -0.00050892                0.11895107               -0.00016113
               6.38664760                6.00774791               16.93823263                0.50870668                0.10724485                0.10748543               -0.35772512               -0.00043569                0.11260404               -0.00148647
               7.38809866                6.00824821               16.89409066                0.52806563                0.18295085                0.18334287               -0.61022310               -0.00027102                0.09758248               -0.00323484
               8.39030661                6.00873455               16.84977327                0.55929902                0.25861981                0.25926949               -0.86271189               -0.00007582                0.07364070               -0.00578147
               9.39327106                6.00920667               16.80519685                0.60411324                0.33426277                0.33523290               -1.11516186                0.00003474                0.04032374               -0.00947247
              10.39699187                6.00966336               16.76027239                0.82024192                0.37208106                0.41109622               -1.36751972                0.00081465                0.01921170               -0.01453600
               0.39285558                7.00094497               17.20327337                0.82727735               -0.30730484               -0.34627770                1.15139435               -0.00065664                0.01444335                0.01552559
               1.38978253                7.00230035               17.15823241                0.59722268               -0.26958393               -0.27022641                0.89906488                0.00022399                0.04504167                0.00884141
               2.38746390                7.00364168               17.11374295                0.54019415               -0.19407949               -0.19414366                0.64683115                0.00004836                0.08770568                0.00515051
               3.38590094                7.00496472               17.06951001                0.51526482               -0.11843061               -0.11829856                0.39446746               -0.00028543                0.10982988                0.00277579
               4.38509529                7.00626951               17.02543306                0.50234347               -0.04267948               -0.04254663                0.14204118               -0.00045737                0.12170943                0.00115429
               5.38504735                7.00755754               16.98142292                0.50035131                0.03308217                0.03320667               -0.11041303               -0.00047656                0.12416430               -0.00014976
               6.38575693                7.00883028               16.93739527                0.50895380                0.10882925                0.10897590               -0.36287964               -0.00037602                0.11752684               -0.00151889
               7.38722393                7.01008897               16.89326741                0.52846280                0.18455558                0.18477830               -0.61535195               -0.00016569                0.10180462               -0.00335405
               8.38944804                7.01133454               16.84895511                0.55985491                0.26022702                0.26067283               -0.86782009                0.00011151                0.07674061               -0.00613260
               9.39242847                7.01256658               16.80437055                0.60484848                0.33582896                0.33671581               -1.12025973                0.00023326                0.04194915               -0.01041270
              10.39616462                7.01378229               16.75942183                0.82067291                0.37361456                0.41273742               -1.37262538                0.00093563                0.02002588               -0.01662830
               0.39111441                7.99748917               17.20237630                0.82667727               -0.30571253               -0.34505317                1.14606515               -0.00048635                0.01545307                0.01532901
               1.38805728                7.99960672               17.15730401                0.59639289               -0.26808557               -0.26834488                0.89371213                0.00033952                0.04776985                0.00751658
               2.38575270                8.00170931               17.11281817                0.53977911               -0.19262461               -0.19232095                0.64150660               -0.00007478                0.09287895                0.00418531
               3.38420479                8.00379015               17.06860337                0.51504782               -0.11686495               -0.11668351                0.38918645               -0.00040139                0.11607936                0.00222950
               4.38341540                8.00585192               17.02455209                0.50230023               -0.04106617               -0.04099203                0.13680935               -0.00048362                0.12846086                0.00092028
               5.38338347                8.00789724               16.98057059                0.50046560                0.03466252                0.03473012               -0.11559493               -0.00044798                0.13100290               -0.00012034
               6.38410865                8.00992743               16.93657074                0.50921635                0.11038071                0.11046801               -0.36801277               -0.00035962                0.12406285               -0.00122149
               7.38559108                8.01194378               16.89246578                0.52887128                0.18612920                0.18621401               -0.62043919               -0.00017712                0.10757454               -0.00274312
               8.38783123                8.01394801               16.84816618                0.56041511                0.26184469                0.26199687               -0.87286889                0.00014048                0.08113344               -0.00517910
               9.39082798                8.01594098               16.80357712                0.60557903                0.33739636                0.33808284               -1.12528731                0.00041228                0.04432430               -0.00937282
              10.39457916                8.01791811               16.75860081                0.82109906                0.37511842                0.41456891               -1.37766264                0.00112041                0.02124775               -0.01650606
               0.38861075                8.99404390               17.20143101                0.82607850               -0.30415724               -0.34435229                1.14071909               -0.00055592                0.01689922                0.01129084
               1.38556918                8.99693346               17.15632415                0.59557365               -0.26658917               -0.26614457                0.88834111                0.00003687                0.05192684                0.00395049
               2.38327897                8.99979526               17.11185853                0.53938263               -0.19094397               -0.19083308                0.63617082               -0.00033715                0.10038857                0.00228724
               3.38175030                9.00263105               17.06767675                0.51485136               -0.11502203               -0.11517794                0.38389721               -0.00046254                0.12446044                0.00120212
               4.38097853                9.00544967               17.02366366                0.50227833               -0.03937107               -0.03947397                0.13156993               -0.00036646                0.13718505                0.00049034
               5.38096288                9.00825215               16.97972248                0.50060137                0.03623330                0.03626455               -0.12078428               -0.00031338                0.13977862               -0.00006736
               6.38170320                9.01103964               16.93576224                0.50950004                0.11184647                0.11200993               -0.37315235               -0.00026832                0.13258963               -0.00066216
               7.38319981                9.01381325               16.89169297                0.52929962                0.18752225                0.18774466               -0.62552988               -0.00021437                0.11546356               -0.00151120
               8.38545364                9.01657448               16.84742050                0.56099178                0.26334041                0.26347733               -0.87791556                0.00000903                0.08766295               -0.00294476
               9.38846662                9.01932824               16.80284012                0.60631831                0.33895696                0.33927425               -1.13030618                0.00035473                0.04810831               -0.00564294
              10.39223278                9.02207367               16.75783617                0.82152664                0.37661619                0.41683125               -1.38269087                0.00112468                0.02321353               -0.01203305
               0.38532419                9.99060213               17.20038507                0.91284266               -0.30175209               -0.34417758                1.13539598                0.03951339                0.02193566                0.00963104
               1.38230667                9.99428383               17.15527172                0.79752056               -0.26379129               -0.26496257                0.88301040                0.03827438                0.05986484                0.00290499
               2.38004836                9.99789265               17.11085821                0.76956596               -0.18827692               -0.19026102                0.63087646                0.03707713                0.11115401                0.00209253
               3.37854113               10.00148659               17.06672704                0.75736684               -0.11306943               -0.11444553                0.37863405                0.03757194                0.13523689                0.00113989
               4.37778697               10.00506244               17.02276668                0.75113825               -0.03769468               -0.03872333                0.12633656                0.03764076                0.14808198                0.00041056
               5.37778723               10.00862253               16.97887889                0.75035226                0.03776028                0.03703802               -0.12598863                0.03769450                0.15066959               -0.00023712
               6.37854218               10.01216762               16.93497163                0.75485109                0.11323592                0.11279859               -0.37832618                0.03770520                0.14335815               -0.00090421
               7.38005195               10.01569867               16.89095371                0.76479934                0.18871245                0.18854177               -0.63066983                0.03771055                0.12594725               -0.00171061
               8.38231643               10.01921755               16.84672894                0.78069470                0.26419651                0.26430720               -0.88301899                0.03766851                0.09758306               -0.00285639
               9.38533588               10.02272647               16.80218896                0.80341105                0.33971817                0.33982314               -1.13537574                0.03878529                0.05575954               -0.00470841
              10.38911079               10.02625473               16.75718748                0.91090812                0.37749076                0.41810632               -1.38775305                0.04062726                0.02896238               -0.01036788
               0.43016188                0.02640079               18.22121599                0.92180718               -0.31425655               -0.35449412                1.17546215               -0.04038773                0.01778155               -0.00482486
               1.42701931                0.02241897               18.17377847                0.81339314               -0.27684458               -0.27652558                0.92561730               -0.03819758                0.04174184               -0.00494630
               2.42462499                0.01846419               18.12675769                0.78052727               -0.20216151               -0.20212750                0.67590198               -0.03715966                0.07683894               -0.00261440
               3.42297608                0.01449591               18.07997474                0.76235394               -0.12755876               -0.12712251                0.42618707               -0.03740272                0.09746947               -0.00161428
               4.42207381                0.01051390               18.03333439                0.75245208               -0.05284270               -0.05219553                0.17647487               -0.03744287                0.10860275               -0.00077119
               5.42191923                0.00651634               17.98675711                0.75043645                0.02193687                0.02274912               -0.07323429               -0.03747469                0.11125633               -0.00003051
               6.42251255                0.00250289               17.94016793                0.75617278                0.09672497                0.09769471               -0.32294746               -0.03747343                0.10574909                0.00067127
               7.42385373               -0.00152686               17.89349357                0.76975998                0.17148748                0.17263201               -0.57267739               -0.03747408                0.09211013                0.00138226
               8.42594230               -0.00557461               17.84665952                0.79153351                0.24623997                0.24763387               -0.82243926               -0.03738752                0.07009491                0.00215063
               9.42877853               -0.00964150               17.79958749                0.82208012                0.32091226                0.32228455               -1.07224682               -0.03836362                0.03906197                0.00298892
              10.43236054               -0.01375548               17.75219011                0.92337514                0.35820162                0.40009955               -1.32212173               -0.03847614                0.01918939                0.00441240
               0.43373981                1.02285584               18.22032218                0.83611542               -0.31341788               -0.35310461                1.17036798               -0.00100704                0.01493139               -0.00429180
               1.43060564                1.01965372               18.17286774                0.61302469               -0.27624470               -0.27600728                0.92051314               -0.00025999                0.04010016               -0.00548691
               2.42821492                1.01644291               18.12585456                0.55124790               -0.20142183               -0.20119868                0.67079853               -0.00002212                0.07571365               -0.00328939
               3.42657720                1.01322469               18.07906550                0.52042310               -0.12628758               -0.12630694                0.42107640                0.00009205                0.09553451               -0.00203798
               4.42568917                1.00999195               18.03241714                0.50378635               -0.05136051               -0.05140034                0.17135963                0.00000372                0.10648662               -0.00110987
               5.42554999                1.00674383               17.98583060                0.50040709                0.02351239                0.02352507               -0.07835313               -0.00004802                0.10903945               -0.00034995
               6.42615942                1.00347984               17.93923168                0.50996776                0.09838733                0.09845683               -0.32807296               -0.00007113                0.10351004                0.00032816
               7.42751774                1.00019946               17.89254772                0.53270282                0.17331635                0.17338964               -0.57781636               -0.00008134                0.08991315                0.00099431
               8.42962574                0.99690173               17.84570474                0.56940984                0.24837967                0.24834933               -0.82759995               -0.00027827                0.06797336                0.00170920
               9.43248533                0.99358134               17.79862457                0.62149806                0.32320092                0.32340242               -1.07743562               -0.00034971                0.03725189                0.00252671
              10.43608976                0.99024551               17.75122461                0.83185196                0.36044331                0.40019887               -1.32731886                0.00077870                0.01764576                0.00360745
               0.43654599                2.01933869               18.21936833                0.82844877               -0.31189498               -0.35072310                1.16535309               -0.00108013                0.01231176               -0.00349580
               1.43342704                2.01689883               18.17189134                0.59905343               -0.27462097               -0.27491225                0.91551059               -0.00050248                0.03959609               -0.00466651
               2.43105357                2.01444022               18.12489807                0.54136669               -0.19990763               -0.19964224                0.66582696               -0.00033401                0.07702793               -0.00349111
               3.42942889                2.01196977               18.07812293                0.51610995               -0.12494163               -0.12474050                0.41607062               -0.00014696                0.09628055               -0.00227145
               4.42855474                2.00948590               18.03148320                0.50266521               -0.04992556               -0.04983476                0.16629547               -0.00013883                0.10683059               -0.00129520
               5.42843038                2.00698684               17.98490270                0.49995481                0.02503800                0.02508621               -0.08348644               -0.00019466                0.10917568               -0.00047269
               6.42905550                2.00447203               17.93830848                0.50762046                0.09999130                0.10002099               -0.33327864               -0.00024671                0.10355093                0.00023917
               7.43043021                2.00194093               17.89162893                0.52593187                0.17496733                0.17497579               -0.58309137               -0.00034362                0.08995000                0.00087261
               8.43255485                1.99939238               17.84479091                0.55580179                0.24987728                0.24999440               -0.83293321               -0.00051311                0.06808900                0.00145108
               9.43542775                1.99682655               17.79771717                0.59885651                0.32464643                0.32539180               -1.08280179               -0.00057031                0.03741341                0.00198973
              10.43904778                1.99424850               17.75032351                0.81694665                0.36200252                0.40092513               -1.33267203                0.00040866                0.01777932                0.00236865
               0.43859794                3.01584138               18.21841988                0.82785469               -0.31038809               -0.34889658                1.16035350               -0.00094178                0.01264774                0.00121502
               1.43549406                3.01415547               18.17094210                0.59821275               -0.27303257               -0.27363566                0.91053067               -0.00040993                0.04007924               -0.00006468
               2.43313729                3.01245007               18.12395110                0.54091340               -0.19827420               -0.19835604                0.66083797               -0.00049604                0.07796008               -0.00063541
               3.43152858                3.01072988               18.07718427                0.51584546               -0.12339850               -0.12328046                0.41104892               -0.00036597                0.09749496               -0.00064864
               4.43066932                3.00899525               18.03055257                0.50256274               -0.04843070               -0.04830523                0.16121861               -0.00032274                0.10797509               -0.00049912
               5.43055997                3.00724556               17.98397912                0.50000366                0.02655356                0.02665743               -0.08862956               -0.00034519                0.11020744               -0.00033996
               6.43120039                3.00548026               17.93739089                0.50782215                0.10152716                0.10163468               -0.33849100               -0.00039852                0.10445288               -0.00026287
               7.43259051                3.00369897               17.89071611                0.52629041                0.17647357                0.17665523               -0.58836875               -0.00047495                0.09070066               -0.00035140
               8.43472987                3.00190162               17.84388144                0.55631427                0.25136488                0.25179210               -0.83826260               -0.00054124                0.06865074               -0.00068497
               9.43761781                3.00008918               17.79680913                0.59950280                0.32620849                0.32707016               -1.08815861               -0.00040727                0.03772255               -0.00134999
              10.44125404                2.99826402               17.74941427                0.81730723                0.36362291                0.40228371               -1.33802197                0.00056903                0.01792867               -0.00242840
               0.43989898                4.01236076               18.21748962                0.82728835               -0.30888213               -0.34728000                1.15533665               -0.00086203                0.01289034                0.00622719
               1.43681016                4.01142611               18.17000249                0.59742191               -0.27148661               -0.27219473                0.90552589               -0.00026826                0.04079487                0.00344465
               2.43446925                4.01047309               18.12301174                0.54049393               -0.19668846               -0.19697919                0.65582080               -0.00042081                0.07936170                0.00186220
               3.43287639                4.00950416               18.07624942                0.51559684               -0.12183200               -0.12183913                0.40600107               -0.00042488                0.09924570                0.00085318
               4.43203261                4.00851979               18.02962509                0.50247101               -0.04689582               -0.04678762                0.15612602               -0.00042698                0.10989413                0.00023059
               5.43193847                4.00751999               17.98305971                0.50006327                0.02807533                0.02822414               -0.09377550               -0.00044498                0.11210903               -0.00024412
               6.43259411                4.00650472               17.93647876                0.50803448                0.10304351                0.10324663               -0.34369275               -0.00046242                0.10619530               -0.00077891
               7.43399934                4.00547404               17.88980918                0.52666340                0.17798517                0.17832303               -0.59362274               -0.00046516                0.09215620               -0.00156380
               8.43615382                4.00442822               17.84297643                0.55686221                0.25289332                0.25347754               -0.84355824               -0.00041589                0.06970192               -0.00277410
               9.43905721                4.00336795               17.79590167                0.60024602                0.32778327                0.32867027               -1.09347717               -0.00026038                0.03827218               -0.00455886
              10.44270948                4.00229417               17.74849918                0.81774535                0.36522737                0.40377917               -1.34333603                0.00065649                0.01819285               -0.00701827
               0.44045000                5.00889578               18.21657070                0.82671963               -0.30736344               -0.34573414                1.15027352               -0.00080616                0.01325360                0.01047913
               1.43737637                5.00871158               18.16906792                0.59662877               -0.26995869               -0.27068982                0.90046708               -0.00012305                0.04179997                0.00632470
               2.43505083                5.00851049               18.12207455                0.54007720               -0.19514900               -0.19549142                0.65075448               -0.00026134                0.08132969                0.00377731
               3.43347339                5.00829309               18.07531605                0.51535522               -0.12029347               -0.12033511                0.40091644               -0.00036761                0.10173637                0.00202251
               4.43264496                5.00805950               18.02869978                0.50238918               -0.04536239               -0.04525673                0.15101461               -0.00044699                0.11267642                0.00079803
               5.43256614                5.00781004               17.98214431                0.50013365                0.02960727                0.02977793               -0.09891915               -0.00047734                0.11493650               -0.00018489
               6.43323710                5.00754519               17.93557262                0.50825615                0.10457826                0.10482084               -0.34887056               -0.00045046                0.10882572               -0.00122105
               7.43465770                5.00726543               17.88890931                0.52704213                0.17952657                0.17991432               -0.59883276               -0.00036928                0.09436432               -0.00259606
               8.43682763                5.00697117               17.84207772                0.55741086                0.25444737                0.25507027               -0.84879425               -0.00024923                0.07129041               -0.00457978
               9.43974665                5.00666258               17.79499723                0.60098501                0.32935451                0.33024169               -1.09872821               -0.00011819                0.03909557               -0.00740031
              10.44341472                5.00633960               17.74758103                0.81818030                0.36680733                0.40532154               -1.34858645                0.00072860                0.01859425               -0.01119942
               0.44025127                6.00544608               18.21565484                0.82614649               -0.30582729               -0.34422771                1.14515014               -0.00074397                0.01375330                0.01371546
               1.43719299                6.00601232               18.16813032                0.59583081               -0.26843823               -0.26913654                0.89533916                0.00003621                0.04318855                0.00823243
               2.43488250                6.00656327               18.12113329                0.53966291               -0.19364859               -0.19389918                0.64562837               -0.00008493                0.08404645                0.00493983
               3.43332002                6.00709746               18.07437992                0.51512136               -0.11878899               -0.11875262                0.39578931               -0.00029485                0.10516870                0.00269051
               4.43250672                6.00761466               18.02777463                0.50231844               -0.04383928               -0.04369994                0.14588301               -0.00044750                0.11651502                0.00111700
               5.43244324                6.00811555               17.98123273                0.50021590                0.03114935                0.03131573               -0.10405824               -0.00048657                0.11885576               -0.00015403
               6.43312971                6.00860114               17.93467394                0.50848782                0.10613689                0.10634376               -0.35401876               -0.00041687                0.11249876               -0.00148423
               7.43456597                6.00907232               17.88801960                0.52742653                0.18109862                0.18142227               -0.60398998               -0.00025765                0.09747068               -0.00323805
               8.43675168                6.00952963               17.84118990                0.55795902                0.25602206                0.25657787               -0.85395898               -0.00006851                0.07353665               -0.00579115
               9.43968642                6.00997278               17.79410149                0.60171737                0.33091711                0.33178117               -1.10389824                0.00003740                0.04026148               -0.00949141
              10.44337002                6.01040060               17.74666588                0.81861056                0.36836084                0.40689889               -1.35375992                0.00080993                0.01916986               -0.01457060
               0.43930264                7.00201123               18.21473029                0.82556871               -0.30427413               -0.34280537                1.13996787               -0.00064797                0.01444986                0.01551171
               1.43625990                7.00332885               18.16717853                0.59502869               -0.26693305               -0.26750684                0.89014466                0.00021396                0.04512101                0.00878705
               2.43396398                7.00463250               18.12017940                0.53925304               -0.19219020               -0.19219054                0.64044577                0.00002885                0.08779504                0.00510124
               3.43241610                7.00591804               18.07343552                0.51489767               -0.11730319               -0.11711658                0.39062271               -0.00031008                0.10984060                0.00274423
               4.43161792                7.00718550               18.02684698                0.50226109               -0.04230858               -0.04213918                0.14073271               -0.00048618                0.12168576                0.00114651
               5.43156993                7.00843635               17.98032492                0.50031218                0.03270370                0.03283820               -0.10919361               -0.00050798                0.12412426               -0.00013224
               6.43227199                7.00967206               17.93378516                0.50873167                0.10770661                0.10783292               -0.35914067               -0.00040816                0.11747416               -0.00147753
               7.43372406                7.01089388               17.88714512                0.52781872                0.18269046                0.18286479               -0.60909973               -0.00019634                0.10174026               -0.00329296
               8.43592580                7.01210273               17.84032064                0.55850840                0.25761829                0.25799436               -0.85905894                0.00008544                0.07667460               -0.00605997
               9.43887642                7.01329821               17.79322416                0.60244397                0.33247423                0.33327892               -1.10899408                0.00021747                0.04190935               -0.01034347
              10.44257529                7.01447758               17.74576421                0.81903629                0.36988619                0.40855108               -1.35886269                0.00092432                0.01999409               -0.01658682
               0.43760307                7.99858997               18.21378051                0.82498790               -0.30270718               -0.34161921                1.13474208               -0.00048062                0.01546896                0.01528875
               1.43457600                8.00066218               18.16619722                0.59422683               -0.26545942               -0.26567446                0.88490191                0.00032170                0.04788625                0.00742733
               2.43229388                8.00271946               18.11920195                0.53885280               -0.19075891               -0.19041190                0.63522337               -0.00010736                0.09303839                0.00410706
               3.43076082                8.00475513               18.07247655                0.51468854               -0.11575979               -0.11553542                0.38542850               -0.00044330                0.11617207                0.00217797
               4.42997869                8.00677187               18.02591405                0.50222060               -0.04071536               -0.04060684                0.13556850               -0.00053253                0.12852354                0.00090320
               5.42994651                8.00877231               17.97942099                0.50042576                0.03426668                0.03435208               -0.11432851               -0.00050021                0.13104941               -0.00010079
               6.43066402                8.01075779               17.93290940                0.50899141                0.10924346                0.10932806               -0.36424742               -0.00041097                0.12409411               -0.00116700
               7.43213138                8.01272962               17.88629258                0.52822335                0.18425208                0.18431490               -0.61417993               -0.00022357                0.10758743               -0.00265899
               8.43434906                8.01468951               17.83948109                0.55906424                0.25922660                0.25934192               -0.86411681                0.00010290                0.08113034               -0.00507606
               9.43731592                8.01663836               17.79238026                0.60316923                0.33403545                0.33467251               -1.11404045                0.00038915                0.04432171               -0.00927106
              10.44102977                8.01857162               17.74489265                0.81945923                0.37138559                0.41040158               -1.36391818                0.00110524                0.02123305               -0.01643992
               0.43514861                8.99517884               18.21278233                0.82440785               -0.30117605               -0.34095123                1.12949763               -0.00054975                0.01692394                0.01126373
               1.43213685                8.99801536               18.16516427                0.59343468               -0.26398638               -0.26352298                0.87963805                0.00002504                0.05208431                0.00387955
               2.42986889                9.00082426               18.11818952                0.53847064               -0.18910188               -0.18896367                0.62998732               -0.00035849                0.10062422                0.00222821
               3.42835481                9.00360733               18.07149750                0.51449972               -0.11394001               -0.11406193                0.38022481               -0.00049138                0.12463716                0.00116308
               4.42759009                9.00637336               18.02497357                0.50220137               -0.03904070               -0.03911106                0.13039761               -0.00040137                0.13733418                0.00047653
               5.42757400                9.00912340               17.97852123                0.50056071                0.03581924                0.03587513               -0.11946723               -0.00035071                0.13991207               -0.00005455
               6.42830647                9.01185862               17.93204963                0.50927200                0.11069334                0.11086947               -0.36935441               -0.00030472                0.13270740               -0.00062397
               7.42978787                9.01458018               17.88546889                0.52864719                0.18563230                0.18585471               -0.61925560               -0.00024635                0.11555972               -0.00145139
               8.43201912                9.01728957               17.83868487                0.55963545                0.26071158                0.26083905               -0.86916399               -0.00001635                0.08773167               -0.00287106
               9.43500210                9.01999166               17.79159294                0.60390181                0.33558766                0.33588714               -1.11906999                0.00033828                0.04814991               -0.00557023
              10.43873087                9.02268561               17.74407757                0.81988280                0.37287697                0.41267426               -1.36895714                0.00111022                0.02322030               -0.01199341
               0.43191905                9.99177095               18.21168357                0.91201281               -0.29879699               -0.34078972                1.12424983                0.03912121                0.02198278                0.00963631
               1.42893108                9.99539172               18.16405896                0.79645892               -0.26121573               -0.26236358                0.87438439                0.03788460                0.06006805                0.00287342
               2.42669474                9.99894018               18.11713665                0.76911413               -0.18645937               -0.18840816                0.62476645                0.03669364                0.11145164                0.00206979
               3.42520189               10.00247389               18.07049553                0.75719328               -0.11200690               -0.11334417                0.37503000                0.03718135                0.13547030                0.00112542
               4.42445460               10.00598965               18.02402459                0.75110058               -0.03738271               -0.03837123                0.12522751                0.03724752                0.14828598                0.00040657
               5.42445424               10.00948982               17.97762589                0.75033159                0.03732732                0.03664208               -0.12461334                0.03730045                0.15085883               -0.00023054
               6.42520114               10.01297518               17.93120754                0.75473578                0.11206378                0.11165591               -0.37447564                0.03731221                0.14353585               -0.00088812
               7.42669551               10.01644671               17.88467843                0.76447105                0.18680551                0.18665340               -0.62434980                0.03732030                0.12610872               -0.00168717
               8.42893725               10.01990630               17.83794243                0.78001374                0.26155616                0.26167290               -0.87422946                0.03728351                0.09771946               -0.00282977
               9.43192664               10.02335610               17.79089119                0.80219912                0.33634095                0.33644459               -1.12410848                0.03839449                0.05585607               -0.00468661
              10.43566407               10.02682511               17.74337836                0.91008400                0.37374355                0.41394984               -1.37398980                0.04022080                0.02900928               -0.01037655
               0.47902672                0.02727199               19.23291209                0.92080247               -0.31111692               -0.35094383                1.16370382               -0.03997469                0.01783601               -0.00479887
               1.47591555                0.02330597               19.18298876                0.81201888               -0.27408373               -0.27376757                0.91639189               -0.03780380                0.04189008               -0.00491326
               2.47354504                0.01936693               19.13348344                0.77985611               -0.20016016               -0.20012205                0.66920706               -0.03677139                0.07707352               -0.00257230
               3.47191235                0.01541475               19.08421590                0.76207965               -0.12631850               -0.12587146                0.42201450               -0.03700818                0.09772211               -0.00158301
               4.47101867                0.01144911               19.03509093                0.75238840               -0.05236155               -0.05169618                0.17481477               -0.03704548                0.10887090               -0.00075527
               5.47086511                0.00746814               18.98602900                0.75041430                0.02166301                0.02249803               -0.07239075               -0.03707667                0.11153227               -0.00003115
               6.47145193                0.00347138               18.93695510                0.75602936                0.09570130                0.09669364               -0.31960676               -0.03707716                0.10601752                0.00065452
               7.47277914               -0.00054168               18.88779583                0.76932860                0.16971912                0.17088049               -0.56684226               -0.03708140                0.09235070                0.00135110
               8.47484632               -0.00457276               18.83847657                0.79063327                0.24372996                0.24512962               -0.81410699               -0.03700061                0.07028607                0.00210834
               9.47765374               -0.00862303               18.78891893                0.82050445                0.31765979                0.31902808               -1.06140780               -0.03797113                0.03917909                0.00294046
              10.48119951               -0.01272005               18.73903538                0.92231234                0.35457718                0.39605402               -1.30875797               -0.03808005                0.01924228                0.00438348
               0.48259299                1.02376256               19.23196762                0.83423617               -0.31029524               -0.34955992                1.15866701               -0.00099036                0.01496002               -0.00420582
               1.47949004                1.02056830               19.18202726                0.61052464               -0.27350251               -0.27324971                0.91134548               -0.00023956                0.04022977               -0.00538618
               2.47712294                1.01736571               19.13252956                0.55008980               -0.19944331               -0.19919678                0.66416145                0.00001720                0.07593629               -0.00316985
               3.47550117                1.01415603               19.08325581                0.51995492               -0.12507103               -0.12506001                0.41695806                0.00014721                0.09577707               -0.00194615
               4.47462152                1.01093215               19.03412276                0.50367782               -0.05089794               -0.05090730                0.16974888                0.00007010                0.10674919               -0.00106341
               5.47448322                1.00769312               18.98505151                0.50036955                0.02322735                0.02326496               -0.07746550                0.00002153                0.10930842               -0.00035602
               6.47508607                1.00443831               18.93596779                0.50972711                0.09735898                0.09744407               -0.32469255               -0.00000671                0.10376321                0.00026946
               7.47643040                1.00116713               18.88679877                0.53197544                0.17154584                0.17162434               -0.57194393               -0.00002931                0.09012531                0.00088880
               8.47851699                0.99787853               18.83747036                0.56787753                0.24586380                0.24583063               -0.81923044               -0.00024165                0.06812234                0.00156889
               9.48134767                0.99456725               18.78790432                0.61878014                0.31993721                0.32012714               -1.06655761               -0.00033006                0.03732763                0.00237159
              10.48491573                0.99124049               18.73801811                0.83000737                0.35680586                0.39614292               -1.31391577                0.00078022                0.01766377                0.00347679
               0.48539543                2.02028080               19.23096371                0.82670129               -0.30878302               -0.34718459                1.15367719               -0.00106105                0.01233103               -0.00335291
               1.48230760                2.01784098               19.18100089                0.59680357               -0.27188884               -0.27215005                0.90636283               -0.00046379                0.03972329               -0.00449542
               2.47995765                2.01538300               19.13152341                0.54039315               -0.19793734               -0.19764170                0.65921062               -0.00025736                0.07722347               -0.00331102
               3.47834885                2.01291355               19.08226330                0.51572200               -0.12373328               -0.12349934                0.41198111               -0.00004449                0.09645048               -0.00213280
               4.47748299                2.01043097               19.03313838                0.50257524               -0.04947349               -0.04935374                0.16472527               -0.00001890                0.10700199               -0.00122663
               5.47735938                2.00793344               18.98407256                0.49992346                0.02474009                0.02480683               -0.08254473               -0.00006968                0.10934550               -0.00048698
               6.47797779                2.00542026               18.93499289                0.50742453                0.09894747                0.09898179               -0.32983045               -0.00013016                0.10370407                0.00014128
               7.47933833                2.00289081               18.88582767                0.52533689                0.17317849                0.17317798               -0.57713891               -0.00024685                0.09006873                0.00070093
               8.48144136                2.00034385               18.83650370                0.55453357                0.24734241                0.24743874               -0.82447465               -0.00044374                0.06816274                0.00122616
               9.48428518                1.99777951               18.78694377                0.59656807                0.32136380                0.32207424               -1.07183113               -0.00053328                0.03744972                0.00174516
              10.48786863                1.99520281               18.73706397                0.81538152                0.35834545                0.39683953               -1.31917949                0.00041607                0.01778252                0.00215195
               0.48745141                3.01681886               19.22996528                0.82611615               -0.30728458               -0.34535855                1.14869239               -0.00092211                0.01266431                0.00137016
               1.48437856                3.01512530               19.18000185                0.59597563               -0.27030898               -0.27086422                0.90139301               -0.00036661                0.04018765                0.00011639
               2.48204523                3.01341288               19.13052658                0.53994697               -0.19631225               -0.19635097                0.65423659               -0.00041094                0.07811043               -0.00046983
               3.48045232                3.01168604               19.08127453                0.51546142               -0.12219882               -0.12204235                0.40698518               -0.00025623                0.09759490               -0.00052518
               4.47960125                3.00994508               19.03215716                0.50247403               -0.04798931               -0.04783562                0.15968872               -0.00019723                0.10805815               -0.00044038
               5.47949253                3.00818926               18.98309784                0.49997060                0.02624204                0.02635763               -0.08763148               -0.00021544                0.11028090               -0.00035742
               6.48012609                3.00641795               18.93402356                0.50762071                0.10046672                0.10056614               -0.33497042               -0.00027679                0.10451004               -0.00035739
               7.48150187                3.00463069               18.88486255                0.52568525                0.17466572                0.17481994               -0.58232929               -0.00037216                0.09073252               -0.00051394
               8.48361941                3.00282731               18.83554149                0.55503074                0.24880904                0.24919216               -0.82970555               -0.00046613                0.06865725               -0.00089646
               9.48647805                3.00100874               18.78598276                0.59719463                0.32290256                0.32370689               -1.07708331               -0.00036761                0.03772156               -0.00158076
              10.49007746                2.99917728               18.73610181                0.81573118                0.35994123                0.39815922               -1.32442657                0.00057634                0.01791461               -0.00263995
               0.48876413                4.01337363               19.22898492                0.82555823               -0.30578737               -0.34374465                1.14369542               -0.00084368                0.01290162                0.00636489
               1.48570625                4.01242369               19.17901223                0.59519649               -0.26877199               -0.26941912                0.89640417               -0.00023062                0.04088459                0.00359545
               2.48338869                4.01145598               19.12953711                0.53953388               -0.19473597               -0.19497286                0.64924036               -0.00034709                0.07947230                0.00199557
               3.48181153                4.01047270               19.08028932                0.51521668               -0.12064270               -0.12060581                0.40196792               -0.00033098                0.09928849                0.00094993
               4.48097583                4.00947425               19.03117896                0.50238365               -0.04646654               -0.04633000                0.15463899               -0.00032089                0.10990741                0.00027620
               5.48088220                4.00846059               18.98212725                0.50002859                0.02774943                0.02790489               -0.09272123               -0.00033604                0.11210639               -0.00025782
               6.48153082                4.00743158               18.93305978                0.50782765                0.10196633                0.10215125               -0.34010274               -0.00036035                0.10617684               -0.00085269
               7.48292153                4.00638721               18.88390352                0.52604807                0.17615837                0.17645412               -0.58750164               -0.00037886                0.09212003               -0.00169107
               8.48505399                4.00532769               18.83458402                0.55556264                0.25031631                0.25083910               -0.83490968               -0.00035304                0.06965577               -0.00294089
               9.48792785                4.00425365               18.78502264                0.59791481                0.32445407                0.32526776               -1.08230475               -0.00022743                0.03824193               -0.00474396
              10.49154307                4.00316600               18.73513411                0.81615550                0.36152147                0.39961976               -1.32964484                0.00066144                0.01816551               -0.00719373
               0.48933440                5.00994397               19.22801552                0.82499989               -0.30428015               -0.34220888                1.13866749               -0.00079058                0.01326210                0.01057820
               1.48629160                5.00973691               19.17802722                0.59441797               -0.26725574               -0.26792050                0.89137867               -0.00009815                0.04188033                0.00642150
               2.48398928                5.00951342               19.12854942                0.53912507               -0.19320862               -0.19349263                0.64421012               -0.00021266                0.08141986                0.00386114
               3.48242742                5.00927393               19.07930530                0.51497963               -0.11911699               -0.11911216                0.39692453               -0.00030570                0.10174857                0.00208335
               4.48160694                5.00901848               19.03020277                0.50230342               -0.04494698               -0.04481288                0.14957518               -0.00037738                0.11265150                0.00082796
               5.48152848                5.00874735               18.98116069                0.50009748                0.02926620                0.02944140               -0.09781053               -0.00040644                0.11489148               -0.00019064
               6.48219227                5.00846097               18.93210217                0.50804439                0.10348454                0.10370478               -0.34521951               -0.00038483                0.10876474               -0.00126329
               7.48359817                5.00815977               18.88295190                0.52641780                0.17768186                0.17802164               -0.59264441               -0.00031479                0.09428986               -0.00267142
               8.48574590                5.00784409               18.83363333                0.55609734                0.25185110                0.25240595               -0.84007330               -0.00021052                0.07121476               -0.00468093
               9.48863520                5.00751409               18.78406610                0.59863391                0.32600485                0.32681301               -1.08748042               -0.00009835                0.03904906               -0.00751657
              10.49226600                5.00716968               18.73416385                0.81657852                0.36308044                0.40113844               -1.33482060                0.00072899                0.01855953               -0.01131774
               0.48916243                6.00652945               19.22704871                0.82443965               -0.30275931               -0.34072183                1.13359928               -0.00073180                0.01376268                0.01376957
               1.48613484                6.00706528               19.17703862                0.59363840               -0.26575063               -0.26638645                0.88630649                0.00004613                0.04327286                0.00826848
               2.48384742                6.00758613               19.12755719                0.53872062               -0.19172360               -0.19191916                0.63913935               -0.00006518                0.08414225                0.00496993
               3.48230037                6.00809046               19.07831818                0.51475130               -0.11762796               -0.11754747                0.39185197               -0.00026909                0.10518352                0.00271366
               4.48149486                6.00857800               19.02922657                0.50223459               -0.04343953               -0.04327246                0.14449699               -0.00041846                0.11648948                0.00113103
               5.48143157                6.00904942               18.98019798                0.50017843                0.03079235                0.03096447               -0.10289759               -0.00045770                0.11880767               -0.00015123
               6.48211071                6.00950568               18.93115226                0.50827174                0.10502697                0.10521459               -0.35031712               -0.00039158                0.11243366               -0.00149371
               7.48353211                6.00994764               18.88201086                0.52679468                0.17923748                0.17951794               -0.59775234               -0.00023868                0.09739254               -0.00325960
               8.48569546                6.01037581               18.83269409                0.55663433                0.25340930                0.25390291               -0.84518973               -0.00005708                0.07345876               -0.00582399
               9.48860030                6.01078991               18.78311888                0.59935057                0.32755102                0.32834229               -1.09260279                0.00004218                0.04021435               -0.00953558
              10.49224648                6.01118876               18.73319720                0.81699933                0.36461758                0.40270574               -1.33994667                0.00080493                0.01913493               -0.01462868
               0.48824809                7.00312954               19.22607273                0.82387704               -0.30122498               -0.33932692                1.12849052               -0.00063904                0.01446365                0.01552903
               1.48523584                7.00440918               19.17603530                0.59285807               -0.26426405               -0.26478766                0.88118801                0.00021155                0.04522227                0.00877359
               2.48296281                7.00567504               19.12655186                0.53832237               -0.19028334               -0.19023966                0.63402951                0.00002591                0.08792159                0.00508816
               3.48143017                7.00692298               19.07732246                0.51453398               -0.11615986               -0.11593600                0.38675200               -0.00031213                0.10988903                0.00273736
               4.48063961                7.00815303               19.02824771                0.50217943               -0.04192609               -0.04173052                0.13940558               -0.00048842                0.12169382                0.00114761
               5.48059165                7.00936664               18.97923905                0.50027364                0.03233003                0.03247413               -0.10798252               -0.00051156                0.12410847               -0.00012358
               6.48128621                7.01056527               18.93021245                0.50851177                0.10658069                0.10669690               -0.35539707               -0.00041393                0.11743965               -0.00146262
               7.48272326                7.01175013               18.88108542                0.52718065                0.18081405                0.18095910               -0.60282807               -0.00020463                0.10169012               -0.00327394
               8.48490249                7.01292215               18.83177393                0.55717496                0.25499126                0.25532208               -0.85026226                0.00007554                0.07661981               -0.00604100
               9.48782309                7.01408094               18.78219067                0.60006522                0.32909520                0.32984365               -1.09767522                0.00020997                0.04187629               -0.01033324
              10.49148440                7.01522379               18.73224457                0.81741785                0.36613070                0.40435909               -1.34502603                0.00091449                0.01996583               -0.01660081
               0.48659035                7.99974291               19.22507114                0.82331261               -0.29967873               -0.33817122                1.12334875               -0.00047464                0.01548962                0.01528903
               1.48359356                8.00176953               19.17500205                0.59207976               -0.26281045               -0.26299364                0.87603250                0.00031333                0.04801405                0.00738833
               2.48133414                8.00378133               19.12552264                0.53793463               -0.18887139               -0.18849593                0.62888960               -0.00011891                0.09321378                0.00407312
               3.47981614                8.00577174               19.07631194                0.51433162               -0.11463578               -0.11438252                0.38163137               -0.00045654                0.11627501                0.00215659
               4.47904143                8.00774339               19.02726346                0.50214131               -0.04035155               -0.04021835                0.13430387               -0.00054817                0.12858742                0.00089731
               5.47900910                8.00969890               18.97828402                0.50038622                0.03387568                0.03397576               -0.11306680               -0.00051793                0.13108885               -0.00009092
               6.47971894                8.01163961               18.92928579                0.50876797                0.10810162                0.10818768               -0.36046515               -0.00042982                0.12411322               -0.00114275
               7.48117114                8.01356682               18.88018218                0.52757965                0.18236088                0.18241216               -0.60788099               -0.00024262                0.10758729               -0.00262330
               8.48336616                8.01548225               18.83088384                0.55772318                0.25658595                0.25667886               -0.85530256                0.00008484                0.08111705               -0.00503510
               9.48630286                8.01738679               18.78129631                0.60078035                0.33064488                0.33124835               -1.10271013                0.00037574                0.04431366               -0.00923776
              10.48997906                8.01927595               18.73132245                0.81783472                0.36761989                0.40621449               -1.35007016                0.00109175                0.02121695               -0.01643851
               0.48418535                8.99636611               19.22402097                0.82274845               -0.29816721               -0.33752727                1.11818565               -0.00054396                0.01695182                0.01126620
               1.48120368                8.99914931               19.17391691                0.59131038               -0.26135639               -0.26088066                0.87085253                0.00001971                0.05224416                0.00384436
               2.47895822                9.00190512               19.12445828                0.53756458               -0.18723459               -0.18707807                0.62373346               -0.00036515                0.10085732                0.00220092
               3.47745899                9.00463533               19.07528124                0.51414942               -0.11283717               -0.11293463                0.37649986               -0.00050010                0.12480057                0.00114560
               4.47670148                9.00734866               19.02627161                0.50212444               -0.03869628               -0.03874240                0.12919587               -0.00041313                0.13745884                0.00047088
               5.47668506                9.01004616               18.97733314                0.50052017                0.03541048                0.03548532               -0.11815245               -0.00036417                0.14001214               -0.00004815
               6.47740969                9.01272902               18.92837516                0.50904480                0.10953539                0.10972197               -0.36552908               -0.00031869                0.13278699               -0.00060645
               7.47887577                9.01539837               18.87930786                0.52799737                0.18372685                0.18395070               -0.61292353               -0.00025944                0.11561843               -0.00142486
               8.48108423                9.01805573               18.83003722                0.55828598                0.25805708                0.25817957               -0.86032559               -0.00002845                0.08777010               -0.00284008
               9.48403691                9.02070591               18.78045872                0.60150166                0.33218410                0.33247203               -1.10772158                0.00032823                0.04817441               -0.00554459
              10.48772791                9.02334808               18.73045703                0.81825153                0.36909974                0.40848382               -1.35509135                0.00109652                0.02322116               -0.01199794
               0.48101307                9.99299236               19.22287007                0.91118783               -0.29581225               -0.33737469                1.11300048                0.03872714                0.02203244                0.00965800
               1.47805495                9.99655192               19.17275941                0.79540355               -0.25861237               -0.25973941                0.86566238                0.03749717                0.06026959                0.00286067
               2.47584082               10.00003977               19.12335354                0.76866475               -0.18461761               -0.18653486                0.61857518                0.03631608                0.11174061                0.00206355
               3.47436260               10.00351304               19.07422764                0.75702015               -0.11092442               -0.11222854                0.37136591                0.03679897                0.13568430                0.00112181
               4.47362233               10.00696854               19.02527123                0.75106283               -0.03705667               -0.03801216                0.12408498                0.03686355                0.14845979                0.00040636
               5.47362146               10.01040861               18.97638662                0.75031092                0.03690085                0.03624497               -0.12324099                0.03691569                0.15100853               -0.00022766
               6.47436035               10.01383405               18.92748212                0.75462079                0.11088891                0.11050344               -0.37059486                0.03692762                0.14366765               -0.00088288
               7.47583924               10.01724584               18.87846672                0.76414377                0.18488525                0.18474657               -0.61796530                0.03693660                0.12622307               -0.00168083
               8.47805806               10.02064585               18.82924435                0.77933557                0.25889123                0.25901189               -0.86534244                0.03690226                0.09781506               -0.00282491
               9.48101706               10.02403623               18.77970679                0.80099436                0.33292865                0.33303210               -1.11271505                0.03800408                0.05592770               -0.00468855
              10.48471663               10.02744562               18.72970769                0.90926557                0.36995645                0.40975392               -1.36007981                0.03981160                0.02904643               -0.01040678
               0.53036526                0.02819376               20.24449007                0.91980249               -0.30794905               -0.34736478                1.15184267               -0.03956061                0.01789198               -0.00478537
               1.52728577                0.02424370               20.19210631                0.81065096               -0.27129705               -0.27098349                0.90707632               -0.03741075                0.04203654               -0.00489190
               2.52493932                0.02032051               20.14014183                0.77918755               -0.19813689               -0.19809598                0.66243727               -0.03638612                0.07730041               -0.00253914
               3.52332303                0.01638442               20.08841503                0.76180584               -0.12505966               -0.12460630                0.41778638               -0.03661834                0.09795737               -0.00155774
               4.52243813                0.01243513               20.03683069                0.75232459               -0.05186626               -0.05119013                0.17312245               -0.03665362                0.10911139               -0.00074145
               5.52228571                0.00847070               19.98530930                0.75039212                0.02139731                0.02224566               -0.07155290               -0.03668420                0.11177186               -0.00002971
               6.52286607                0.00449060               19.93377579                0.75588634                0.09467820                0.09568307               -0.31624317               -0.03668567                0.10624408                0.00064377
               7.52417927                0.00049428               19.88215672                0.76889857                0.16794222                0.16911145               -0.56095489               -0.03669203                0.09254880                0.00132910
               8.52622492               -0.00352003               19.83037738                0.78973624                0.24120132                0.24260037               -0.80569420               -0.03661500                0.07044085                0.00207710
               9.52900330               -0.00755347               19.77835933                0.81893591                0.31437890                0.31574021               -1.05046333               -0.03757783                0.03927399                0.00290327
              10.53251249               -0.01163326               19.72601495                0.92125499                0.35091975                0.39197228               -1.29527007               -0.03768304                0.01928497                0.00436341
               0.53391972                1.02472011               20.24349552                0.83236770               -0.30714252               -0.34598964                1.14686572               -0.00097549                0.01499046               -0.00414739
               1.53084829                1.02153387               20.19109465                0.60803904               -0.27073095               -0.27046837                0.90208994               -0.00022656                0.04035743               -0.00531579
               2.52850510                1.01833955               20.13913779                0.54893784               -0.19743780               -0.19717683                0.65745094                0.00004019                0.07614726               -0.00307735
               3.52689953                1.01513836               20.08740466                0.51948815               -0.12383219               -0.12380090                0.41278588                0.00017936                0.09599434               -0.00187313
               4.52602845                1.01192323               20.03581211                0.50356921               -0.05042014               -0.05040839                0.16810826                0.00010954                0.10697450               -0.00102412
               5.52589113                1.00869315               19.98428129                0.50033195                0.02294856                0.02300406               -0.07658052                0.00006329                0.10953179               -0.00035622
               6.52648742                1.00544743               19.93273783                0.50948728                0.09632668                0.09642360               -0.32128574                0.00003213                0.10396777                0.00022920
               7.52781767                1.00218540               19.88110884                0.53125073                0.16976080                0.16984430               -0.56601588                0.00000205                0.09029221                0.00081213
               8.52988264                0.99890598               19.82932013                0.56635207                0.24332359                0.24329027               -0.81077777               -0.00021884                0.06823621                0.00146405
               9.53268414                0.99560394               19.77729342                0.61607783                0.31664114                0.31682395               -1.05557260               -0.00031689                0.03738429                0.00225359
              10.53621546                0.99228646               19.72494630                0.82817467                0.35313259                0.39205471               -1.30038727                0.00077885                0.01767460                0.00337923
               0.53671825                2.02127397               20.24244188                0.82496686               -0.30564409               -0.34362695                1.14191356               -0.00104478                0.01235159               -0.00325459
               1.53366181                2.01883433               20.19001859                0.59457154               -0.26913098               -0.26937062                0.89714197               -0.00043874                0.03985201               -0.00437550
               2.53133563                2.01637697               20.13808228                0.53942748               -0.19594372               -0.19562898                0.65253461               -0.00020997                0.07741796               -0.00317631
               3.52974293                2.01390841               20.08636255                0.51533632               -0.12250525               -0.12225024                0.40784768                0.00001818                0.09661162               -0.00202540
               4.52888552                2.01142697               20.03477771                0.50248556               -0.04900791               -0.04886848                0.16312991                0.00005473                0.10715575               -0.00116985
               5.52876277                2.00893078               19.98325181                0.49989222                0.02444754                0.02452809               -0.08160678                0.00000751                0.10949061               -0.00049137
               6.52937447                2.00641907               19.93171187                0.50722970                0.09789969                0.09793931               -0.32636278               -0.00005781                0.10382892                0.00007431
               7.53072077                2.00389117               19.88008615                0.52474547                0.17137624                0.17137232               -0.57114290               -0.00018629                0.09016005                0.00057783
               8.53280200                2.00134578               19.82830142                0.55327401                0.24478541                0.24486991               -0.81594886               -0.00039937                0.06821448                0.00106173
               9.53561648                1.99878301               19.77628054                0.59429860                0.31805142                0.31873791               -1.06077114               -0.00050849                0.03747345                0.00156512
              10.53916303                1.99620783               19.72393992                0.81383047                0.35465508                0.39273082               -1.30557823                0.00041932                0.01778049                0.00199442
               0.53877809                3.01784758               20.24139373                0.82439254               -0.30415766               -0.34180760                1.13695883               -0.00090591                0.01268403                0.00148061
               1.53573652                3.01614645               20.18896996                0.59375920               -0.26756337               -0.26808395                0.89219947               -0.00033821                0.04030487                0.00024601
               2.53342683                3.01442697               20.13703583                0.53898990               -0.19433075               -0.19434036                0.64759058               -0.00035600                0.07827471               -0.00034838
               3.53184990                3.01269336               20.08532397                0.51508044               -0.12098253               -0.12080073                0.40288804               -0.00018601                0.09770651               -0.00043163
               4.53100717                3.01094586               20.03374634                0.50238591               -0.04753625               -0.04736330                0.15813831               -0.00011699                0.10814721               -0.00039284
               5.53089918                3.00918372               19.98222649                0.49993788                0.02593529                0.02606025               -0.08663889               -0.00013225                0.11035427               -0.00036562
               6.53152588                3.00740622               19.93069149                0.50742093                0.09940298                0.09949937               -0.33143838               -0.00019837                0.10456272               -0.00042281
               7.53288724                3.00561284               19.87906952                0.52508487                0.17284632                0.17298472               -0.57626003               -0.00030542                0.09075807               -0.00063033
               8.53498281                3.00380337               19.82728733                0.55375813                0.24623395                0.24658904               -0.82109957               -0.00041669                0.06865803               -0.00104959
               9.53781191                3.00197869               19.77526746                0.59490880                0.31957046                0.32033582               -1.06593954               -0.00034113                0.03771712               -0.00174807
              10.54137422                3.00014107               19.72292574                0.81417122                0.35623013                0.39402141               -1.31074281                0.00057904                0.01789907               -0.00279250
               0.54010237                4.01443782               20.24036353                0.82384460               -0.30267223               -0.34020107                1.13199431               -0.00082841                0.01291787                0.00646954
               1.53707565                4.01347265               20.18793058                0.59299406               -0.26603839               -0.26664158                0.88724063               -0.00020510                0.04098983                0.00370838
               2.53478161                4.01249016               20.13599654                0.53858438               -0.19276681               -0.19296660                0.64262736               -0.00029728                0.07961015                0.00209685
               3.53322032                4.01149239               20.08428878                0.51484012               -0.11943914               -0.11937260                0.39790969               -0.00026764                0.09936029                0.00102517
               4.53239282                4.01047970               20.03271787                0.50229709               -0.04602701               -0.04587094                0.15313510               -0.00024930                0.10994628                0.00031366
               5.53229978                4.00945198               19.98120529                0.49999438                0.02742790                0.02758934               -0.09167378               -0.00026237                0.11212392               -0.00026527
               6.53294138                4.00840906               19.92967671                0.50762291                0.10088645                0.10106150               -0.33650750               -0.00029112                0.10617349               -0.00090633
               7.53431750                4.00735086               19.87805915                0.52543858                0.17432155                0.17459140               -0.58136151               -0.00032013                0.09209512               -0.00178614
               8.53642781                4.00627756               19.82627824                0.55427587                0.24772242                0.24820535               -0.82622665               -0.00031009                0.06961772               -0.00306668
               9.53927195                4.00518973               19.77425557                0.59560879                0.32110175                0.32186595               -1.07108052               -0.00020486                0.03821615               -0.00488418
              10.54284985                4.00408826               19.72190629                0.81458345                0.35778948                0.39545439               -1.31588163                0.00066251                0.01814016               -0.00732742
               0.54069185                5.01104355               20.23934405                0.82329735               -0.30117814               -0.33867756                1.12700811               -0.00077705                0.01327657                0.01066285
               1.53768007                5.01081362               20.18689549                0.59223120               -0.26453540               -0.26515255                0.88225547               -0.00007995                0.04197975                0.00650263
               2.53540114                5.01056764               20.13495875                0.53818403               -0.19125298               -0.19149670                0.63763919               -0.00017685                0.08154423                0.00393194
               3.53385501                5.01030590               20.08325454                0.51460794               -0.11792736               -0.11789116                0.39291171               -0.00025981                0.10179865                0.00213555
               4.53304260                5.01002845               20.03169129                0.50221854               -0.04452205               -0.04436834                0.14812088               -0.00032548                0.11266199                0.00085446
               5.53296457                5.00973550               19.98018810                0.50006187                0.02892924                0.02910897               -0.09670898               -0.00035339                0.11487676               -0.00019443
               6.53362118                5.00942745               19.92866823                0.50783490                0.10238832                0.10259583               -0.34156570               -0.00033568                0.10872872               -0.00129849
               7.53501234                5.00910467               19.87705642                0.52579978                0.17582780                0.17613766               -0.58644159               -0.00027408                0.09423559               -0.00273539
               8.53713774                5.00876748               19.82527626                0.55479755                0.24923909                0.24974958               -0.83132424               -0.00018175                0.07115439               -0.00476758
               9.53999712                5.00841601               19.77324762                0.59630948                0.32263360                0.32338856               -1.07618832               -0.00008370                0.03901127               -0.00761706
              10.54359041                5.00805016               19.72088462                0.81499543                0.35932915                0.39695228               -1.32099022                0.00072713                0.01852877               -0.01142164
               0.54054670                6.00766427               20.23832683                0.82274971               -0.29967255               -0.33720904                1.12199414               -0.00072052                0.01377788                0.01382948
               1.53754997                6.00816960               20.18585644                0.59146955               -0.26304550               -0.26363656                0.87723748                0.00005523                0.04337558                0.00831266
               2.53528579                6.00866023               20.13391608                0.53778918               -0.18978314               -0.18994113                0.63262240               -0.00004643                0.08427095                0.00500730
               3.53375431                6.00913457               20.08221696                0.51438499               -0.11645363               -0.11634378                0.38789287               -0.00024397                0.10523442                0.00274182
               4.53295671                6.00959233               20.03066457                0.50215160               -0.04303023               -0.04284432                0.14309608               -0.00038954                0.11649722                0.00114678
               5.53289370                6.01003416               19.97917478                0.50014155                0.03043932                0.03061664               -0.10174305               -0.00042850                0.11878762               -0.00015061
               6.53356550                6.01046098               19.92766759                0.50805787                0.10391426                0.10409125               -0.34661076               -0.00036566                0.11239143               -0.00150939
               7.53497199                6.01087361               19.87606455                0.52616900                0.17736661                0.17762047               -0.59149739               -0.00021897                0.09733287               -0.00329108
               8.53711283                6.01127255               19.82428610                0.55532310                0.25078035                0.25123368               -0.83638898               -0.00004500                0.07339493               -0.00586972
               9.53998760                6.01165750               19.77224943                0.59701013                0.32416292                0.32490519               -1.08125942                0.00004735                0.04017527               -0.00959432
              10.54359609                6.01202730               19.71986695                0.81540665                0.36084951                0.39850720               -1.32606541                0.00079945                0.01910380               -0.01470105
               0.53966677                7.00429937               20.23730010                0.82220107               -0.29815541               -0.33583775                1.11695100               -0.00063025                0.01448218                0.01556807
               1.53668521                7.00554089               20.18480229                0.59070912               -0.26157582               -0.26206355                0.87218563                0.00021256                0.04533770                0.00878624
               2.53443525                7.00676881               20.13285999                0.53740152               -0.18835937               -0.18828655                0.62757721                0.00003072                0.08807262                0.00509771
               3.53291803                7.00797903               20.08117056                0.51417356               -0.11500201               -0.11475416                0.38285411               -0.00030334                0.10996259                0.00274590
               4.53213521                7.00917156               20.02963509                0.50209849               -0.04153345               -0.04132041                0.13806161               -0.00047774                0.12172283                0.00115453
               5.53208736                7.01034784               19.97816526                0.50023556                0.03196032                0.03211207               -0.10677566               -0.00050142                0.12410801               -0.00011979
               6.53277442                7.01150927               19.92667722                0.50829381                0.10545138                0.10556307               -0.35164307               -0.00040649                0.11741573               -0.00146326
               7.53419638                7.01265708               19.87508856                0.52654804                0.17892670                0.17905470               -0.59652994               -0.00020151                0.10164752               -0.00328008
               8.53635295                7.01379215               19.82331539                0.55585367                0.25234631                0.25264851               -0.84142216                0.00007401                0.07657052               -0.00605466
               9.53924331                7.01491412               19.77127065                0.59771087                0.32569207                0.32640256               -1.08629505                0.00020683                0.04184637               -0.01035953
              10.54286679                7.01602031               19.71886369                0.81581683                0.36234818                0.40015478               -1.33110827                0.00090539                0.01993939               -0.01665003
               0.53805106                8.00094751               20.23624748                0.82165123               -0.29662733               -0.33470653                1.11188095               -0.00046865                0.01551372                0.01531711
               1.53508478                8.00292833               20.18371787                0.58995165               -0.26013966               -0.26030052                0.86710318                0.00030968                0.04815023                0.00738139
               2.53284826                8.00489450               20.13177974                0.53702487               -0.18696440               -0.18657158                0.62250762               -0.00011968                0.09340199                0.00406702
               3.53134550                8.00683948               20.08010918                0.51397734               -0.11349559               -0.11322421                0.37779881               -0.00045487                0.11638788                0.00215421
               4.53057835                8.00876593               20.02860013                0.50206251               -0.03997672               -0.03982698                0.13301911               -0.00054634                0.12865525                0.00089882
               5.53054596                8.01067640               19.97715965                0.50034701                0.03348879                0.03359979               -0.11180731               -0.00051737                0.13112607               -0.00008638
               6.53124813                8.01257224               19.92570010                0.50854605                0.10695582                0.10704474               -0.35666519               -0.00043125                0.12412582               -0.00113638
               7.53268508                8.01445471               19.87413496                0.52694040                0.18045735                0.18050325               -0.60154335               -0.00024677                0.10757912               -0.00261682
               8.53485728                8.01632552               19.82237504                0.55639242                0.25392515                0.25400512               -0.84642861                0.00007759                0.08109691               -0.00503209
               9.53776358                8.01818555               19.77032606                0.59841305                0.32722730                0.32780812               -1.09129986                0.00036781                0.04430172               -0.00924690
              10.54140182                8.02003040               19.71789124                0.81622593                0.36382402                0.40200548               -1.33612265                0.00107931                0.02119989               -0.01647798
               0.53569575                8.99760524               20.23514604                0.82110122               -0.29513310               -0.33408042                1.10678702               -0.00053832                0.01698252                0.01128872
               1.53274442                9.00033488               20.18258132                0.58920246               -0.25870234               -0.25821935                0.86199338                0.00001769                0.05240792                0.00383163
               2.53052170                9.00303738               20.13066419                0.53666563               -0.18534604               -0.18517812                0.61741962               -0.00036424                0.10109377                0.00219342
               3.52903750                9.00571454               20.07902750                0.51380112               -0.11171706               -0.11179777                0.37273145               -0.00049827                0.12496160                0.00114164
               4.52828736                9.00837502               20.02755749                0.50204778               -0.03834018               -0.03836923                0.12797043               -0.00041268                0.13757391                0.00047061
               5.52827070                9.01101983               19.97615819                0.50047982                0.03500622                0.03509462               -0.11683878               -0.00036492                0.14009600               -0.00004520
               6.52898749                9.01365017               19.92473905                0.50881883                0.10837356                0.10856781               -0.36168025               -0.00032056                0.13284596               -0.00060105
               7.53043817                9.01626714               19.87321042                0.52735117                0.18180855                0.18203397               -0.60654245               -0.00026220                0.11565565               -0.00141825
               8.53262366                9.01887226               19.82147836                0.55694522                0.25538098                0.25550113               -0.85141322               -0.00003311                0.08779049               -0.00283499
               9.53554579                9.02147028               19.76943850                0.59912061                0.32875123                0.32903180               -1.09627636                0.00032183                0.04818850               -0.00554781
              10.53919868                9.02406042               19.71697575                0.81663450                0.36528967                0.40426263               -1.34110921                0.00108350                0.02321854               -0.01203007
               0.53258102                9.99426590               20.23394358                0.91036858               -0.29280160               -0.33393397                1.10165829                0.03833074                0.02208531                0.00969093
               1.52965300                9.99776395               20.18137221                0.79435583               -0.25598501               -0.25709348                0.85686013                0.03710958                0.06047409                0.00285966
               2.52746132               10.00119094               20.12950816                0.76821865               -0.18275537               -0.18464458                0.61231843                0.03594033                0.11203140                0.00206760
               3.52599789               10.00460353               20.07792285                0.75684791               -0.10982521               -0.11110148                0.36765436                0.03641964                0.13589454                0.00112500
               4.52526481               10.00799854               20.02650629                0.75102519               -0.03671888               -0.03764780                0.12291629                0.03648322                0.14862288                0.00040867
               5.52526352               10.01137830               19.97516107                0.75029037                0.03647967                0.03584654               -0.12187066                0.03653461                0.15114048               -0.00022674
               6.52599441               10.01474359               19.92379564                0.75450637                0.10971151                0.10934270               -0.36668982                0.03654627                0.14377615               -0.00088395
               7.52745775               10.01809539               19.87231913                0.76381814                0.18295363                0.18282439               -0.61152915                0.03655522                0.12631178               -0.00168466
               8.52965348               10.02143554               19.82063558                0.77866150                0.25620565                0.25632857               -0.85637674                0.03652189                0.09788760               -0.00283309
               9.53258186               10.02476619               19.76863689                0.79979868                0.32948704                0.32959081               -1.10121825                0.03761266                0.05598495               -0.00470487
              10.53624322               10.02811565               19.71617677                0.90845397                0.36613600                0.40552357               -1.34604655                0.03939992                0.02907803               -0.01045033
               0.58415207                0.02916538               21.25594895                0.91880811               -0.30475530               -0.34375834                1.13988640               -0.03914491                0.01794944               -0.00478045
               1.58110452                0.02523146               21.20113029                0.80929076               -0.26848689               -0.26817591                0.89768056               -0.03701695                0.04218301               -0.00487818
               2.57878233                0.02132424               21.14673218                0.77852257               -0.19609423               -0.19605172                0.65560293               -0.03600154                0.07752446               -0.00251188
               3.57718263                0.01740434               21.09257163                0.76153306               -0.12378502               -0.12332894                0.41351153               -0.03623027                0.09818395               -0.00153653
               4.57630663                0.01347143               21.03855338                0.75226086               -0.05135949               -0.05067841                0.17140380               -0.03626410                0.10933638               -0.00072916
               5.57615545                0.00952356               20.98459794                0.75037000                0.02113764                0.02199205               -0.07071881               -0.03629411                0.11198973               -0.00002713
               6.57672939                0.00556017               20.93063023                0.75574401                0.09365441                0.09466422               -0.31285916               -0.03629610                0.10644464                0.00063667
               7.57802853                0.00158067               20.87657673                0.76847049                0.16615678                0.16732717               -0.55502226               -0.03630366                0.09271997                0.00131275
               8.58005252               -0.00241672               20.82236268                0.78884365                0.23865563                0.24004934               -0.79721187               -0.03622916                0.07057226                0.00205268
               9.58280165               -0.00643313               20.76790967                0.81737644                0.31107273                0.31242471               -1.03942724               -0.03718304                0.03935452                0.00287314
              10.58627398               -0.01049547               20.71312998                0.92020428                0.34723314                0.38785798               -1.28167260               -0.03728480                0.01932103                0.00434876
               0.58769455                1.02572780               21.25490493                0.83051113               -0.30396232               -0.34239411                1.13496962               -0.00096185                0.01502225               -0.00410758
               1.58465492                1.02254970               21.20006906                0.60556987               -0.26793328               -0.26766500                0.89275443               -0.00021800                0.04048413               -0.00526521
               2.58233588                1.01936372               21.14567857                0.54779330               -0.19540943               -0.19514035                0.65067586                0.00005325                0.07635145               -0.00300259
               3.58074673                1.01617105               21.09151153                0.51902355               -0.12257501               -0.12253085                0.40856758                0.00019733                0.09619623               -0.00181262
               4.57988438                1.01296465               21.03748493                0.50346083               -0.04993012               -0.04990440                0.16644276                0.00013224                0.10717637               -0.00098992
               5.57974813                1.00974348               20.98351990                0.50029444                0.02267449                0.02274214               -0.07569689                0.00008769                0.10972575               -0.00035313
               6.58033787                1.00650682               20.92954207                0.50924856                0.09529059                0.09539585               -0.31785536                0.00005495                0.10414040                0.00020036
               7.58165394                1.00325394               20.87547845                0.53052963                0.16796309                0.16805067               -0.56003906                0.00002049                0.09042904                0.00075356
               8.58369713                0.99998377               20.82125481                0.56483522                0.24076225                0.24073008               -0.80225218               -0.00020463                0.06832661                0.00138157
               9.58646919                0.99669112               20.76679287                0.61339393                0.31331671                0.31349516               -1.04449307               -0.00030775                0.03742817                0.00215907
              10.58996347                0.99338311               20.71201036                0.82635560                0.34942774                0.38793631               -1.28674643                0.00077538                0.01768065                0.00330255
               0.59048903                2.02231750               21.25380198                0.82324583               -0.30247933               -0.34004863                1.13006285               -0.00103032                0.01237294               -0.00318636
               1.58746424                2.01987816               21.19894373                0.59235796               -0.26634900               -0.26657346                0.88785010               -0.00042210                0.03998119               -0.00428926
               2.58516205                2.01742143               21.14457410                0.53847016               -0.19392933               -0.19360356                0.64580254               -0.00018081                0.07761104               -0.00307154
               3.58358565                2.01495372               21.09042026                0.51495328               -0.12126047               -0.12099298                0.40367443                0.00005582                0.09676633               -0.00193890
               4.58273684                2.01247334               21.03640097                0.50239630               -0.04853122               -0.04837930                0.16151293                0.00009902                0.10729702               -0.00112142
               5.58261503                2.00997840               20.98244042                0.49986115                0.02415899                0.02424909               -0.08067036                0.00005432                0.10961815               -0.00049004
               6.58322002                2.00746809               20.92846563                0.50703609                0.09684788                0.09689221               -0.32287517               -0.00001364                0.10393351                0.00002673
               7.58455199                2.00494168               20.87440481                0.52415786                0.16956167                0.16955728               -0.56510485               -0.00014881                0.09023159                0.00048564
               8.58661126                2.00239788               20.82018472                0.55202377                0.24220826                0.24228648               -0.80735918               -0.00037090                0.06825030                0.00093594
               9.58939615                1.99983677               20.76572835                0.59204910                0.31471185                0.31538165               -1.04962665               -0.00049146                0.03748807                0.00142627
              10.59290549                1.99726326               20.71095241                0.81229417                0.35093423                0.38859765               -1.29187403                0.00041973                0.01777478                0.00187466
               0.59255262                3.01892683               21.25270446                0.82268344               -0.30100695               -0.33824051                1.12514800               -0.00089198                0.01270545                0.00156066
               1.58954255                3.01721823               21.19784584                0.59156286               -0.26479585               -0.26529162                0.88294586               -0.00031932                0.04042661                0.00034129
               2.58725671                3.01549165               21.14347839                0.53804200               -0.19233079               -0.19232153                0.64089814               -0.00032042                0.07844621               -0.00025644
               3.58569594                3.01375119               21.08933229                0.51470246               -0.11975145               -0.11955396                0.39875795               -0.00014138                0.09782371               -0.00035829
               4.58486168                3.01199706               21.03531992                0.50229836               -0.04707335               -0.04688817                0.15656953               -0.00006622                0.10823786               -0.00035327
               5.58475447                3.01022846               20.98136506                0.49990541                0.02563201                0.02576365               -0.08564855               -0.00007947                0.11042489               -0.00036828
               6.58537432                3.00844466               20.92739480                0.50722266                0.09833540                0.09843116               -0.32789104               -0.00014828                0.10460954               -0.00046955
               7.58672118                3.00664509               20.87333735                0.52448903                0.17101553                0.17114514               -0.57015697               -0.00026228                0.09077666               -0.00071676
               8.58879463                3.00482950               20.81911950                0.55249613                0.24364023                0.24397777               -0.81244082               -0.00038404                0.06865272               -0.00116476
               9.59159398                3.00299875               20.76466396                0.59264489                0.31621313                0.31695190               -1.05472402               -0.00032321                0.03770910               -0.00187415
              10.59511889                3.00115506               20.70988695                0.81262714                0.35249069                0.38986561               -1.29696854                0.00057863                0.01788217               -0.00290678
               0.59388839                4.01555269               21.25162480                0.82214642               -0.29953518               -0.33664487                1.12022428               -0.00081523                0.01293691                0.00655150
               1.59089303                4.01457233               21.19675705                0.59081312               -0.26328478               -0.26385673                0.87802630               -0.00018771                0.04110368                0.00379554
               2.58862269                4.01357500               21.14238966                0.53764480               -0.19078103               -0.19095597                0.63597592               -0.00026356                0.07976336                0.00217622
               3.58707741                4.01256264               21.08824751                0.51446694               -0.11822231               -0.11813676                0.39382413               -0.00022500                0.09944840                0.00108553
               4.58625824                4.01153558               21.03424166                0.50221123               -0.04557863               -0.04541000                0.15161547               -0.00020118                0.10999896                0.00034526
               5.58616584                4.01049368               20.98029378                0.49996054                0.02710947                0.02727536               -0.09062915               -0.00021276                0.11215144               -0.00026881
               6.58680043                4.00943671               20.92632963                0.50741994                0.09980298                0.09997278               -0.33290071               -0.00024434                0.10617665               -0.00094657
               7.58816190                4.00836459               20.87227629                0.52483429                0.17247418                0.17272833               -0.57519425               -0.00028021                0.09207432               -0.00185964
               8.59024992                4.00727744               20.81805949                0.55300090                0.24511130                0.24556861               -0.81749998               -0.00028071                0.06958228               -0.00316499
               9.59306413                4.00617581               20.76360103                0.59332659                0.31772600                0.31845694               -1.05979508               -0.00018932                0.03819174               -0.00499443
              10.59660444                4.00506057               20.70881648                0.81302840                0.35403107                0.39127594               -1.30203819                0.00066089                0.01811556               -0.00743346
               0.59449705                5.01219393               21.25055568                0.82161071               -0.29805536               -0.33513519                1.11528438               -0.00076502                0.01329450                0.01073748
               1.59151649                5.01194110               21.19567233                0.59006659               -0.26179615               -0.26237959                0.87308641               -0.00006679                0.04209014                0.00657245
               2.58926112                5.01167253               21.14130221                0.53725319               -0.18928174               -0.18949834                0.63103406               -0.00015076                0.08168859                0.00399312
               3.58773086                5.01138845               21.08716353                0.51423976               -0.11672528               -0.11666883                0.38887454               -0.00022614                0.10187099                0.00218125
               4.58692662                5.01108886               21.03316519                0.50213447               -0.04408879               -0.04392249                0.14665234               -0.00028714                0.11269297                0.00087836
               5.58684908                5.01077397               20.97922651                0.50002669                0.02859515                0.02877831               -0.09561029               -0.00031405                0.11487890               -0.00019672
               6.58749852                5.01044412               20.92527086                0.50762738                0.10128861                0.10148890               -0.33790190               -0.00029922                0.10870589               -0.00132832
               7.58887485                5.01009966               20.87122307                0.52518734                0.17396359                0.17425501               -0.58021460               -0.00024397                0.09419150               -0.00279073
               8.59097779                5.00974087               20.81700685                0.55351021                0.24661053                0.24709241               -0.82253570               -0.00016060                0.07110147               -0.00484333
               9.59380706                5.00936789               20.76254233                0.59400983                0.31923988                0.31995927               -1.06483996               -0.00007301                0.03897758               -0.00770589
              10.59736259                5.00898058               20.70774404                0.81342995                0.35555254                0.39275497               -1.30708448                0.00072355                0.01849995               -0.01151515
               0.59437875                6.00884999               21.24948859                0.82107549               -0.29656511               -0.33368447                1.11032424               -0.00071007                0.01379654                0.01389304
               1.59141310                6.00932474               21.19458337                0.58932251               -0.26032154               -0.26088093                0.86812194                0.00006279                0.04348916                0.00836107
               2.58917232                6.00978503               21.14020963                0.53686776               -0.18782708               -0.18796013                0.62607068               -0.00003031                0.08441945                0.00504827
               3.58765656                6.01022926               21.08607604                0.51402215               -0.11526687               -0.11513847                0.38390913               -0.00022179                0.10530731                0.00277245
               4.58686698                6.01065713               21.03208849                0.50206938               -0.04261268               -0.04241488                0.14168107               -0.00036356                0.11652505                0.00116345
               5.58680430                6.01106924               20.97816311                0.50010509                0.03008907                0.03027018               -0.10059072               -0.00040201                0.11878399               -0.00015085
               6.58746876                6.01146649               20.92422004                0.50784593                0.10279793                0.10296911               -0.34289326               -0.00034203                0.11236198               -0.00152788
               7.58886026                6.01184969               20.87018091                0.52554880                0.17548544                0.17572318               -0.58521673               -0.00020097                0.09728307               -0.00332724
               8.59097847                6.01221928               20.81596631                0.55402424                0.24813472                0.24856223               -0.82754687               -0.00003400                0.07333836               -0.00592179
               9.59382296                6.01257500               20.76149369                0.59469437                0.32075223                0.32146168               -1.06985777                0.00005200                0.04014024               -0.00966062
              10.59739352                6.01291567               20.70667589                0.81383151                0.35705602                0.39429593               -1.31210687                0.00079339                0.01907470               -0.01478130
               0.59353335                7.00552024               21.24841175                0.82053999               -0.29506439               -0.33233391                1.10534184               -0.00062177                0.01450369                0.01562139
               1.59058270                7.00672348               21.19347901                0.58858080               -0.25886790               -0.25933025                0.86313105                0.00021463                0.04546186                0.00881480
               2.58835599                7.00791333               21.13910341                0.53649008               -0.18641897               -0.18632771                0.62108532                0.00003827                0.08823918                0.00512084
               3.58685432                7.00908568               21.08497955                0.51381630               -0.11383111               -0.11356891                0.37892837               -0.00029045                0.11005250                0.00276370
               4.58607937                7.01024056               21.03100895                0.50201822               -0.04113223               -0.04090848                0.13670239               -0.00046195                0.12176555                0.00116516
               5.58603168                7.01137937               20.97710354                0.50019784                0.03159341                0.03175049               -0.10556993               -0.00048569                0.12411734               -0.00011841
               6.58671123                7.01250350               20.92317959                0.50807767                0.10431819                0.10442814               -0.34787458               -0.00039349                0.11739813               -0.00147246
               7.58811804                7.01361412               20.86915482                0.52592053                0.17702849                0.17714692               -0.59020068               -0.00019342                0.10160894               -0.00330043
               8.59025180                7.01471212               20.81494549                0.55454404                0.24968383                0.24996824               -0.83253360                0.00007630                0.07652386               -0.00608707
               9.59311172                7.01579712               20.76046477                0.59538017                0.32226527                0.32295010               -1.07484848                0.00020571                0.04181783               -0.01040727
              10.59669711                7.01686650               20.70562241                0.81423273                0.35853908                0.39593305               -1.31710519                0.00089657                0.01991393               -0.01672051
               0.59195984                8.00220331               21.24730876                0.82000365               -0.29355323               -0.33122289                1.10033600               -0.00046278                0.01554024                0.01536340
               1.58902431                8.00413813               21.19234411                0.58784252               -0.25744789               -0.25759338                0.85811321                0.00030804                0.04829225                0.00739416
               2.58681088                8.00605848               21.13797279                0.53612366               -0.18503976               -0.18463749                0.61607880               -0.00011560                0.09359967                0.00407785
               3.58532351                8.00795789               21.08386792                0.51362579               -0.11234147               -0.11205978                0.37393347               -0.00044630                0.11650910                0.00216343
               4.58456405                8.00983896               21.02992385                0.50198428               -0.03959280               -0.03943284                0.13171707               -0.00053630                0.12872780                0.00090512
               5.58453166                8.01170425               20.97604788                0.50030814                0.03310486                0.03322327               -0.11054785               -0.00050808                0.13116375               -0.00008448
               6.58522615                8.01355506               20.92215249                0.50832572                0.10580594                0.10589769               -0.35284651               -0.00042419                0.12413552               -0.00114005
               7.58664777                8.01539263               20.86815131                0.52630571                0.17854236                0.17858624               -0.59516742               -0.00024347                0.10756647               -0.00262712
               8.58879700                8.01721865               20.81395527                0.55507230                0.25124573                0.25131867               -0.83749656                0.00007589                0.08107249               -0.00505123
               9.59167269                8.01903400               20.75947031                0.59606787                0.32378459                0.32434992               -1.07981202                0.00036274                0.04428712               -0.00928119
              10.59527269                8.02083433               20.70460000                0.81463316                0.35999996                0.39777278               -1.32207867                0.00106748                0.02118215               -0.01654219
               0.58965445                8.99889578               21.24615671                0.81946682               -0.29207524               -0.33061049                1.09530422               -0.00053271                0.01701547                0.01132434
               1.58673369                9.00157161               21.19115678                0.58711209               -0.25602625               -0.25553978                0.85306580                0.00001713                0.05257547                0.00383261
               2.58453392                9.00422058               21.13680667                0.53577446               -0.18343900               -0.18326470                0.61105223               -0.00035981                0.10133517                0.00219790
               3.58306491                9.00684449               21.08273587                0.51345526               -0.11058247               -0.11065222                0.36892561               -0.00049145                0.12512497                0.00114592
               4.58232227                9.00945191               21.02883102                0.50197155               -0.03797463               -0.03799226                0.12672552               -0.00040637                0.13768701                0.00047381
               5.58230542                9.01204384               20.97499636                0.50043978                0.03460524                0.03470265               -0.11552469               -0.00035948                0.14017326               -0.00004391
               6.58301438                9.01462145               20.92114155                0.50859429                0.10720785                0.10740710               -0.35780961               -0.00031642                0.13289479               -0.00060239
               7.58444958                9.01718584               20.86717701                0.52670918                0.17987868                0.18010517               -0.60011734               -0.00025967                0.11568130               -0.00142301
               8.58661195                9.01973849               20.81300896                0.55561428                0.25268567                0.25280490               -0.84243472               -0.00003387                0.08780058               -0.00284492
               9.58950329                9.02228412               20.75853319                0.59676042                0.32529216                0.32556800               -1.08474403                0.00031741                0.04819633               -0.00556797
              10.59311779                9.02482196               20.70363484                0.81503275                0.36145015                0.40001226               -1.32702099                0.00107101                0.02321378               -0.01207866
               0.58659753                9.99559110               21.24490323                0.90955554               -0.28976719               -0.33046838                1.09022940                0.03793177                0.02214107                0.00973130
               1.58369986                9.99902734               21.18989661                0.79331657               -0.25333594               -0.25442760                0.84798665                0.03672042                0.06068264                0.00286581
               2.58153081               10.00239318               21.13559991                0.76777630               -0.18087520               -0.18273925                0.60600567                0.03556405                0.11232751                0.00207792
               3.58008235               10.00574484               21.08158073                0.75667680               -0.10871186               -0.10996462                0.36390350                0.03604035                0.13610764                0.00113237
               4.57935657               10.00907912               21.02772955                0.75098776               -0.03637160               -0.03727914                0.12172680                0.03610324                0.14878469                0.00041264
               5.57935492               10.01239831               20.97394921                0.75026994                0.03606223                0.03544661               -0.12050072                0.03615394                0.15126625               -0.00022678
               6.58007782               10.01570320               20.92014832                0.75439266                0.10853104                0.10817449               -0.36276313                0.03616518                0.14387410               -0.00088849
               7.58152554               10.01899473               20.86623613                0.76349459                0.18101133                0.18088859               -0.60504823                0.03617370                0.12638743               -0.00169424
               8.58369804               10.02227475               20.81211682                0.77799223                0.25350156                0.25362547               -0.84734311                0.03614068                0.09794763               -0.00284877
               9.58659557               10.02554536               20.75768243                0.79861328                0.32601953                0.32612378               -1.08963166                0.03721943                0.05603405               -0.00472948
              10.59021843               10.02883458               20.70278675                0.90764990                0.36228617                0.40126183               -1.33190426                0.03898581                0.02910639               -0.01050167
               0.64036157                0.03018619               22.26728780                0.91781982               -0.30153715               -0.34012541                1.12783993               -0.03872719                0.01800814               -0.00478100
               1.63734619                0.02626859               22.21005992                0.80793919               -0.26565477               -0.26534644                0.88821074               -0.03662156                0.04232994               -0.00486926
               2.63504847                0.02237749               22.15325389                0.77786174               -0.19403394               -0.19399078                0.64871054               -0.03561627                0.07774755               -0.00248843
               3.63346551                0.01847388               22.09668526                0.76126163               -0.12249668               -0.12204057                0.40919581               -0.03584217                0.09840615               -0.00151799
               4.63259854                0.01455746               22.04025876                0.75219736               -0.05084340               -0.05016167                0.16966301               -0.03587493                0.10955262               -0.00071800
               5.63244865                0.01062624               21.98389492                0.75034799                0.02088210                0.02173723               -0.06988665               -0.03590441                0.11219461               -0.00002399
               6.63301618                0.00667966               21.92751861                0.75560246                0.09262866                0.09363787               -0.30945574               -0.03590666                0.10662913                0.00063171
               7.63430122                0.00271710               21.87105628                0.76804477                0.16436248                0.16552918               -0.54904834               -0.03591489                0.09287416                0.00129981
               8.63630343               -0.00126322               21.81443314                0.78795630                0.23609367                0.23747861               -0.78866667               -0.03584219                0.07068881                0.00203245
               9.63902309               -0.00526241               21.75757079                0.81582729                0.30774313                0.30908403               -1.02830813               -0.03678635                0.03942587                0.00284729
              10.64245829               -0.00930705               21.70038150                0.91916097                0.34351971                0.38371349               -1.26797471               -0.03688499                0.01935277                0.00433732
               0.64389189                1.02678493               22.26619491                0.82866735               -0.30075646               -0.33877354                1.12298273               -0.00094903                0.01505488               -0.00407990
               1.64088433                1.02361512               22.20894974                0.60311849               -0.26511176               -0.26484065                0.88334420               -0.00021203                0.04061010               -0.00522724
               2.63858966                1.02043758               22.15215131                0.54665711               -0.19336107               -0.19308821                0.64384213                0.00006037                0.07655134               -0.00293926
               3.63701711                1.01725348               22.09557601                0.51856164               -0.12130243               -0.12125058                0.40430845                0.00020666                0.09638849               -0.00176034
               4.63616361                1.01405584               22.03914097                0.50335288               -0.04943028               -0.04939578                0.16475602                0.00014464                0.10736339               -0.00095929
               5.63602850                1.01084361               21.98276735                0.50025710                0.02240369                0.02247910               -0.07481336                0.00010135                0.10990079               -0.00034829
               6.63661168                1.00761604               21.92638073                0.50901119                0.09425045                0.09436115               -0.31440297                0.00006784                0.10429225                0.00017842
               7.63791351                1.00437239               21.86990806                0.52981272                0.16615367                0.16624421               -0.55401786                0.00003092                0.09054616                0.00070615
               8.63993476                1.00111157               21.81327508                0.56332818                0.23818179                0.23815131               -0.79366054               -0.00019572                0.06840155                0.00131297
               9.64267715                0.99782843               21.75640356                0.61073033                0.30996660                0.31014233               -1.03332756               -0.00030108                0.03746360                0.00207905
              10.64613409                0.99453008               21.69921137                0.82455135                0.34569422                0.38378913               -1.27300227                0.00077047                0.01768357                0.00323859
               0.64668221                2.02341072               22.26504314                0.82153853               -0.29928971               -0.33644840                1.11812592               -0.00101698                0.01239460               -0.00313801
               1.64368931                2.02097177               22.20777559                0.59016331               -0.26354422               -0.26375806                0.87848884               -0.00041054                0.04011000               -0.00422480
               2.64141132                2.01851572               22.15099833                0.53752148               -0.19189613               -0.19156499                0.63901698               -0.00016285                0.07780227               -0.00298625
               3.63985139                2.01604887               22.09443604                0.51457301               -0.12000124               -0.11972732                0.39946432                0.00007787                0.09691606               -0.00186621
               4.63901130                2.01356954               22.03800797                0.50230757               -0.04804545               -0.04788631                0.15987697                0.00012492                0.10742937               -0.00107885
               5.63889048                2.01107582               21.98163840                0.49983024                0.02387315                0.02396933               -0.07973378                0.00008196                0.10973333               -0.00048556
               6.63948876                2.00856688               21.92525437                0.50684371                0.09579169                0.09583967               -0.31936729                0.00001274                0.10402385               -0.00000892
               7.64080631                2.00604198               21.86878406                0.52357433                0.16773538                0.16773188               -0.55902594               -0.00012590                0.09028925                0.00041274
               8.64284347                2.00349981               21.81215424                0.55078325                0.23961231                0.23968756               -0.79870828               -0.00035242                0.06827495                0.00083433
               9.64559856                2.00094044               21.75528801                0.58982035                0.31134702                0.31200472               -1.03840159               -0.00047925                0.03749624                0.00131314
              10.64907041                1.99836873               21.69810244                0.81077306                0.34718508                0.38443917               -1.27807148                0.00041826                0.01776642                0.00177826
               0.64874944                3.02005596               22.26389669                0.82098867               -0.29783253               -0.33465474                1.11325715               -0.00087950                0.01272769                0.00162043
               1.64577111                3.01833996               22.20662888                0.58938633               -0.26200682               -0.26248480                0.87362972               -0.00030642                0.04055025                0.00041403
               2.64350930                3.01660628               22.14985379                0.53710321               -0.19031342               -0.19029250                0.63415833               -0.00029719                0.07862071               -0.00018394
               3.64196484                3.01485893               22.09329913                0.51432755               -0.11850713               -0.11830081                0.39459550               -0.00011316                0.09794288               -0.00029846
               4.64113916                3.01309811               22.03687773                0.50221142               -0.04660221               -0.04641005                0.15498405               -0.00003446                0.10832786               -0.00031927
               5.64103280                3.01132300               21.98051352                0.49987322                0.02533101                0.02546684               -0.08465818               -0.00004637                0.11049194               -0.00036774
               6.64164578                3.00953283               21.92413367                0.50702581                0.09726343                0.09735941               -0.32432597               -0.00011659                0.10465070               -0.00050453
               7.64297807                3.00772703               21.86766638                0.52389771                0.16917341                0.16929833               -0.56401780               -0.00023446                0.09078898               -0.00078410
               8.64502925                3.00590532               21.81103852                0.55124468                0.24102848                0.24135498               -0.80372736               -0.00036224                0.06864208               -0.00125575
               9.64779864                3.00406853               21.75417298                0.59040288                0.31283154                0.31355172               -1.04343533               -0.00031080                0.03769787               -0.00197404
              10.65128588                3.00221886               21.69698637                0.81109893                0.34872400                0.38568852               -1.28310308                0.00057609                0.01786393               -0.00299682
               0.65009662                4.01671762               22.26276801                0.82046313               -0.29637557               -0.33307246                1.10837971               -0.00080346                0.01295740                0.00661822
               1.64713287                4.01572208               22.20549110                0.58865283               -0.26051082               -0.26106057                0.86875546               -0.00017573                0.04122185                0.00386543
               2.64488641                4.01470987               22.14871606                0.53671473               -0.18877902               -0.18893771                0.62928236               -0.00024062                0.07992448                0.00224080
               3.64335729                4.01368286               22.09216526                0.51409703               -0.11699326               -0.11689624                0.38970994               -0.00019630                0.09954501                0.00113574
               4.64254654                4.01264134               22.03575018                0.50212606               -0.04512271               -0.04494675                0.15008103               -0.00016894                0.11005850                0.00037270
               5.64245483                4.01158516               21.97939271                0.49992702                0.02679298                0.02696160               -0.08958463               -0.00017948                0.11218328               -0.00026994
               6.64308240                4.01051407               21.92301869                0.50721857                0.09871517                0.09888206               -0.32927834               -0.00021280                0.10618186               -0.00097803
               7.64442914                4.00942795               21.86655526                0.52423489                0.17061591                0.17086055               -0.56899491               -0.00025309                0.09205415               -0.00191885
               8.64649472                4.00832691               21.80992824                0.55173724                0.24248288                0.24292362               -0.80872412               -0.00026051                0.06954692               -0.00324514
               9.64927879                4.00721148               21.75305967                0.59106738                0.31432698                0.31503524               -1.04844293               -0.00017853                0.03816728               -0.00508501
              10.65278126                4.00608250               21.69586552                0.81148991                0.35024653                0.38707939               -1.28810992                0.00065738                0.01809108               -0.00752140
               0.65072446                5.01339452               22.26164974                0.81993920               -0.29491077               -0.33157772                1.10348919               -0.00075408                0.01331430                0.01080511
               1.64777535                5.01311875               22.20435722                0.58792298               -0.25903729               -0.25959693                0.86386418               -0.00005736                0.04220639                0.00663412
               2.64554371                5.01282752               22.14757943                0.53633208               -0.18729496               -0.18749369                0.62438967               -0.00013192                0.08184392                0.00404729
               3.64402945                5.01252101               22.09103203                0.51387496               -0.11551158               -0.11544273                0.38481085               -0.00020161                0.10195579                0.00222215
               4.64323348                5.01219918               22.03462434                0.50205109               -0.04364842               -0.04347474                0.14517013               -0.00025903                0.11273529                0.00090029
               5.64315648                5.01186223               21.97827590                0.49999188                0.02826281                0.02844798               -0.09451159               -0.00028511                0.11489005               -0.00019788
               6.64379873                5.01151047               21.92191019                0.50742156                0.10018456                0.10038059               -0.33422341               -0.00027239                0.10868970               -0.00135407
               7.64516017                5.01114424               21.86545213                0.52458000                0.17208870                0.17236872               -0.57395738               -0.00022187                0.09415218               -0.00283953
               8.64724051                5.01076379               21.80882554                0.55223460                0.24396511                0.24442843               -0.81370063               -0.00014517                0.07105184               -0.00491092
               9.65003947                5.01036923               21.75195082                0.59173392                0.31582348                0.31651883               -1.05342800               -0.00006527                0.03894571               -0.00778617
              10.65355698                5.00996045               21.69474293                0.81188141                0.35175044                0.38854078               -1.29309693                0.00071868                0.01847213               -0.01160129
               0.65063307                6.01008607               22.26053331                0.81941622               -0.29343609               -0.33014425                1.09858292               -0.00070030                0.01381720                0.01395862
               1.64769871                6.01053014               22.20321888                0.58719623               -0.25757815               -0.25811516                0.85895316                0.00006863                0.04360883                0.00841124
               2.64548151                6.01096000               22.14643749                0.53595593               -0.18585563               -0.18597255                0.61947968               -0.00001734                0.08457932                0.00509061
               3.64398160                6.01137400               22.08989514                0.51366262               -0.11406860               -0.11392924                0.37989895               -0.00020336                0.10539308                0.00280400
               4.64320014                6.01177185               22.03349819                0.50198786               -0.04218811               -0.04198359                0.14025262               -0.00034156                0.11656469                0.00118055
               5.64313784                6.01215412               21.97716297                0.50006897                0.02974047                0.02992379               -0.09943795               -0.00037938                0.11878984               -0.00015126
               6.64379495                6.01252168               21.92080973                0.50763574                0.10167721                0.10184510               -0.33916040               -0.00032181                0.11233958               -0.00154718
               7.64517138                6.01287532               21.86436022                0.52493376                0.17359357                0.17382156               -0.57890495               -0.00018565                0.09723839               -0.00336501
               8.64726682                6.01321547               21.80773517                0.55273713                0.24547221                0.24588311               -0.81865722               -0.00002479                0.07328535               -0.00597633
               9.65008082                6.01354185               21.75085228                0.59240240                0.31731886                0.31800603               -1.05839141                0.00005577                0.04010708               -0.00973020
              10.65361319                6.01385331               21.69362481                0.81227339                0.35323704                0.39006668               -1.29806534                0.00078676                0.01904658               -0.01486550
               0.64982231                7.00679163               22.25940694                0.81889341               -0.29195150               -0.32881237                1.09365844               -0.00061363                0.01452700                0.01568370
               1.64690279                7.00795645               22.20206491                0.58647250               -0.25614025               -0.25658461                0.85402006                0.00021655                0.04559115                0.00885260
               2.64469950                7.00910807               22.14528170                0.53558783               -0.18446283               -0.18436055                0.61455146                0.00004594                0.08841512                0.00515169
               3.64321353                7.01024242               22.08874913                0.51346215               -0.11264844               -0.11237863                0.37497440               -0.00027702                0.11015268                0.00278681
               4.64244653                7.01135951               22.03236914                0.50193862               -0.04072385               -0.04049436                0.13532911               -0.00044527                0.12181709                0.00117809
               5.64239906                7.01246071               21.97605387                0.50016051                0.03122819                0.03138843               -0.10436309               -0.00046876                0.12413300               -0.00011801
               6.64307110                7.01354737               21.91971973                0.50786316                0.10318051                0.10328990               -0.34408880               -0.00037909                0.11738446               -0.00148594
               7.64446267                7.01462067               21.86328454                0.52529799                0.17511935                0.17523258               -0.58383717               -0.00018388                0.10157258               -0.00332820
               8.64657348                7.01568145               21.80666472                0.55324580                0.24700410                0.24727748               -0.82359338                0.00007984                0.07647842               -0.00612959
               9.64940275                7.01672935               21.74977368                0.59307275                0.31881529                0.31948238               -1.06333244                0.00020535                0.04178978               -0.01046682
              10.65294979                7.01776179               21.69252159                0.81266535                0.35470394                0.39169030               -1.30301433                0.00088778                0.01988887               -0.01680300
               0.64829117                8.00350982               22.25825420                0.81836991               -0.29045674               -0.32771860                1.08871238               -0.00045707                0.01556830                0.01542113
               1.64538660                8.00539845               22.20088014                0.58575243               -0.25473580               -0.25487080                0.84906197                0.00030698                0.04843800                0.00741855
               2.64319645                8.00727279               22.14410132                0.53523112               -0.18309882               -0.18269254                0.60960388               -0.00010991                0.09380382                0.00409855
               3.64172462                8.00912643               22.08758784                0.51327712               -0.11117516               -0.11088864                0.37003713               -0.00043526                0.11663670                0.00217950
               4.64097295                8.01096196               22.03123447                0.50190660               -0.03920148               -0.03903590                0.13039980               -0.00052321                0.12880473                0.00091443
               5.64094059                8.01278189               21.97494870                0.50026957                0.03272275                0.03284567               -0.10928670               -0.00049541                0.13120308               -0.00008369
               6.64162740                8.01458748               21.91864317                0.50810695                0.10465158                0.10474551               -0.34900819               -0.00041368                0.12414445               -0.00114894
               7.64303363                8.01637997               21.86223161                0.52567575                0.17661623                0.17665978               -0.58875318               -0.00023697                0.10755160               -0.00264646
               8.64515973                8.01816102               21.80562511                0.55376311                0.24854860                0.24861805               -0.82850734                0.00007671                0.08104566               -0.00508258
               9.64800460                8.01993150               21.74872982                0.59374523                0.32031799                0.32087234               -1.06824820                0.00035905                0.04427087               -0.00932959
              10.65156609                8.02168712               21.69144967                0.81305666                0.35614903                0.39351503               -1.30794026                0.00105595                0.02116393               -0.01662044
               0.64603591                9.00023726               22.25705213                0.81784566               -0.28899458               -0.32711720                1.08373887               -0.00052711                0.01704998                0.01136811
               1.64314596                9.00285903               22.19964264                0.58503987               -0.25332945               -0.25284218                0.84407279                0.00001708                0.05274596                0.00384155
               2.64096932                9.00545422               22.14288523                0.53489157               -0.18151532               -0.18133815                0.60463516               -0.00035410                0.10158117                0.00220931
               3.63951566                9.00802465               22.08640601                0.51311209               -0.10943547               -0.10949839                0.36508623               -0.00048271                0.12529206                0.00115505
               4.63878061                9.01057879               22.03009200                0.50189586               -0.03760147               -0.03761184                0.12546416               -0.00039774                0.13780147                0.00047920
               5.63876363                9.01311762               21.97384769                0.50040002                0.03420627                0.03430919               -0.11420876               -0.00035152                0.14024894               -0.00004329
               6.63946474                9.01564228               21.91758286                0.50837126                0.10603783                0.10623983               -0.35391773               -0.00030972                0.13293940               -0.00060723
               7.64088438                9.01815386               21.86120807                0.52607167                0.17793773                0.17816456               -0.59365092               -0.00025477                0.11570121               -0.00143386
               8.64302349                9.02065381               21.80462966                0.55429392                0.24997245                0.25009145               -0.83339468               -0.00003278                0.08780513               -0.00286305
               9.64588383                9.02314680               21.74774362                0.59442218                0.32180875                0.32208144               -1.07313048                0.00031394                0.04820066               -0.00559759
              10.64945966                9.02563209               21.69043533                0.81344695                0.35758322                0.39573353               -1.31283306                0.00105888                0.02320786               -0.01213647
               0.64303708                9.99696747               22.25574817                0.90874902               -0.28671029               -0.32697833                1.07871727                0.03753007                0.02219896                0.00977630
               1.64016998               10.00034160               22.19833194                0.79228623               -0.25066656               -0.25174272                0.83904691                0.03632896                0.06089476                0.00287607
               2.63802375               10.00364602               22.14162827                0.76733800               -0.17897881               -0.18081985                0.59964237                0.03518595                0.11262917                0.00209186
               3.63659040               10.00693646               22.08520092                0.75650702               -0.10758629               -0.10881884                0.36011833                0.03565948                0.13632555                0.00114222
               4.63587202               10.01020972               22.02894083                0.75095056               -0.03601669               -0.03690676                0.12052020                0.03572184                0.14894902                0.00041768
               5.63587007               10.01346807               21.97275105                0.75024969                0.03564706                0.03504509               -0.11912950                0.03577188                0.15139140               -0.00022720
               6.63658496               10.01671228               21.91654038                0.75427971                0.10734669                0.10699920               -0.35881559                0.03578266                0.14396828               -0.00089481
               7.63801700               10.01994326               21.86021816                0.76317329                0.17905846                0.17894011               -0.59852606                0.03579064                0.12645709               -0.00170680
               8.64016613               10.02316285               21.80368871                0.77732822                0.25078003                0.25090400               -0.83824756                0.03575765                0.09800119               -0.00286842
               9.64303260               10.02637313               21.74684426                0.79743883                0.32252802                0.32263272               -1.07796304                0.03682392                0.05607872               -0.00475866
              10.64661669               10.02960179               21.68953868                0.90685379                0.35840922                0.39697048               -1.31766143                0.03856927                0.02913302               -0.01055724
               0.69896798                0.03125553               23.27850574                0.91683804               -0.29829562               -0.33646663                1.11570654               -0.03830720                0.01806752               -0.00478509
               1.69598503                0.02735445               23.21889450                0.80659685               -0.26280172               -0.26249608                0.87867073               -0.03622409                0.04247707               -0.00486332
               2.69371195                0.02347964               23.15970639                0.77720544               -0.19195725               -0.19191410                0.64176428               -0.03522949                0.07797014               -0.00246743
               3.69214588                0.01959248               23.10075554                0.76099179               -0.12119615               -0.12074193                0.40484308               -0.03545296                0.09862589               -0.00150122
               4.69128803                0.01569266               23.04194664                0.75213409               -0.05031964               -0.04964030                0.16790302               -0.03548491                0.10976370               -0.00070765
               5.69113949                0.01177822               22.98320021                0.75032606                0.02062920                0.02148127               -0.06905497               -0.03551391                0.11239159               -0.00002061
               6.69170061                0.00784858               22.92444112                0.75546180                0.09159986                0.09260455               -0.30603325               -0.03551628                0.10680364                0.00062797
               7.69297149                0.00390311               22.86559576                0.76762164                0.16255888                0.16371846               -0.54303539               -0.03552485                0.09301768                0.00128891
               8.69495179               -0.00005996               22.80658935                0.78707472                0.23351583                0.23488955               -0.78006269               -0.03545351                0.07079595                0.00201472
               9.69764180               -0.00404172               22.74734350                0.81428934                0.30439124                0.30571972               -1.01711138               -0.03638746                0.03949136                0.00282398
              10.70103961               -0.00806846               22.68777048                0.91812560                0.33978091                0.37954034               -1.25418211               -0.03648337                0.01938172                0.00432768
               0.70248600                1.02789087               23.27736458                0.82683701               -0.29752619               -0.33512804                1.11090795               -0.00093675                0.01508793               -0.00406002
               1.69951073                1.02472949               23.21773595                0.60068588               -0.26226794               -0.26199595                0.87386282               -0.00020755                0.04073527               -0.00519718
               2.69724064                1.02156049               23.15855542                0.54552983               -0.19129472               -0.19102097                0.63695372                0.00006400                0.07674815               -0.00288322
               3.69568484                1.01838506               23.09959770                0.51810276               -0.12001655               -0.11996052                0.40001213                0.00021082                0.09657447               -0.00171341
               4.69484031                1.01519626               23.04078005                0.50324551               -0.04892244               -0.04888280                0.16305066                0.00015080                0.10754084               -0.00093112
               5.69470639                1.01199303               22.98202364                0.50021998                0.02213493                0.02221492               -0.07392894                0.00010846                0.11006360               -0.00034261
               6.69528301                1.00877462               22.92325401                0.50877527                0.09320585                0.09331974               -0.31092945                0.00007466                0.10443062                0.00016056
               7.69657051                1.00554029               22.86439809                0.52910038                0.16433303                0.16442549               -0.54795514                0.00003645                0.09065047                0.00066553
               8.69856967                1.00228893               22.80538160                0.56183181                0.23558348                0.23555478               -0.78500742               -0.00019002                0.06846644                0.00125282
               9.70128218                0.99901548               22.74612632                0.60808842                0.30659255                0.30676647               -1.02208175               -0.00029587                0.03749351                0.00200781
              10.70470152                0.99572694               22.68655032                0.82276270                0.34193390                0.37961407               -1.25916070                0.00076456                0.01768441                0.00318221
               0.70527201                2.02455297               23.27616450                0.81984527               -0.29607603               -0.33282533                1.10610370               -0.00100434                0.01241631               -0.00310245
               1.70231125                2.02211453               23.21651351                0.58798799               -0.26071767               -0.26092403                0.86905950               -0.00040200                0.04023794               -0.00417413
               2.70005765                2.01965922               23.15735444                0.53658169               -0.18984559               -0.18951287                0.63217984               -0.00015171                0.07799137               -0.00291341
               3.69851434                2.01719327               23.09840954                0.51419578               -0.11872925               -0.11845304                0.39521949                0.00009030                0.09706179               -0.00180253
               4.69768307                2.01471500               23.03959851                0.50221943               -0.04755217               -0.04738954                0.15822391                0.00013938                0.10755522               -0.00104034
               5.69756329                2.01222252               22.98084575                0.49979954                0.02358892                0.02368855               -0.07879585                0.00009766                0.10983981               -0.00047947
               6.69815485                2.00971497               22.92207829                0.50665267                0.09473069                0.09478124               -0.31583893                0.00002799                0.10410433               -0.00003738
               7.69945791                2.00719162               22.86322429                0.52299497                0.16589770                0.16589560               -0.55290719               -0.00011209                0.09033735                0.00035169
               8.70147280                2.00465113               22.80421056                0.54955287                0.23699853                0.23707264               -0.78999835               -0.00034017                0.06829188                0.00074763
               9.70419788                2.00209361               22.74496032                0.58761294                0.30795831                0.30860666               -1.02709891               -0.00047003                0.03749995                0.00121578
              10.70763197                1.99952382               22.68539098                0.80926753                0.34340911                0.38025482               -1.26417388                0.00041555                0.01775627                0.00169606
               0.70734280                3.02123436               23.27496960                0.81930826               -0.29463470               -0.33104838                1.10128492               -0.00086796                0.01275020                0.00166704
               1.70439645                3.01951101               23.21531843                0.58722955               -0.25919675               -0.25966178                0.86424978               -0.00029728                0.04067416                0.00047223
               2.70215886                3.01777024               23.15616156                0.53617355               -0.18827957               -0.18825186                0.62737082               -0.00028175                0.07879571               -0.00012408
               3.70063086                3.01601600               23.09722420                0.51395573               -0.11725084               -0.11704039                0.39040122               -0.00009542                0.09806194               -0.00024754
               4.69981384                3.01424847               23.03841960                0.50212509               -0.04612413               -0.04592873                0.15338308               -0.00001491                0.10841612               -0.00028917
               5.69970838                3.01246681               22.97967190                0.49984124                0.02503125                0.02516928               -0.08366627               -0.00002597                0.11055545               -0.00036542
               6.70031447                3.01067025               22.92090828                0.50683035                0.09618653                0.09628288               -0.32074169               -0.00009675                0.10468709               -0.00053221
               7.70163211                3.00885820               22.86205699                0.52331084                0.16732001                0.16744246               -0.55784134               -0.00021649                0.09079627               -0.00083944
               8.70366087                3.00703039               22.80304495                0.55000380                0.23839920                0.23871857               -0.79495842               -0.00034740                0.06862721               -0.00133148
               9.70640009                3.00518761               22.74379526                0.58818284                0.30942652                0.31013306               -1.03207320               -0.00030192                0.03768415               -0.00205755
              10.70984940                3.00333204               22.68422489                0.80958666                0.34493103                0.38148801               -1.26914662                0.00057214                0.01784476               -0.00307197
               0.70870136                4.01793200               23.27379240                0.81879450               -0.29319323               -0.32948118                1.09645727               -0.00079262                0.01297851                0.00667483
               1.70576942                4.01692129               23.21413216                0.58651271               -0.25771657               -0.25825032                0.85942466               -0.00016735                0.04134173                0.00392385
               2.70354702                4.01589418               23.15497531                0.53579398               -0.18676129               -0.18690953                0.62254447               -0.00022490                0.08008900                0.00229548
               3.70203420                4.01485246               23.09604171                0.51373034               -0.11575291               -0.11564958                0.38556643               -0.00017697                0.09964544                0.00117906
               4.70123197                4.01379643               23.03724328                0.50204159               -0.04466035               -0.04448080                0.14853245               -0.00014741                0.11012093                0.00039721
               5.70114099                4.01272591               22.97850208                0.49989377                0.02647748                0.02664728               -0.08853846               -0.00015724                0.11221648               -0.00026962
               6.70176152                4.01164063               22.91974406                0.50701874                0.09762239                0.09778745               -0.32563790               -0.00019159                0.10618707               -0.00100377
               7.70309344                4.01054046               22.86089639                0.52364020                0.16874653                0.16898524               -0.56276057               -0.00023459                0.09203326               -0.00196872
               8.70513645                4.00942551               22.80188500                0.55048461                0.23983732                0.24026701               -0.79989602               -0.00024649                0.06951064               -0.00331344
               9.70789018                4.00829627               22.74263217                0.58883094                0.31090506                0.31159725               -1.03702109               -0.00017092                0.03814209               -0.00516287
              10.71135455                4.00715358               22.68305428                0.80996780                0.34643628                0.38286133               -1.27409428                0.00065255                0.01806631               -0.00759796
               0.70934837                5.01464474               23.27262547                0.81828246               -0.29174398               -0.32800213                1.09161824               -0.00074394                0.01333499                0.01086794
               1.70643093                5.01434600               23.21294961                0.58579968               -0.25625866               -0.25680125                0.85458431               -0.00005069                0.04232535                0.00668995
               2.70422319                5.01403205               23.15379000                0.53542038               -0.18529296               -0.18548004                0.61770301               -0.00011845                0.08200467                0.00409634
               3.70272507                5.01370301               23.09485975                0.51351342               -0.11428700               -0.11421114                0.38071936               -0.00018387                0.10204708                0.00225949
               4.70193745                5.01335885               23.03606859                0.50196840               -0.04320192               -0.04302459                0.14367468               -0.00023854                0.11278353                0.00092076
               5.70186103                5.01299975               22.97733628                0.49995735                0.02793127                0.02811713               -0.09341104               -0.00026391                0.11490572               -0.00019822
               6.70249608                5.01262600               22.91858639                0.50721735                0.09907552                0.09926875               -0.33052731               -0.00025272                0.10867657               -0.00137680
               7.70384254                5.01223791               22.85974392                0.52397755                0.17020283                0.17047559               -0.56766625               -0.00020574                0.09411487               -0.00288350
               8.70590014                5.01183573               22.80073284                0.55097033                0.24130278                0.24175373               -0.80481494               -0.00013398                0.07100348               -0.00497254
               9.70866860                5.01141955               22.74147377                0.58948120                0.31238451                0.31306305               -1.04194826               -0.00005971                0.03891433               -0.00786021
              10.71214783                5.01098927               22.68188211                0.81034960                0.34792302                0.38430581               -1.27902382                0.00071285                0.01844455               -0.01168208
               0.70928395                6.01137196               23.27146025                0.81777162               -0.29028514               -0.32658554                1.08676609               -0.00069108                0.01383883                0.01402513
               1.70638110                6.01178527               23.21176243                0.58509016               -0.25481520               -0.25533616                0.84972696                0.00007283                0.04373148                0.00846178
               2.70418765                6.01218458               23.15259923                0.53505340               -0.18386913               -0.18397585                0.61284660               -0.00000741                0.08474513                0.00513308
               3.70270372                6.01256824               23.09367402                0.51330629               -0.11285962               -0.11271448                0.37586121               -0.00018863                0.10548603                0.00283563
               4.70193045                6.01293594               23.03489354                0.50190705               -0.04175754               -0.04154997                0.13881123               -0.00032358                0.11661103                0.00119777
               5.70186856                6.01328825               22.97617436                0.50003319                0.02939261                0.02957668               -0.09828298               -0.00036074                0.11880101               -0.00015147
               6.70251831                6.01362601               22.91743683                0.50742719                0.10055147                0.10071725               -0.33540951               -0.00030514                0.11232101               -0.00156628
               7.70387959                6.01394998               22.85860281                0.52432367                0.17169070                0.17191266               -0.57255877               -0.00017317                0.09719635               -0.00340271
               8.70595212                6.01426058               22.79959317                0.55146144                0.24279281                0.24319275               -0.80971639               -0.00001752                0.07323407               -0.00603118
               9.70873545                6.01455753               22.74032586                0.59013376                0.31386296                0.31453443               -1.04685663                0.00005858                0.04007474               -0.00980062
              10.71222938                6.01483970               22.68071458                0.81073204                0.34939278                0.38581592               -1.28393755                0.00077959                0.01901892               -0.01495107
               0.70850793                7.00811302               23.27028491                0.81726117               -0.28881664               -0.32527093                1.08189797               -0.00060582                0.01455126                0.01575126
               1.70561977                7.00923928               23.21055941                0.58438390               -0.25339297               -0.25382437                0.84484996                0.00021781                0.04572308                0.00889536
               2.70344007                7.01035253               23.15139443                0.53469466               -0.18249155               -0.18238320                0.60797415                0.00005251                0.08859629                0.00518660
               3.70196993                7.01144872               23.09247903                0.51311114               -0.11145499               -0.11118214                0.37099202               -0.00026475                0.11025903                0.00281276
               4.70121097                7.01252785               23.03371553                0.50185968               -0.04030943               -0.04007769                0.13394264               -0.00042969                0.12187417                0.00119238
               5.70116375                7.01359128               22.97501627                0.50012348                0.03086371                0.03102533               -0.10315362               -0.00045276                0.12415274               -0.00011781
               6.70182825                7.01464034               22.91629782                0.50765028                0.10203779                0.10214695               -0.34028388               -0.00036534                0.11737333               -0.00150124
               7.70320450                7.01567616               22.85747808                0.52468032                0.17319915                0.17330961               -0.57743745               -0.00017464                0.10153761               -0.00335939
               8.70529223                7.01669958               22.79847362                0.55195892                0.24430733                0.24457376               -0.81459956                0.00008333                0.07643362               -0.00617699
               9.70809065                7.01771024               22.73919812                0.59078845                0.31534255                0.31599678               -1.05174520                0.00020499                0.04176190               -0.01053231
              10.71159908                7.01870559               22.67956212                0.81111465                0.35084325                0.38742409               -1.28883439                0.00087881                0.01986407               -0.01689169
               0.70701933                8.00486654               23.26908301                0.81675007               -0.28733814               -0.32419245                1.07700923               -0.00045151                0.01559726                0.01548561
               1.70414595                8.00670878               23.20932535                0.58368140               -0.25200391               -0.25213173                0.83994904                0.00030576                0.04858585                0.00744941
               2.70197925                8.00853691               23.15016487                0.53434738               -0.18114254               -0.18073588                0.60308334               -0.00010425                0.09401202                0.00412470
               3.70052310                8.01034460               23.09126866                0.51293147               -0.10999793               -0.10971024                0.36611086               -0.00042403                0.11676876                0.00219939
               4.69977929                8.01213438               23.03253184                0.50182956               -0.03880402               -0.03863604                0.12906872               -0.00050971                0.12888522                0.00092559
               5.69974702                8.01390875               22.97386214                0.50023131                0.03234145                0.03246666               -0.10802258               -0.00048214                0.13124439               -0.00008318
               6.70042612                8.01566895               22.91517233                0.50788981                0.10349221                0.10358755               -0.34514942               -0.00040238                0.12415375               -0.00116026
               7.70181686                8.01741617               22.85637625                0.52505056                0.17467900                0.17472295               -0.58230049               -0.00022955                0.10753598               -0.00267029
               8.70391970                8.01915206               22.79738513                0.55246503                0.24583424                0.24590222               -0.81946138                0.00007839                0.08101764               -0.00512013
               9.70673355                8.02087747               22.73810535                0.59144536                0.31682830                0.31737441               -1.05660951                0.00035587                0.04425375               -0.00938531
              10.71025627                8.02258818               22.67844119                0.81149665                0.35227219                0.38923141               -1.29370912                0.00104452                0.02114565               -0.01670615
               0.70481443                9.00162918               23.26783148                0.81623806               -0.28589179               -0.32360037                1.07209212               -0.00052148                0.01708551                0.01141666
               1.70195551                9.00419664               23.20803824                0.58298627               -0.25061279               -0.25012659                0.83501609                0.00001703                0.05291837                0.00385496
               2.69980217                9.00673781               23.14889938                0.53401718               -0.17957624               -0.17939855                0.59817067               -0.00034823                0.10183057                0.00222458
               3.69836398                9.00925451               23.09003760                0.51277177               -0.10827750               -0.10833640                0.36121566               -0.00047364                0.12546262                0.00116687
               4.69763662                9.01175513               23.03134030                0.50182079               -0.03722209               -0.03722815                0.12418838               -0.00038864                0.13791832                0.00048593
               5.69761954                9.01424062               22.97271219                0.50036062                0.03380822                0.03391411               -0.11288978               -0.00034295                0.14032525               -0.00004281
               6.69831279                9.01671209               22.91406320                0.50814982                0.10486293                0.10506596               -0.35000460               -0.00030230                0.13298285               -0.00061368
               7.69971680                9.01917062               22.85530399                0.52543894                0.17598575                0.17621224               -0.58714450               -0.00024908                0.11571874               -0.00144774
               8.70183250                9.02161763               22.79634107                0.55298449                0.24724201                0.24736104               -0.82429571               -0.00003094                0.08780700               -0.00288536
               9.70466164                9.02405773               22.73707058                0.59210660                0.31830213                0.31857257               -1.06143932                0.00031094                0.04820308               -0.00563208
              10.70819854                9.02649021               22.67737818                0.81187749                0.35369019                0.39142698               -1.29854953                0.00104699                0.02320131               -0.01219922
               0.70187397                9.99839453               23.26647758                0.90794920               -0.28363163               -0.32346407                1.06712396                0.03712559                0.02225833                0.00982398
               1.69903765               10.00170625               23.20667755                0.79126514               -0.24797774               -0.24903932                0.83004365                0.03593486                0.06110941                0.00288864
               2.69691441               10.00494894               23.14759276                0.76690392               -0.17706732               -0.17888688                0.59323166                0.03480542                0.11293508                0.00210782
               3.69549631               10.00817787               23.08878310                0.75633865               -0.10644986               -0.10766456                0.35630190                0.03527619                0.13654792                0.00115342
               4.69478542               10.01138982               23.03013996                0.75091369               -0.03565557               -0.03653096                0.11929900                0.03533806                0.14911682                0.00042339
               5.69478320               10.01458704               22.97156662                0.75022959                0.03523290                0.03464189               -0.11775553                0.03538749                0.15151810               -0.00022770
               6.69549008               10.01777026               22.91297201                0.75416757                0.10615763                0.10581703               -0.35484716                0.03539785                0.14406186               -0.00090191
               7.69690635               10.02094041               22.85426561                0.76285437                0.17709480                0.17697945               -0.59196422                0.03540531                0.12652444               -0.00172085
               8.69903197               10.02409928               22.79535187                0.77666970                0.24804152                0.24816496               -0.82909328                0.03537233                0.09805175               -0.00289009
               9.70186718               10.02724892               22.73612317                0.79627570                0.31901356                0.31911865               -1.06621677                0.03642593                0.05612098               -0.00479013
              10.70541224               10.03041672               22.67643353                0.90606586                0.35450644                0.39265061               -1.30332282                0.03815024                0.02915845               -0.01061505
               0.75994540                0.03237281               24.28960193                0.91586312               -0.29503126               -0.33278241                1.10348823               -0.03788478                0.01812717               -0.00479134
               1.75699509                0.02848843               24.22763334                0.80526426               -0.25992834               -0.25962547                0.86906284               -0.03582428                0.04262403               -0.00485921
               2.75474683                0.02463009               24.16608917                0.77655398               -0.18986499               -0.18982228                0.63476671               -0.03484072                0.07819199               -0.00244805
               3.75319779                0.02075955               24.10478212                0.76072368               -0.11988452               -0.11943347                0.40045582               -0.03506203                0.09884384               -0.00148565
               4.75234914                0.01687649               24.04361682                0.75207125               -0.04978939               -0.04911452                0.16612578               -0.03509333                0.10997143               -0.00069787
               5.75220200                0.01297898               23.98251382                0.75030431                0.02037778                0.02122423               -0.06822262               -0.03512191                0.11258355               -0.00001716
               6.75275670                0.00906643               23.92139795                0.75532200                0.09056714                0.09156464               -0.30259173               -0.03512430                0.10697185                0.00062493
               7.75401334                0.00513822               23.86019557                0.76720129                0.16074556                0.16189567               -0.53698473               -0.03513303                0.09315447                0.00127916
               8.75597161                0.00119258               23.79883189                0.78619926                0.23092226                0.23228307               -0.77140243               -0.03506278                0.07089716                0.00199844
               9.75863179               -0.00277155               23.73722856                0.81276316                0.30101773                0.30233284               -1.00584036               -0.03598622                0.03955315                0.00280219
              10.76199196               -0.00678016               23.67529786                0.91709851                0.33601762                0.37533953               -1.24029838               -0.03607970                0.01940889                0.00431907
               0.76345093                1.02904498               24.28841307                0.82502062               -0.29427240               -0.33145771                1.09874738               -0.00092482                0.01512110               -0.00404498
               1.76050820                1.02589218               24.22642699                0.59827281               -0.25940288               -0.25913130                0.86431269               -0.00020392                0.04085951               -0.00517198
               2.75826287                1.02273187               24.16489038                0.54441182               -0.18921174               -0.18893896                0.63001333                0.00006558                0.07694242               -0.00283179
               3.75672397                1.01956521               24.10357625                0.51764715               -0.11871884               -0.11866094                0.39568109                0.00021188                0.09675604               -0.00166996
               4.75588849                1.01638534               24.04240198                0.50313875               -0.04840792               -0.04836560                0.16132843                0.00015320                0.10771188               -0.00090468
               5.75575581                1.01319122               23.98128877                0.50018306                0.02186726                0.02194961               -0.07304286                0.00011160                0.11021839               -0.00033657
               6.75632584                1.00998208               23.92016214                0.50854092                0.09215638                0.09227185               -0.30743535                0.00007780                0.10456021                0.00014510
               7.75759894                1.00675717               23.85894896                0.52839298                0.16250138                0.16259491               -0.54185276                0.00003903                0.09074648                0.00062896
               8.75957586                1.00351541               23.79757494                0.56034670                0.23296808                0.23294110               -0.77629589               -0.00018623                0.06852491                0.00119775
               9.76225830                1.00025178               23.73596192                0.60546908                0.30319569                0.30336829               -1.01075947               -0.00029152                0.03751997                0.00194183
              10.76563978                0.99697323               23.67402815                0.82099023                0.33814803                0.37541175               -1.24522576                0.00075796                0.01768404                0.00313026
               0.76623251                2.02574365               24.28716521                0.81816637               -0.29283896               -0.32917883                1.09399722               -0.00099212                0.01243792               -0.00307492
               1.76330412                2.02330581               24.22515678                0.58583246               -0.25787012               -0.25807110                0.85956315               -0.00039529                0.04036470               -0.00413205
               2.76107511                2.02085131               24.16364193                0.53565107               -0.18777876               -0.18744695                0.62529251               -0.00014470                0.07817813               -0.00284845
               3.75954855                2.01838633               24.10234043                0.51382166               -0.11744577               -0.11716997                0.39094144                0.00009687                0.09720413               -0.00174470
               4.75872619                2.01590918               24.04117245                0.50213191               -0.04705255               -0.04688894                0.15655507                0.00014681                0.10767628               -0.00100462
               5.75860750                2.01341797               23.98006248                0.49976904                0.02330544                0.02340664               -0.07785576                0.00010598                0.10994019               -0.00047261
               6.75919230                2.01091187               23.91893759                0.50646295                0.09366453                0.09371669               -0.31229006                0.00003636                0.10417802               -0.00006157
               7.76048079                2.00839011               23.85772591                0.52242004                0.16404878                0.16404816               -0.54674937               -0.00010390                0.09037895                0.00029784
               8.76247328                2.00585140               23.79635427                0.54833293                0.23436753                0.23444146               -0.78123097               -0.00033172                0.06830370                0.00066997
               9.76516814                2.00329581               23.73474603                0.58542737                0.30454666                0.30518727               -1.01572086               -0.00046261                0.03750076                0.00112785
              10.76856421                2.00072807               23.67281896                0.80777788                0.33960744                0.37604435               -1.25018381                0.00041202                0.01774499                0.00162210
               0.76830678                3.02246140               24.28592238                0.81764227               -0.29141386               -0.32742010                1.08923087               -0.00085701                0.01277270                0.00170521
               1.76539264                3.02073075               24.22391387                0.58509267               -0.25636613               -0.25682140                0.85480546               -0.00029052                0.04079749                0.00052118
               2.76317945                3.01898293               24.16240121                0.53525305               -0.18622995               -0.18619864                0.62053548               -0.00027126                0.07896974               -0.00007231
               3.76166804                3.01722181               24.10110716                0.51358711               -0.11598353               -0.11577205                0.38617556               -0.00008434                0.09817974               -0.00020244
               4.76085978                3.01544757               24.03994539                0.50203950               -0.04564010               -0.04544400                0.15176747               -0.00000313                0.10850227               -0.00026172
               5.76075524                3.01365935               23.97884020                0.49980951                0.02473198                0.02487066               -0.08267187               -0.00001366                0.11061583               -0.00036218
               6.76135442                3.01185641               23.91771883                0.50663638                0.09510430                0.09520080               -0.31713737               -0.00008448                0.10471966               -0.00055544
               7.76265732                3.01003814               23.85650956                0.52272854                0.16545535                0.16557645               -0.55162704               -0.00020481                0.09079973               -0.00088733
               8.76466353                3.00820424               23.79513935                0.54877370                0.23575279                0.23606724               -0.78613385               -0.00033699                0.06860919               -0.00139780
               9.76737238                3.00635552               23.73353152                0.58598502                0.30599871                0.30669458               -1.02063782               -0.00029526                0.03766852               -0.00213105
              10.77078350                3.00449412               23.67160344                0.80809044                0.34111252                0.37726276               -1.25509971                0.00056723                0.01782481               -0.00313813
               0.76967667                4.01919525               24.28469716                0.81714040               -0.28998831               -0.32586918                1.08445535               -0.00078243                0.01299988                0.00672484
               1.76677679                4.01816938               24.22267960                0.58439271               -0.25490222               -0.25542409                0.85003203               -0.00016136                0.04146187                0.00397476
               2.76457863                4.01712734               24.16116695                0.53488252               -0.18472828               -0.18486990                0.61576100               -0.00021397                0.08025427                0.00234361
               3.76308222                4.01607089               24.09987659                0.51336688               -0.11450199               -0.11439578                0.38139325               -0.00016390                0.09974698                0.00121775
               4.76228859                4.01500030               24.03872083                0.50195776               -0.04419238               -0.04401181                0.14697023               -0.00013307                0.11018405                0.00041967
               5.76219838                4.01391539               23.97762194                0.49986079                0.02616224                0.02633197               -0.08748955               -0.00014243                0.11224955               -0.00026844
               6.76281183                4.01281588               23.91650593                0.50682041                0.09652421                0.09668780               -0.32197792               -0.00017730                0.10619144               -0.00102583
               7.76412886                4.01170164               23.85530005                0.52305022                0.16686593                0.16710067               -0.55648958               -0.00022188                0.09201116               -0.00201251
               8.76614915                4.01057275               23.79393032                0.54924304                0.23717477                0.23759666               -0.79101403               -0.00023658                0.06947325               -0.00337409
               9.76887236                4.00942971               23.73231925                0.58661712                0.30746058                0.30814072               -1.02552805               -0.00016541                0.03811622               -0.00523260
              10.77229836                4.00827333               23.67038364                0.80846203                0.34260075                0.37861962               -1.25999011                0.00064681                0.01804138               -0.00766725
               0.77034287                5.01594402               24.28348210                0.81664034               -0.28855497               -0.32440633                1.07966925               -0.00073434                0.01335615                0.01092744
               1.76745732                5.01562227               24.22144891                0.58369655               -0.25346030               -0.25399033                0.84524417               -0.00004598                0.04244523                0.00674162
               2.76527367                5.01528553               24.15993349                0.53451791               -0.18327604               -0.18345558                0.61097220               -0.00010885                0.08216747                0.00414168
               3.76379180                5.01493390               24.09864641                0.51315513               -0.11305219               -0.11297286                0.37659931               -0.00017109                0.10214120                0.00229422
               4.76301262                5.01456733               24.03749783                0.50188645               -0.04275006               -0.04257165                0.14216629               -0.00022364                0.11283450                0.00094014
               5.76293680                5.01418599               23.97640768                0.49992313                0.02759984                0.02778527               -0.09230749               -0.00024842                0.11492343               -0.00019795
               6.76356462                5.01379017               23.91529964                0.50701468                0.09796102                0.09815208               -0.32681186               -0.00023833                0.10866471               -0.00139727
               7.76489602                5.01338015               23.85409881                0.52337995                0.16830577                0.16857359               -0.56133908               -0.00019397                0.09407822               -0.00292387
               8.76693073                5.01295618               23.79272925                0.54971736                0.23862360                0.23906581               -0.79587627               -0.00012590                0.07095542               -0.00502977
               9.76966849                5.01251834               23.73111186                0.58725150                0.30892317                0.30958929               -1.03039838               -0.00005577                0.03888308               -0.00792979
              10.77310920                5.01206651               23.66916245                0.80883434                0.34407051                0.38004756               -1.26486316                0.00070628                0.01841719               -0.01175919
               0.77030548                6.01270712               24.28226863                0.81614156               -0.28711215               -0.32300632                1.07487140               -0.00068227                0.01386097                0.01409183
               1.76743436                6.01308957               24.22021342                0.58300402               -0.25203273               -0.25254182                0.84044081                0.00007567                0.04385531                0.00851185
               2.76526483                6.01345823               24.15869442                0.53416006               -0.18186791               -0.18196832                0.60616979               -0.00000011                0.08491357                0.00517498
               3.76379700                6.01381143               24.09741237                0.51295317               -0.11164057               -0.11149306                0.37179530               -0.00017717                0.10558258                0.00286688
               4.76303202                6.01414886               24.03627442                0.50182692               -0.04132173               -0.04111362                0.13735723               -0.00030921                0.11666093                0.00121494
               5.76297057                6.01447109               23.97519731                0.49999774                0.02904477                0.02922845               -0.09712470               -0.00034569                0.11881507               -0.00015134
               6.76361291                6.01477893               23.91410154                0.50722020                0.09942023                0.09958438               -0.33163899               -0.00029172                0.11230452               -0.00158471
               7.76495897                6.01507311               23.85290904                0.52371848                0.16977665                0.16999464               -0.56617626               -0.00016330                0.09715565               -0.00343957
               8.76700845                6.01535407               23.79154084                0.55019714                0.24009657                0.24048887               -0.80072226               -0.00001206                0.07318356               -0.00608521
               9.76976090                6.01562149               23.72991515                0.58788827                0.31038472                0.31104447               -1.03525139                0.00006045                0.04004274               -0.00987055
              10.77321614                6.01587428               23.66794606                0.80920733                0.34552351                0.38154141               -1.26972188                0.00077195                0.01899158               -0.01503676
               0.76956433                7.00948389               24.28104490                0.81564323               -0.28565986               -0.32170806                1.07005892               -0.00059829                0.01457603                0.01582164
               1.76670773                7.01057144               24.21896191                0.58231495               -0.25062625               -0.25104799                0.83561919                0.00021822                0.04585615                0.00894049
               2.76455181                7.01164616               24.15744118                0.53381050               -0.18050561               -0.18039441                0.60135252                0.00005758                0.08877998                0.00522341
               3.76309762                7.01270403               24.09616897                0.51276327               -0.11025152               -0.10997860                0.36698111               -0.00025425                0.11036877                0.00284003
               4.76234677                7.01374506               24.03504799                0.50178143               -0.03988982               -0.03965821                0.13254353               -0.00041597                0.12193455                0.00120743
               5.76229982                7.01477056               23.97399079                0.50008681                0.03049924                0.03066088               -0.10194052               -0.00043855                0.12417508               -0.00011746
               6.76295676                7.01578186               23.91291405                0.50743901                0.10088957                0.10099846               -0.33645865               -0.00035309                0.11736393               -0.00151702
               7.76431761                7.01678004               23.85173579                0.52406754                0.17126775                0.17137673               -0.57100041               -0.00016650                0.10150360               -0.00339175
               8.76638211                7.01776595               23.79037273                0.55068333                0.24159367                0.24185550               -0.80555114                0.00008616                0.07638924               -0.00622620
               9.76914949                7.01873923               23.72873878                0.58852729                0.31184740                0.31249167               -1.04008599                0.00020434                0.04173409               -0.01060022
              10.77261906                7.01969734               23.66674490                0.80958060                0.34695748                0.38313296               -1.27456503                0.00086966                0.01983941               -0.01698324
               0.76811843                8.00627296               24.27979439                0.81514428               -0.28419768               -0.32064365                1.06522636               -0.00044611                0.01562682                0.01555386
               1.76527646                8.00806861               24.21767912                0.58162970               -0.24925260               -0.24937542                0.83077423                0.00030407                0.04873472                0.00748364
               2.76313338                8.00985034               24.15616299                0.53347246               -0.17917158               -0.17876687                0.59651741               -0.00009933                0.09422230                0.00415362
               3.76169303                8.01161186               24.09491006                0.51258885               -0.10881066               -0.10852419                0.36215537               -0.00041361                0.11690360                0.00222125
               4.76095717                8.01335570               24.03381584                0.50175320               -0.03840136               -0.03823315                0.12772478               -0.00049703                0.12896832                0.00093783
               5.76092500                8.01508431               23.97278825                0.50019339                0.03196017                0.03208610               -0.10675460               -0.00046959                0.13128752               -0.00008255
               6.76159637                8.01679890               23.91174018                0.50767425                0.10232736                0.10242340               -0.34126960               -0.00039157                0.12416391               -0.00117245
               7.76297155                8.01850065               23.85058560                0.52443022                0.17273057                0.17277520               -0.57580924               -0.00022234                0.10752042               -0.00269597
               8.76505098                8.02019118               23.78923588                0.55117820                0.24310294                0.24317057               -0.81035919                0.00008010                0.08098924               -0.00516045
               9.76783360                8.02187133               23.72759763                0.58916853                0.31331613                0.31385555               -1.04489692                0.00035276                0.04423609               -0.00944445
              10.77131731                8.02353694               23.66557549                0.80995323                0.34837016                0.38492145               -1.27938659                0.00103310                0.02112713               -0.01679535
               0.76596411                9.00307102               24.27849397                0.81464433               -0.28276727               -0.32005986                1.06036483               -0.00051584                0.01712166                0.01146790
               1.76313644                9.00558393               24.21634296                0.58095165               -0.24787682               -0.24739294                0.82589668                0.00001680                0.05309176                0.00387066
               2.76100657                9.00807083               24.15484864                0.53315145               -0.17762256               -0.17744586                0.59166005               -0.00034267                0.10208194                0.00224177
               3.75958399                9.01053355               24.09363032                0.51243445               -0.10710955               -0.10716628                0.35731539               -0.00046493                0.12563572                0.00118012
               4.75886438                9.01298039               24.03257577                0.50174636               -0.03683752               -0.03684124                0.12289953               -0.00037993                0.13803747                0.00049344
               5.75884724                9.01541229               23.97158990                0.50032149                0.03341024                0.03351734               -0.11156684               -0.00033471                0.14040297               -0.00004221
               6.75953259                9.01783032               23.91058277                0.50792997                0.10368262                0.10388544               -0.34607002               -0.00029504                0.13302661               -0.00062071
               7.76092089                9.02023555               23.84946518                0.52481106                0.17402266                0.17424825               -0.58059875               -0.00024335                0.11573561               -0.00146287
               8.76301304                9.02262936               23.78814375                0.55168642                0.24449466                0.24461382               -0.81513935               -0.00002893                0.08780772               -0.00290959
               9.76581078                9.02501634               23.72651484                0.58981408                0.31477298                0.31504166               -1.04967286                0.00030810                0.04820458               -0.00566889
              10.76930850                9.02739577               23.66446434                0.81032469                0.34977190                0.38709300               -1.28417314                0.00103522                0.02319447               -0.01226408
               0.76308230                9.99987176               24.27709065                0.90715630               -0.28053160               -0.31992575                1.05545069                0.03671830                0.02231848                0.00987316
               1.76027699               10.00312075               24.21493281                0.79025347               -0.24526995               -0.24631760                0.82097822                0.03553801                0.06132539                0.00290237
               2.75817691               10.00630142               24.15349290                0.76647411               -0.17514146               -0.17694055                0.58677523                0.03442220                0.11324359                0.00212477
               3.75677416               10.00946853               24.09232696                0.75617175               -0.10530354               -0.10650198                0.35245604                0.03489011                0.13677356                0.00116538
               4.75607084               10.01261887               24.03132681                0.75087711               -0.03528929               -0.03615185                0.11806479                0.03495148                0.14928763                0.00042949
               5.75606837               10.01575466               23.97039594                0.75020967                0.03481880                0.03423695               -0.11637769                0.03500033                0.15164684               -0.00022813
               6.75676721               10.01887660               23.90944344                0.75405626                0.10496320                0.10462807               -0.35085752                0.03501036                0.14415617               -0.00090929
               7.75816764               10.02198561               23.84837888                0.76253796                0.17512009                0.17500685               -0.58536333                0.03501738                0.12659126               -0.00173547
               8.76026961               10.02508345               23.78710685                0.77601693                0.24528621                0.24540876               -0.81988178                0.03498450                0.09810101               -0.00291263
               9.76307336               10.02817216               23.72551992                0.79512422                0.31547673                0.31558213               -1.05439525                0.03602540                0.05616214               -0.00482262
              10.76657915               10.03127880               23.66347223                0.90528633                0.35057855                0.38830290               -1.28889131                0.03772866                0.02918352               -0.01067356
               0.82326771                0.03353742               25.30057551                0.91489527               -0.29174453               -0.32907311                1.09118651               -0.03745983                0.01818682               -0.00479878
               1.82035026                0.02966995               25.23627576                0.80394175               -0.25703510               -0.25673500                0.85938857               -0.03542201                0.04277044               -0.00485614
               2.81812701                0.02582826               25.17240173                0.77590760               -0.18775768               -0.18771566                0.62771939               -0.03444972                0.07841279               -0.00242964
               3.81659511                0.02197451               25.10876466                0.76045748               -0.11856252               -0.11811544                0.39603558               -0.03466899                0.09906014               -0.00147083
               4.81575576                0.01810839               25.04526915                0.75200872               -0.04925352               -0.04858445                0.16433260               -0.03469977                0.11017667               -0.00068851
               5.81561004                0.01422798               24.98183576                0.75028271                0.02012703                0.02096615               -0.06738884               -0.03472794                0.11277207               -0.00001372
               6.81615830                0.01033270               24.91838928                0.75518320                0.08952986                0.09051837               -0.29913108               -0.03473034                0.10713588                0.00062227
               7.81740064                0.00642192               24.85485607                0.76678387                0.15892218                0.16006125               -0.53089712               -0.03473910                0.09328690                0.00127012
               8.81933674                0.00249391               24.79116130                0.78533024                0.22831299                0.22965974               -0.76268743               -0.03466981                0.07099456                0.00198305
               9.82196690               -0.00145240               24.72722670                0.81124921                0.29762300                0.29892408               -0.99449723               -0.03558256                0.03961257                0.00278132
              10.82528920               -0.00544267               24.66296452                0.91608003                0.33223044                0.37111176               -1.22632589               -0.03567386                0.01943493                0.00431096
               0.82676058                1.03024669               25.29933953                0.82321861               -0.29099571               -0.32776270                1.08650273               -0.00091312                0.01515419               -0.00403281
               1.82385062                1.02710260               25.23502220                0.59587985               -0.25651730               -0.25624698                0.85469549               -0.00020075                0.04098272               -0.00514966
               2.82163023                1.02395111               25.17115568                0.54330352               -0.18711304               -0.18684240                0.62302268                0.00006600                0.07713443               -0.00278324
               3.82010836                1.02079335               25.10751132                0.51719501               -0.11741029               -0.11735199                0.39131691                0.00021113                0.09693423               -0.00162877
               4.81928202                1.01762254               25.04400662                0.50303281               -0.04788767               -0.04784425                0.15959055                0.00015337                0.10787841               -0.00087941
               5.81915060                1.01443764               24.98056278                0.50014643                0.02159998                0.02168321               -0.07215461                0.00011238                0.11036776               -0.00033044
               6.81971402                1.01123788               24.91710531                0.50830823                0.09110170                0.09121761               -0.30392096                0.00007875                0.10468402                0.00013102
               7.82097264                1.00802253               24.85356104                0.52769072                0.16065878                0.16075277               -0.53571191                0.00003987                0.09083713                0.00059483
               8.82292720                1.00479051               24.78985568                0.55887337                0.23033605                0.23031066               -0.76752790               -0.00018356                0.06857925                0.00114575
               9.82557936                1.00153684               24.72591113                0.60287305                0.29977679                0.29994829               -0.99936333               -0.00028766                0.03754422                0.00187898
              10.82892274                0.99826845               24.66164580                0.81923438                0.33433750                0.37118268               -1.23120031                0.00075088                0.01768291                0.00308079
               0.82953762                2.02698216               25.29804444                0.81650211               -0.28957904               -0.32550857                1.08180752               -0.00098016                0.01245930               -0.00305224
               1.82664183                2.02454501               25.23370477                0.58369703               -0.25500218               -0.25519913                0.85000072               -0.00038962                0.04049011               -0.00409516
               2.82443757                2.02209142               25.16986029                0.53472964               -0.18569640               -0.18536709                0.61835603               -0.00014015                0.07836250               -0.00278846
               3.82292790                2.01962747               25.10622837                0.51345074               -0.11615166               -0.11587801                0.38663129                0.00009987                0.09734356               -0.00169067
               4.82211454                2.01715150               25.04272961                0.50204510               -0.04654742               -0.04638448                0.15487134                0.00014994                0.10779363               -0.00097083
               5.82199695                2.01466164               24.97928863                0.49973878                0.02302211                0.02312357               -0.07691299                0.00010974                0.11003618               -0.00046545
               6.82257498                2.01215705               24.91583249                0.50627460                0.09259292                0.09264595               -0.30872071                0.00004049                0.10424708               -0.00008323
               7.82384881                2.00963697               24.85228930                0.52184960                0.16218870                0.16218946               -0.54055314               -0.00009913                0.09041623                0.00024835
               8.82581876                2.00710012               24.78858594                0.54712373                0.23171972                0.23179395               -0.77240734               -0.00032557                0.06831212                0.00059781
               9.82848320                2.00454657               24.72464590                0.58326398                0.30111278                0.30174651               -1.00426920               -0.00045626                0.03749962                0.00104559
              10.83184101                2.00198098               24.66038730                0.80630433                0.33578090                0.37180766               -1.23610332                0.00040796                0.01773298                0.00155298
               0.83161528                3.02373651               25.29675422                0.81599097               -0.28817035               -0.32376905                1.07709505               -0.00084643                0.01279499                0.00173823
               1.82873357                3.02199862               25.23241454                0.58297591               -0.25351536               -0.25396293                0.84529666               -0.00028521                0.04091969                0.00056438
               2.82654497                3.02024377               25.16857227                0.53434179               -0.18416512               -0.18413225                0.61365247               -0.00026386                0.07914202               -0.00002572
               3.82505027                3.01847579               25.10494771                0.51322171               -0.11470592               -0.11449539                0.38191901               -0.00007745                0.09829579               -0.00016117
               4.82425085                3.01669485               25.04145495                0.50195452               -0.04515083               -0.04495571                0.15013780                0.00000370                0.10858631               -0.00023612
               5.82414725                3.01490011               24.97801846                0.49977797                0.02443262                0.02457087               -0.08167443               -0.00000652                0.11067362               -0.00035849
               6.82473950                3.01309080               24.91456553                0.50644381                0.09401648                0.09411282               -0.31351265               -0.00007706                0.10474939               -0.00057595
               7.82602758                3.01126632               24.85102445                0.52215082                0.16357944                0.16369972               -0.54537485               -0.00019713                0.09080046               -0.00093061
               8.82801109                3.00942638               24.78732227                0.54755445                0.23308954                0.23340029               -0.77725388               -0.00032935                0.06858898               -0.00145827
               9.83068937                3.00757177               24.72338250                0.58380957                0.30254866                0.30323553               -1.00912976               -0.00028998                0.03765160               -0.00219842
              10.83406206                3.00570460               24.65912290                0.80661040                0.33726912                0.37301200               -1.24096320                0.00056168                0.01780441               -0.00319899
               0.83299648                4.02050678               25.29548150                0.81550100               -0.28676103               -0.32223518                1.07237319               -0.00077262                0.01302107                0.00677064
               1.83012887                4.01946575               25.23113280                0.58229278               -0.25206803               -0.25258067                0.84057653               -0.00015696                0.04158130                0.00402076
               2.82795512                4.01840877               25.16729053                0.53398029               -0.18268038               -0.18281783                0.60893129               -0.00020625                0.08041876                0.00238741
               3.82647526                4.01733756               25.10366958                0.51300662               -0.11324109               -0.11313418                0.37719031               -0.00015503                0.09984816                0.00125333
               4.82569030                4.01625239               25.04018268                0.50187465               -0.04371944               -0.04353954                0.14539472               -0.00012354                0.11024677                0.00044070
               5.82560087                4.01515306               24.97675229                0.49982805                0.02584674                0.02601549               -0.08643728               -0.00013258                0.11228191               -0.00026678
               6.82620723                4.01403930               24.91330451                0.50662357                0.09542031                0.09558248               -0.31829766               -0.00016765                0.10619480               -0.00104553
               7.82750928                4.01291097               24.84976660                0.52246496                0.16497406                0.16520586               -0.55018124               -0.00021303                0.09198797               -0.00205239
               8.82950671                4.01176813               24.78606472                0.54801257                0.23449542                0.23491133               -0.78207749               -0.00022943                0.06943491               -0.00342979
               9.83219919                4.01061128               24.72212161                0.58442603                0.30399392                0.30466432               -1.01396330               -0.00016132                0.03808968               -0.00529716
              10.83558659                4.00944122               24.65785448                0.80697267                0.33874042                0.37435299               -1.24579725                0.00064042                0.01801620               -0.00773213
               0.83368188                5.01729181               25.29421885                0.81501286               -0.28534387               -0.32078890                1.06764108               -0.00072512                0.01337722                0.01098453
               1.83082844                5.01694700               25.22985449                0.58161342               -0.25064238               -0.25116275                0.83584237               -0.00004270                0.04256483                0.00679028
               2.82866903                5.01658741               25.16600945                0.53362466               -0.18124451               -0.18141913                0.60419625               -0.00010208                0.08233039                0.00418437
               3.82720355                5.01621311               25.10239173                0.51280003               -0.11180763               -0.11172711                0.37245035               -0.00016191                0.10223616                0.00232706
               4.82643288                5.01582406               25.03891192                0.50180521               -0.04229342               -0.04211563                0.14064518               -0.00021279                0.11288643                0.00095871
               5.82635768                5.01542042               24.97549013                0.49988914                0.02726801                0.02745218               -0.09120027               -0.00023706                0.11494186               -0.00019724
               6.82697824                5.01500245               24.91205015                0.50681360                0.09684074                0.09702983               -0.32307612               -0.00022776                0.10865323               -0.00141611
               7.82829450                5.01457044               24.84851714                0.52278717                0.16639742                0.16666156               -0.55497477               -0.00018538                0.09404172               -0.00296166
               8.83030619                5.01412461               24.78481531                0.54847561                0.23592763                0.23636321               -0.78688346               -0.00012008                0.07090738               -0.00508380
               9.83301305                5.01366506               24.72086580                0.58504471                0.30543974                0.30609597               -1.01877740               -0.00005296                0.03885171               -0.00799610
              10.83641499                5.01319166               24.65658484                0.80733563                0.34019333                0.37576461               -1.25061441                0.00069919                0.01838982               -0.01183364
               0.83367159                6.01409100               25.29295768                0.81452599               -0.28391730               -0.31940533                1.06289792               -0.00067379                0.01388326                0.01415821
               1.83083242                6.01444250               25.22857125                0.58093790               -0.24923090               -0.24973081                0.83109343                0.00007738                0.04397920                0.00856114
               2.82868697                6.01478039               25.16472262                0.53327585               -0.17985226               -0.17994884                0.59944826                0.00000504                0.08508263                0.00521614
               3.82723537                6.01510302               25.10110992                0.51260328               -0.11041194               -0.11026422                0.36770085               -0.00016840                0.10568056                0.00289756
               4.82647873                6.01541007               25.03764069                0.50174748               -0.04088128               -0.04067426                0.13589084               -0.00029782                0.11671251                0.00123195
               5.82641775                6.01570210               24.97423186                0.49996252                0.02869644                0.02887888               -0.09596247               -0.00033363                0.11883064               -0.00015087
               6.82705266                6.01597990               24.91080405                0.50701478                0.09828316                0.09844579               -0.32784795               -0.00028103                0.11228915               -0.00160233
               7.82838341                6.01624420               24.84727929                0.52311813                0.16785131                0.16806644               -0.55975643               -0.00015564                0.09711574               -0.00347530
               8.83040969                6.01649539               24.78357872                0.54894413                0.23738359                0.23777013               -0.79167385               -0.00000810                0.07313355               -0.00613804
               9.83313108                6.01673320               24.71962084                0.58566593                0.30688443                0.30753474               -1.02357487                0.00006162                0.04001083               -0.00993947
              10.83654738                6.01695651               24.65532014                0.80769927                0.34162957                0.37724188               -1.25541779                0.00076398                0.01896429               -0.01512189
               0.83296542                7.01090370               25.29168609                0.81403968               -0.28248136               -0.31812284                1.05814082               -0.00059098                0.01460105                0.01589337
               1.83014061                7.01195239               25.22727180                0.58026575               -0.24784029               -0.24825449                0.82632693                0.00021785                0.04598938                0.00898650
               2.82800861                7.01298843               25.16342148                0.53293536               -0.17850534               -0.17839335                0.59468600                0.00006119                0.08896437                0.00526084
               3.82657050                7.01400783               25.09981866                0.51241850               -0.10903857               -0.10876745                0.36294168               -0.00024554                0.11048007                0.00286776
               4.82582784                7.01501058               25.03636640                0.50170383               -0.03946565               -0.03923568                0.13113216               -0.00040423                0.12199679                0.00122283
               5.82578119                7.01599800               24.97297746                0.50005036                0.03013423                0.03029496               -0.10072322               -0.00042628                0.12419908               -0.00011683
               6.82643053                7.01697136               24.90956864                0.50722933                0.09973551                0.09984394               -0.33261248               -0.00034253                0.11735575               -0.00153262
               7.82777590                7.01793176               24.84605807                0.52345967                0.16932507                0.16943320               -0.56452549               -0.00015964                0.10147037               -0.00342412
               8.82981703                7.01888001               24.78236260                0.54941916                0.23886327                0.23912181               -0.79644776                0.00008819                0.07634525               -0.00627577
               9.83255316                7.01981575               24.71839640                0.58628939                0.30833017                0.30896612               -1.02835461                0.00020334                0.04170627               -0.01066886
              10.83598363                7.02073650               24.65407082                0.80806323                0.34304699                0.37881605               -1.26020623                0.00086032                0.01981475               -0.01707574
               0.83156240                8.00772855               25.29038754                0.81355269               -0.28103562               -0.31707173                1.05336391               -0.00044080                0.01565656                0.01562395
               1.82875204                8.00947741               25.22594083                0.57959742               -0.24648217               -0.24660138                0.82153744                0.00030190                0.04888367                0.00751932
               2.82663276                8.01121252               25.16209522                0.53260640               -0.17718640               -0.17678510                0.58990625               -0.00009533                0.09443325                0.00418373
               3.82520832                8.01292767               25.09851177                0.51224929               -0.10761400               -0.10733023                0.35817119               -0.00040433                0.11703993                0.00224402
               4.82448048                8.01462536               25.03508634                0.50167745               -0.03799418               -0.03782712                0.12636859               -0.00048560                0.12905316                0.00095065
               5.82444843                8.01630800               24.97172705                0.50015578                0.03157836                0.03170393               -0.10548217               -0.00045821                0.13133213               -0.00008167
               6.82511204                8.01797678               24.90834693                0.50746028                0.10115669                0.10125286               -0.33736839               -0.00038172                0.12417503               -0.00118475
               7.82647157                8.01963286               24.84486006                0.52381486                0.17077087                0.17081621               -0.56927939               -0.00021576                0.10750528               -0.00272215
               8.82852746                8.02127783               24.78117794                0.54990282                0.24035490                0.24042273               -0.80120108                0.00008148                0.08096082               -0.00520168
               9.83127866                8.02291252               24.71720741                0.58691509                0.30978182                0.31031537               -1.03311104                0.00034955                0.04421820               -0.00950482
              10.83472310                8.02453284               24.65285346                0.80842657                0.34444333                0.38058483               -1.26497339                0.00102160                0.02110849               -0.01688590
               0.82945888                9.00456227               25.28903878                0.81306465               -0.27962132               -0.31649564                1.04855772               -0.00051014                0.01715805                0.01152035
               1.82666267                9.00702036               25.22455617                0.57893623               -0.24512188               -0.24464116                0.81671516                0.00001635                0.05326532                0.00388738
               2.82455644                9.00945273               25.16073258                0.53229451               -0.17565480               -0.17548003                0.58510410               -0.00033760                0.10233405                0.00225987
               3.82314957                9.01186122               25.09718390                0.51210007               -0.10593229               -0.10598801                0.35338636               -0.00045687                0.12581034                0.00119403
               4.82243780                9.01425403               25.03379829                0.50167250               -0.03644847               -0.03645112                0.12159847               -0.00037192                0.13815834                0.00050138
               5.82242060                9.01663208               24.97048085                0.50028270                0.03301171                0.03311885               -0.11023932               -0.00032710                0.14048211               -0.00004144
               6.82309803                9.01899642               24.90714180                0.50771186                0.10249650                0.10269825               -0.34211377               -0.00028826                0.13307116               -0.00062785
               7.82447053                9.02134809               24.84369202                0.52418820                0.17204831                0.17227257               -0.57401396               -0.00023791                0.11575265               -0.00147840
               8.82653900                9.02368847               24.78003828                0.55039983                0.24173058                0.24184983               -0.80592644               -0.00002702                0.08780813               -0.00293441
               9.82930514                9.02602206               24.71607713                0.58754503                0.31122170                0.31148881               -1.03783232                0.00030523                0.04820554               -0.00570647
              10.83276343                9.02834819               24.65169472                0.80878871                0.34582879                0.38273173               -1.26970528                0.00102346                0.02318727               -0.01232970
               0.82663601               10.00139863               25.28758659                0.90637040               -0.27741048               -0.31636351                1.04369825                0.03630823                0.02237897                0.00992291
               1.82386191               10.00458458               25.22309711                0.78925142               -0.24254351               -0.24357765                0.81185138                0.03513840                0.06154177                0.00291661
               2.82178514               10.00770292               25.15932826                0.76604867               -0.17320171               -0.17498096                0.58027401                0.03403621                0.11355316                0.00214221
               3.82039787               10.01080791               25.09583222                0.75600634               -0.10414799               -0.10533119                0.34858179                0.03450111                0.13700105                0.00117767
               4.81970218               10.01389634               25.03250125                0.75084087               -0.03491859               -0.03576953                0.11681861                0.03456199                0.14946055                0.00043582
               5.81969950               10.01697038               24.96923907                0.75018992                0.03440410                0.03383027               -0.11499522                0.03461029                0.15177732               -0.00022844
               6.82039027               10.02003075               24.90595486                0.75394579                0.10376289                0.10343236               -0.34684624                0.03462004                0.14425145               -0.00091668
               7.82177476               10.02307831               24.84255834                0.76222406                0.17313406                0.17302244               -0.57872350                0.03462672                0.12665832               -0.00175024
               8.82385295               10.02611482               24.77895423                0.77536991                0.24251416                0.24263560               -0.81061390                0.03459402                0.09814991               -0.00293536
               9.82662504               10.02914230               24.71503526                0.79398450                0.31191783                0.31202347               -1.04249981                0.03562219                0.05620261               -0.00485533
              10.83009130               10.03218747               24.65065570                0.90451522                0.34662599                0.38392770               -1.27436859                0.03730448                0.02920804               -0.01073217
               0.88890864                0.03474878               26.31142566                0.91393473               -0.28843576               -0.32533901                1.07880261               -0.03703230                0.01824620               -0.00480682
               1.88602428                0.03089843               26.24482111                0.80262962               -0.25412233               -0.25382502                0.84964907               -0.03501722                0.04291593               -0.00485366
               2.88382619                0.02707359               26.17864356                0.77526635               -0.18563573               -0.18559452                0.62062353               -0.03405638                0.07863211               -0.00241187
               3.88231156                0.02323680               26.11270283                0.76019319               -0.11723062               -0.11678803                0.39158343               -0.03427366                0.09927476               -0.00145651
               4.88148158                0.01938780               26.04690348                0.75194668               -0.04871258               -0.04805018                0.16252434               -0.03430400                0.11037981               -0.00067946
               5.88133731                0.01552467               25.98116604                0.75026127                0.01987640                0.02070710               -0.06655313               -0.03433180                0.11295801               -0.00001033
               6.88187910                0.01164684               25.91541532                0.75504537                0.08848756                0.08946594               -0.29565128               -0.03433416                0.10729701                0.00061980
               7.88310706                0.00775368               25.84957763                0.76636947                0.15708851                0.15821549               -0.52477301               -0.03434291                0.09341641                0.00126149
               8.88502087                0.00384349               25.78357814                0.78446787                0.22568808                0.22701997               -0.75391867               -0.03427450                0.07108944                0.00196819
               9.88762082               -0.00008479               25.71733862                0.80974789                0.29420733                0.29549388               -0.98308332               -0.03517643                0.03967038                0.00276106
              10.89090502               -0.00405651               25.65077134                0.91507033                0.32841969                0.36685746               -1.21226605               -0.03526572                0.01946012                0.00430320
               0.89238867                1.03149539               26.31014313                0.82143141               -0.28769664               -0.32404317                1.07417536               -0.00090155                0.01518703               -0.00402230
               1.88951170                1.02836018               26.24352090                0.59350745               -0.25361177               -0.25334323                0.84501257               -0.00019783                0.04110472               -0.00512904
               2.88731644                1.02521764               26.17735083                0.54220518               -0.18499925               -0.18473145                0.61598308                0.00006577                0.07732425               -0.00273648
               3.88581172                1.02206892               26.11140259                0.51674645               -0.11609159               -0.11603377                0.38692071                0.00020935                0.09710969               -0.00158902
               4.88499460                1.01890730               26.04559379                0.50292753               -0.04736229               -0.04731878                0.15783781                0.00015224                0.10804159               -0.00085499
               5.88486447                1.01573174               25.97984568                0.50011007                0.02133260                0.02141577               -0.07126384                0.00011176                0.11051332               -0.00032433
               6.88542126                1.01254150               25.91408372                0.50807719                0.09004157                0.09015717               -0.30038652                0.00007838                0.10480393                0.00011773
               7.88666531                1.00933584               25.84823472                0.52699378                0.15880530                0.15889929               -0.52953347                0.00003967                0.09092426                0.00056217
               8.88859736                1.00611369               25.78222438                0.55741208                0.22768774                0.22766379               -0.75870492               -0.00018151                0.06863098                0.00109563
               9.89121906                1.00287015               25.71597466                0.60030085                0.29633634                0.29650684               -0.98789512               -0.00028406                0.03756705                0.00181802
              10.89452409                0.99961206               25.64940415                0.81749545                0.33050286                0.36692719               -1.21708619                0.00074348                0.01768129                0.00303273
               0.89516104                2.02826792               26.30880136                0.81485276               -0.28629673               -0.32181441                1.06953560               -0.00096835                0.01248040               -0.00303248
               1.89229808                2.02583156               26.24215680                0.58158206               -0.25211433               -0.25230808                0.84037312               -0.00038453                0.04061411               -0.00406142
               2.89011876                2.02337896               26.17600905                0.53381765               -0.18359907               -0.18327322                0.61137123               -0.00013702                0.07854450               -0.00273153
               3.88862609                2.02091613               26.11007305                0.51308321               -0.11484754               -0.11457708                0.38228973                0.00010074                0.09748038               -0.00163908
               4.88782181                2.01844142               26.04426987                0.50195895               -0.04603735               -0.04587610                0.15317333                0.00015045                0.10790806               -0.00093836
               5.88770535                2.01595298               25.97852423                0.49970867                0.02273848                0.02283937               -0.07596725                0.00011075                0.11012901               -0.00045822
               6.88827657                2.01344998               25.91276318                0.50608778                0.09151565                0.09156903               -0.30513097                0.00004205                0.10431292               -0.00010345
               7.88953566                2.01093167               25.84691485                0.52128377                0.16031754                0.16031954               -0.53431911               -0.00009645                0.09045065                0.00020146
               8.89148293                2.00839677               25.78090612                0.54592548                0.22905546                0.22913017               -0.76352861               -0.00032079                0.06831837                0.00052894
               9.89411677                2.00584535               25.71466065                0.58112321                0.29765717                0.29828446               -0.99274528               -0.00045050                0.03749720                0.00096663
              10.89743607                2.00328203               25.64809689                0.80484705                0.33192999                0.36754480               -1.22193382                0.00040356                0.01772044                0.00148648
               0.89724203                3.02505911               26.30746428                0.81435450               -0.28490457               -0.32009474                1.06487793               -0.00083606                0.01281701                0.00176804
               1.89439298                3.02331401               26.24081980                0.58087942               -0.25064484               -0.25108598                0.83572364               -0.00028078                0.04104058                0.00060398
               2.89222913                3.02155218               26.17467426                0.53343984               -0.18208553               -0.18205236                0.60672214               -0.00025835                0.07931226                0.00001757
               3.89075127                3.01977738               26.10874554                0.51285955               -0.11341852               -0.11321016                0.37763194               -0.00007322                0.09840989               -0.00012239
               4.88996076                3.01798977               26.04294815                0.50187028               -0.04465684               -0.04446375                0.14849448                0.00000741                0.10866833               -0.00021176
               5.88985813                3.01618853               25.97720671                0.49974669                0.02413280                0.02426989               -0.08067362               -0.00000264                0.11072929               -0.00035460
               6.89044341                3.01437288               25.91144858                0.50625272                0.09292284                0.09301876               -0.30986743               -0.00007267                0.10477699               -0.00059481
               7.89171659                3.01254223               25.84560206                0.52157784                0.16169235                0.16181200               -0.53908493               -0.00019196                0.09079929               -0.00097105
               8.89367726                3.01069629               25.77959427                0.54634628                0.23040975                0.23071741               -0.76831902               -0.00032346                0.06856728               -0.00151519
               9.89632478                3.00883584               25.71334892                0.58165681                0.29907679                0.29975557               -0.99754972               -0.00028556                0.03763373               -0.00226211
              10.89965880                3.00696296               25.64678417                0.80514667                0.33340128                0.36873540               -1.22673786                0.00055571                0.01778359               -0.00325673
               0.89863451                4.02186603               26.30614462                0.81387644               -0.28351163               -0.31857842                1.06021061               -0.00076307                0.01304204                0.00681377
               1.89579939                4.02080984               26.23949113                0.58021310               -0.24921428               -0.24971933                0.83105786               -0.00015358                0.04169965                0.00406365
               2.89365022                4.01973791               26.17334558                0.53308732               -0.18061797               -0.18075272                0.60205527               -0.00020064                0.08058175                0.00242840
               3.89218703                4.01865192               26.10742039                0.51264964               -0.11197061               -0.11186436                0.37295768               -0.00014892                0.09994827                0.00128680
               4.89141081                4.01755215               26.04162872                0.50179224               -0.04324195               -0.04306381                0.14380615               -0.00011720                0.11030856                0.00046072
               5.89132219                4.01643838               25.97589319                0.49979559                0.02553061                0.02569774               -0.08538130               -0.00012603                0.11231333               -0.00026485
               6.89192142                4.01531035               25.91013998                0.50642829                0.09431050                0.09447118               -0.31459680               -0.00016109                0.10619720               -0.00106369
               7.89320840                4.01416791               25.84429642                0.52188450                0.16307094                0.16330027               -0.54383530               -0.00020675                0.09196392               -0.00208966
               8.89518284                4.01301112               25.77828877                0.54679330                0.23179949                0.23221038               -0.77308636               -0.00022409                0.06939590               -0.00348227
               9.89784439                4.01184046               25.71203998                0.58225783                0.30050543                0.30116736               -1.00232700               -0.00015813                0.03806268               -0.00535843
              10.90119295                4.01065674               25.64546769                0.80549975                0.33485565                0.37006079               -1.23151597                0.00063361                0.01799086               -0.00779428
               0.89933913                5.01868754               26.30483492                0.81340015               -0.28211087               -0.31714894                1.05553325               -0.00071615                0.01339822                0.01104000
               1.89651803                5.01831963               26.23816575                0.57955057               -0.24780511               -0.24831759                0.82637823               -0.00004046                0.04268367                0.00683685
               2.89438303                5.01793712               26.17201742                0.53274073               -0.17919866               -0.17936995                0.59737470               -0.00009732                0.08249232                0.00422515
               3.89293405                5.01754009               26.10609542                0.51244816               -0.11055370               -0.11047338                0.36827233               -0.00015528                0.10233074                0.00235850
               4.89217196                5.01712850               26.04031073                0.50172462               -0.04183240               -0.04165631                0.13911150               -0.00020482                0.11293835                0.00097665
               5.89209740                5.01670248               25.97458367                0.49985550                0.02693544                0.02711775               -0.09008905               -0.00022864                0.11496036               -0.00019624
               6.89271067                5.01626230               25.90883812                0.50661403                0.09571445                0.09590158               -0.31931962               -0.00021992                0.10864181               -0.00143376
               7.89401169                5.01580823               25.84299931                0.52219920                0.16447777                0.16473884               -0.54857291               -0.00017904                0.09400523               -0.00299749
               8.89600022                5.01534050               25.77699158                0.54724524                0.23321509                0.23364514               -0.77783625               -0.00011584                0.07085923               -0.00513551
               9.89867599                5.01485919               25.71073631                0.58286115                0.30193448                0.30258223               -1.00708502               -0.00005096                0.03882010               -0.00806016
              10.90203891                5.01436418               25.64415016                0.80585349                0.33629171                0.37145614               -1.23627729                0.00069172                0.01836231               -0.01190628
               0.89935601                6.01552305               26.30352659                0.81292512               -0.28070075               -0.31578178                1.05084525               -0.00066551                0.01390543                0.01422413
               1.89654900                6.01584349               26.23683529                0.57889170               -0.24640991               -0.24690229                0.82168420                0.00007819                0.04410247                0.00860946
               2.89442781                6.01615051               26.17068339                0.53240080               -0.17782245               -0.17791671                0.59268155                0.00000848                0.08525109                0.00525633
               3.89299255                6.01644246               26.10476639                0.51225655               -0.10917407               -0.10902748                0.36357774               -0.00016175                0.10577869                0.00292762
               4.89224433                6.01671902               26.03899223                0.50166873               -0.04043658               -0.04023169                0.13441224               -0.00028879                0.11676470                0.00124876
               5.89218382                6.01698074               25.97327806                0.49992761                0.02834729                0.02852788               -0.09479594               -0.00032395                0.11884692               -0.00015010
               6.89281127                6.01722839               25.90754458                0.50681098                0.09714005                0.09730112               -0.32403594               -0.00027247                0.11227443               -0.00161917
               7.89412662                6.01746268               25.84171391                0.52252275                0.16591464                0.16612745               -0.55329884               -0.00014968                0.09707631               -0.00350992
               8.89612956                6.01768402               25.77570736                0.54770262                0.23465400                0.23503579               -0.78257086               -0.00000532                0.07308373               -0.00618965
               9.89881970                6.01789211               25.70944365                0.58346685                0.30336231                0.30400444               -1.01182682                0.00006218                0.03997892               -0.01000720
              10.90219681                6.01808586               25.64283771                0.80620795                0.33771122                0.37291660               -1.24102514                0.00075570                0.01893703               -0.01520606
               0.89868494                7.01237190               26.30220771                0.81245065               -0.27928134               -0.31451473                1.04614359               -0.00058381                0.01462590                0.01596542
               1.89589213                7.01338158               26.23548845                0.57823630               -0.24503534               -0.24544329                0.81697296                0.00021681                0.04612205                0.00903251
               2.89378423                7.01437879               26.16933490                0.53206934               -0.17649105               -0.17637952                0.58797450                0.00006349                0.08914842                0.00529822
               3.89236231                7.01535954               26.10342781                0.51207691               -0.10781650               -0.10754834                0.35887376               -0.00023845                0.11059181                0.00289550
               4.89162790                7.01632386               26.03767063                0.50162688               -0.03903731               -0.03880994                0.12970881               -0.00039427                0.12205990                0.00123837
               5.89158156                7.01727304               25.97197633                0.50001424                0.02976833                0.02992751               -0.09950136               -0.00041577                0.12422407               -0.00011590
               6.89222327                7.01820832               25.90626180                0.50702119                0.09857538                0.09868316               -0.32874506               -0.00033353                0.11734845               -0.00154779
               7.89355307                7.01913078               25.84044528                0.52285684                0.16737105                0.16747860               -0.55801241               -0.00015396                0.10143776               -0.00345601
               8.89557069                7.02004122               25.77444378                0.54816655                0.23611624                0.23637216               -0.78728926                0.00008947                0.07630159               -0.00632487
               9.89827539                7.02093928               25.70817169                0.58407495                0.30479107                0.30541958               -1.01655112                0.00020199                0.04167855               -0.01073711
              10.90166651                7.02182251               25.64154077                0.80656273                0.33911204                0.37447292               -1.24575824                0.00085077                0.01979019               -0.01716803
               0.89732497                8.00923275               26.30086166                0.81197551               -0.27785220               -0.31347647                1.04142220               -0.00043558                0.01568626                0.01569469
               1.89454645                8.01093462               26.23410987                0.57758476               -0.24369289               -0.24380934                0.81223891                0.00029927                0.04903219                0.00755550
               2.89245111                8.01262292               26.16796111                0.53174931               -0.17518732               -0.17479033                0.58325013               -0.00009221                0.09464393                0.00421423
               3.89104270                8.01429149               26.10207349                0.51191288               -0.10640834               -0.10612817                0.35415861               -0.00039617                0.11717676                0.00226707
               4.89032295                8.01594282               26.03634321                0.50160243               -0.03758293               -0.03741787                0.12500057               -0.00047541                0.12913895                0.00096375
               5.89029104                8.01757929               25.97067860                0.50011843                0.03119560                0.03132012               -0.10420497               -0.00044806                0.13137780               -0.00008052
               6.89094686                8.01920205               25.90499281                0.50724797                0.09997994                0.10007582               -0.33344562               -0.00037292                0.12418705               -0.00119679
               7.89229064                8.02081225               25.83920002                0.52320446                0.16879985                0.16884581               -0.56271102               -0.00020995                0.10749073               -0.00274813
               8.89432286                8.02241146               25.77321186                0.54863906                0.23759024                0.23765850               -0.79198733                0.00008242                0.08093263               -0.00524282
               9.89704245                8.02400050               25.70693541                0.58468517                0.30622560                0.30675371               -1.02125232                0.00034616                0.04420025               -0.00956525
              10.90044737                8.02557532               25.64027602                0.80691683                0.34049197                0.37622145               -1.25047017                0.00100999                0.02108989               -0.01697647
               0.89527249                9.00610237               26.29946512                0.81149928               -0.27645417               -0.31290774                1.03667148               -0.00050443                0.01719445                0.01157326
               1.89250795                9.00850539               26.23267726                0.57694034               -0.24234824               -0.24187122                0.80747203                0.00001568                0.05343846                0.00390449
               2.89042552                9.01088298               26.16655073                0.53144644               -0.17367329               -0.17350102                0.57850334               -0.00033298                0.10258589                0.00227826
               3.88903448                9.01323698               26.10069805                0.51176887               -0.10474615               -0.10480157                0.34942909               -0.00044942                0.12598550                0.00120818
               4.88833060                9.01557551               26.03500774                0.50159936               -0.03605542               -0.03605778                0.12028574               -0.00036462                0.13828021                0.00050954
               5.88831337                9.01789944               25.96938511                0.50024426                0.03261217                0.03271865               -0.10890681               -0.00032018                0.14056231               -0.00004048
               6.88898284                9.02020984               25.90374049                0.50749537                0.10130425                0.10150439               -0.33813569               -0.00028207                0.13311656               -0.00063482
               7.89033946                9.02250770               25.83798490                0.52357042                0.17006262                0.17028523               -0.56739034               -0.00023288                0.11577014               -0.00149380
               8.89238410                9.02479439               25.77202522                0.54912501                0.23894987                0.23906914               -0.79665756               -0.00002534                0.08780858               -0.00295927
               9.89511845                9.02707435               25.70575819                0.58529966                0.30764850                0.30791412               -1.02591856                0.00030226                0.04820636               -0.00574415
              10.89853707                9.02934694               25.63907023                0.80726971                0.34186114                0.37834335               -1.25514705                0.00101168                0.02318014               -0.01239528
               0.89250884               10.00297460               26.29796462                0.90559163               -0.27426843               -0.31277749                1.03186733                0.03589539                0.02243947                0.00997278
               1.88976616               10.00609720               26.23116984                0.78825899               -0.23979865               -0.24081953                0.80266356                0.03473608                0.06175773                0.00293101
               2.88771287               10.00915290               26.16509838                0.76562769               -0.17124838               -0.17300812                0.57372848                0.03364749                0.11386248                0.00215977
               3.88634119               10.01219546               26.09929859                0.75584246               -0.10298361               -0.10415222                0.34467974                0.03410924                0.13722914                0.00119008
               4.88565320               10.01522167               26.03366318                0.75080496               -0.03454395               -0.03538400                0.11556106                0.03416958                0.14963453                0.00044228
               5.88565031               10.01823366               25.96809604                0.75017036                0.03398831                0.03342184               -0.11360756                0.03421734                0.15190891               -0.00022865
               6.88633296               10.02123214               25.90250651                0.75383619                0.10255633                0.10222991               -0.34281304                0.03422688                0.14434761               -0.00092393
               7.88770144               10.02421796               25.83680441                0.76191272                0.17113657                0.17102628               -0.57204481                0.03423331                0.12672571               -0.00176486
               8.88975569               10.02719284               25.77089457                0.77472883                0.23972541                0.23984563               -0.80129003                0.03420085                0.09819864               -0.00295805
               9.89249594               10.03015878               25.70466993                0.79285669                0.30833705                0.30844285               -1.03053121                0.03521632                0.05624274               -0.00488799
              10.89592243               10.03314219               25.63798485                0.90375266                0.34264897                0.37952528               -1.25975560                0.03687767                0.02923237               -0.01079060
               0.95684173                0.03600634               27.32215156                0.91298170               -0.28510521               -0.32158039                1.06633744               -0.03660215                0.01830513               -0.00481523
               1.95399068                0.03217329               27.25326874                0.80132816               -0.25119026               -0.25089578                0.83984513               -0.03460991                0.04306034               -0.00485150
               2.95181793                0.02836549               27.18481420                0.77463048               -0.18349941               -0.18345908                0.61347984               -0.03366062                0.07884972               -0.00239459
               3.95032069                0.02454587               27.11659633                0.75993088               -0.11588920               -0.11545141                0.38710011               -0.03387596                0.09948748               -0.00144259
               4.94950014                0.02071416               27.04851964                0.75188505               -0.04816697               -0.04751176                0.16070155               -0.03390588                0.11058093               -0.00067062
               5.94935735                0.01686850               26.98050470                0.75024001                0.01962552                0.02044711               -0.06571518               -0.03393333                0.11314182               -0.00000701
               6.94989265                0.01300831               26.91247626                0.75490857                0.08743997                0.08840748               -0.29215235               -0.03393567                0.10745595                0.00061743
               7.95110615                0.00913297               26.84436061                0.76595814                0.15524443                0.15635867               -0.51861286               -0.03394437                0.09354384                0.00125309
               8.95299754                0.00524079               26.77608293                0.78361233                0.22304757                0.22436410               -0.74509698               -0.03387678                0.07118261                0.00195366
               9.95556710                0.00133075               26.70756503                0.80825942                0.29077092                0.29204262               -0.97159970               -0.03476782                0.03972715                0.00274110
              10.95881296               -0.00262222               26.63871920                0.91406963                0.32458567                0.36257702               -1.19812001               -0.03485521                0.01948487                0.00429551
               0.96030876                1.03279054               27.32082304                0.81965929               -0.28437555               -0.32029931                1.06176642               -0.00089006                0.01521962               -0.00401268
               1.95746501                1.02966433               27.25192245                0.59115614               -0.25068667               -0.25042025                0.83526492               -0.00019505                0.04122551               -0.00510939
               2.95529503                1.02653089               27.18347535                0.54111685               -0.18287082               -0.18260630                0.60889550                0.00006515                0.07751194               -0.00269093
               3.95380759                1.02339135               27.11524974                0.51630167               -0.11476321               -0.11470640                0.38249333                0.00020697                0.09728272               -0.00155030
               4.95299977                1.02023905               27.04716337                0.50282314               -0.04683224               -0.04678921                0.15607076                0.00015037                0.10820209               -0.00083114
               5.95287095                1.01707297               26.97913750                0.50007398                0.02106481                0.02114735               -0.07037037                0.00011033                0.11065605               -0.00031829
               6.95342106                1.01389238               26.91109757                0.50784792                0.08897584                0.08909067               -0.29683227                0.00007728                0.10492110                0.00010492
               7.95465046                1.01069655               26.84297037                0.52630229                0.15694100                0.15703468               -0.52331813                0.00003888                0.09100904                0.00053042
               8.95655988                1.00748443               26.77468158                0.55596326                0.22502339                0.22500076               -0.74982802               -0.00017983                0.06868099                0.00104665
               9.95915093                1.00425117               26.70615322                0.59775296                0.29287474                0.29304425               -0.97635621               -0.00028063                0.03758901                0.00175823
              10.96241738                1.00100355               26.63730408                0.81577379                0.32664455                0.36264559               -1.20288490                0.00073583                0.01767945                0.00298549
               0.96307635                2.02960036               27.31943515                0.81321863               -0.28299241               -0.31809632                1.05718242               -0.00095661                0.01250121               -0.00301427
               1.96024642                2.02716488               27.25051223                0.57948778               -0.24920696               -0.24939800                0.83068115               -0.00037980                0.04073665               -0.00402948
               2.95809221                2.02471336               27.18208771                0.53291524               -0.18148718               -0.18116535                0.60433884               -0.00013476                0.07872412               -0.00267653
               3.95661668                2.02225174               27.11387417                0.51271896               -0.11353382               -0.11326717                0.37791738                0.00010035                0.09761490               -0.00158910
               4.95582153                2.01977838               27.04579308                0.50187356               -0.04552273               -0.04536378                0.15146145                0.00014943                0.10802015               -0.00090683
               5.95570622                2.01729145               26.97776929                0.49967889                0.02245428                0.02255407               -0.07501838                0.00011012                0.11021946               -0.00045105
               6.95627062                2.01479012               26.90972987                0.50590238                0.09043260                0.09048598               -0.30152103                0.00004208                0.10437652               -0.00012278
               7.95751488                2.01227366               26.84160292                0.52072274                0.15843538                0.15843847               -0.52804779               -0.00009500                0.09048314                0.00015621
               8.95943932                2.00974081               26.77331537                0.54473842                0.22637500                0.22645023               -0.75459562               -0.00031682                0.06832323                0.00046212
               9.96204238                2.00719163               26.70479099                0.57900516                0.29418023                0.29480125               -0.98115030               -0.00044509                0.03749407                0.00088975
              10.96532293                2.00463069               26.63594862                0.80340621                0.32805523                0.36325592               -1.20767673                0.00039895                0.01770777                0.00142161
               0.96516058                3.02642861               27.31805178                0.81273310               -0.28161687               -0.31639694                1.05258020               -0.00082582                0.01283869                0.00179597
               1.96234441                3.02467637               27.24912902                0.57880354               -0.24775491               -0.24819038                0.82608691               -0.00027689                0.04116005                0.00064141
               2.96020548                3.02290759               27.18070671                0.53254735               -0.17999152               -0.17995878                0.59974480               -0.00025402                0.07948028                0.00005885
               3.95874458                3.02112601               27.11250035                0.51250079               -0.11212168               -0.11191620                0.37331465               -0.00007062                0.09852200               -0.00008519
               4.95796305                3.01933177               27.04442484                0.50178676               -0.04415844               -0.04396803                0.14683779                0.00000917                0.10874855               -0.00018828
               5.95786141                3.01752405               26.97640499                0.49971571                0.02383225                0.02396772               -0.07966929               -0.00000081                0.11078327               -0.00035065
               6.95843969                3.01570210               26.90836818                0.50606312                0.09182329                0.09191856               -0.30620174               -0.00007019                0.10480308               -0.00061267
               7.95969788                3.01386532               26.84024276                0.52100962                0.15979411                0.15991319               -0.53275757               -0.00018834                0.09079685               -0.00100971
               8.96163557                3.01201344               26.77195589                0.54514932                0.22771364                0.22801849               -0.75932983               -0.00031865                0.06854468               -0.00156981
               9.96425215                3.01014720               26.70343151                0.57952685                0.29558347                0.29625461               -0.98589857               -0.00028166                0.03761541               -0.00232352
              10.96754724                3.00826867               26.63458814                0.80369937                0.32950946                0.36443289               -1.21242477                0.00054947                0.01776278               -0.00331274
               0.96656431                4.02327242               27.31668572                0.81226688               -0.28024044               -0.31489852                1.04796807               -0.00075369                0.01306279                0.00685516
               1.96376191                4.02220108               27.24775395                0.57815385               -0.24634127               -0.24683970                0.82147620               -0.00015086                0.04181677                0.00410447
               2.96163749                4.02111418               27.17933163                0.53220371               -0.17854130               -0.17867426                0.59513300               -0.00019637                0.08074287                0.00246745
               3.96019108                4.02001341               27.11112873                0.51229594               -0.11069088               -0.11058608                0.36869549               -0.00014463                0.10004688                0.00131885
               4.95942367                4.01889902               27.04305881                0.50171053               -0.04276024               -0.04258449                0.14220469               -0.00011297                0.11036920                0.00048004
               5.95933588                4.01777080               26.97504467                0.49976332                0.02521362                0.02537873               -0.08432146               -0.00012166                0.11234383               -0.00026277
               6.95992794                4.01662849               26.90701257                0.50623450                0.09319466                0.09335374               -0.31087529               -0.00015654                0.10619887               -0.00108082
               7.96119977                4.01547192               26.83888989                0.52130900                0.16115658                0.16138368               -0.53745183               -0.00020212                0.09193928               -0.00212527
               8.96315107                4.01430118               26.77060300                0.54558534                0.22908717                0.22949351               -0.76404089               -0.00021989                0.06935644               -0.00353267
               9.96578151                4.01311672               26.70207507                0.58011270                0.29699546                0.29764954               -0.99061968               -0.00015552                0.03803535               -0.00541757
              10.96909098                4.01191935               26.63322416                0.80404342                0.33094687                0.36574277               -1.21714694                0.00062649                0.01796542               -0.00785477
               0.96728819                5.02013064               27.31532952                0.81180238               -0.27885620               -0.31348600                1.04334597               -0.00070736                0.01341896                0.01109429
               1.96449963                5.01973958               27.24638206                0.57750804               -0.24494871               -0.24545438                0.81685163               -0.00003890                0.04280137                0.00688187
               2.96238921                5.01933410               27.17795694                0.53186597               -0.17713873               -0.17730764                0.59050748               -0.00009392                0.08265274                0.00426445
               3.96095685                5.01891429               27.10975718                0.51209966               -0.10929066               -0.10921138                0.36406528               -0.00015041                0.10242441                0.00238888
               4.96020340                5.01848008               27.04169415                0.50164474               -0.04136730               -0.04119352                0.13756535               -0.00019887                0.11298976                0.00099412
               5.96012951                5.01803163               26.97368835                0.49982206                0.02660189                0.02678198               -0.08897366               -0.00022229                0.11497866               -0.00019503
               6.96073544                5.01756917               26.90566376                0.50641604                0.09458207                0.09476719               -0.31554228               -0.00021398                0.10863029               -0.00145055
               7.96202115                5.01709300               26.83754568                0.52161626                0.16254685                0.16280512               -0.54213339               -0.00017424                0.09396867               -0.00303196
               8.96398638                5.01660331               26.76925859                0.54602636                0.23048610                0.23091117               -0.76873462               -0.00011265                0.07081112               -0.00518556
               9.96663087                5.01610019               26.70072410                0.58070078                0.29840766                0.29904763               -0.99532146               -0.00004948                0.03878848               -0.00812252
              10.96995453                5.01558352               26.63185930                0.80438804                0.33236598                0.36712175               -1.22185216                0.00068394                0.01833489               -0.01197754
               0.96733230                6.01700270               27.31397458                0.81133915               -0.27746267               -0.31213518                1.03871338               -0.00065737                0.01392739                0.01428947
               1.96455767                6.01729199               27.24500493                0.57686577               -0.24356994               -0.24405577                0.81221287                0.00007839                0.04422475                0.00865695
               2.96246090                6.01756803               27.17657625                0.53153501               -0.17577871               -0.17587152                0.58586955                0.00001068                0.08541829                0.00529577
               3.96104210                6.01782919               27.10838148                0.51191309               -0.10792726               -0.10778255                0.35942597               -0.00015667                0.10587628                0.00295708
               4.96030235                6.01807515               27.04032893                0.50159069               -0.03998790               -0.03978574                0.13292152               -0.00028152                0.11681685                0.00126535
               5.96024234                6.01830644               26.97233594                0.49989297                0.02799706                0.02817544               -0.09362495               -0.00031605                0.11886348               -0.00014910
               6.96086229                6.01852383               26.90432333                0.50660876                0.09599077                0.09615020               -0.32020281               -0.00026555                0.11226010               -0.00163537
               7.96216215                6.01872803               26.83621331                0.52193235                0.16396667                0.16417736               -0.54680342               -0.00014505                0.09703723               -0.00354350
               8.96414163                6.01891940               26.76792730                0.54647273                0.23190793                0.23228545               -0.77341321               -0.00000345                0.07303419               -0.00623999
               9.96680031                6.01909768               26.69938430                0.58129125                0.29981858                0.30045313               -1.00000724                0.00006227                0.03994706               -0.01007381
              10.97013800                6.01926178               26.63049964                0.80473341                0.33376870                0.36856519               -1.22654420                0.00074716                0.01890985               -0.01528937
               0.96669646                7.01388794               27.31260896                0.81087641               -0.27605994               -0.31088340                1.03406731               -0.00057675                0.01465065                0.01603731
               1.96393586                7.01485846               27.24361126                0.57622700               -0.24221156               -0.24261402                0.80755716                0.00021521                0.04625386                0.00907817
               2.96185223                7.01581667               27.17518097                0.53121239               -0.17446297               -0.17435260                0.58121798                0.00006476                0.08933132                0.00533526
               3.96044660                7.01675864               27.10699613                0.51173859               -0.10658560               -0.10632105                0.35477742               -0.00023266                0.11070317                0.00292300
               4.95972052                7.01768437               27.03896058                0.50155070               -0.03860510               -0.03838089                0.12827360               -0.00038575                0.12212324                0.00125389
               5.95967450                7.01859514               26.97098744                0.49997841                0.02940129                0.02955853               -0.09827476               -0.00040670                0.12424959               -0.00011472
               6.96030854                7.01949218               26.90299374                0.50681481                0.09740903                0.09751598               -0.32485623               -0.00032581                0.11734180               -0.00156248
               7.96162268                7.02037654               26.83489782                0.52225898                0.16540567                0.16551273               -0.55146122               -0.00014930                0.10140576               -0.00348723
               8.96361666                7.02124902               26.76661681                0.54692560                0.23335269                0.23360630               -0.77807581                0.00009006                0.07625827               -0.00637323
               9.96628973                7.02210925               26.69806537                0.58188403                0.30123035                0.30185181               -1.00467584                0.00020028                0.04165084               -0.01080465
              10.96964126                7.02295482               26.62915565                0.80507906                0.33515292                0.37010342               -1.23122168                0.00084105                0.01976571               -0.01725963
               0.96537972                8.01078503               27.31121598                0.81041298               -0.27464759               -0.30985779                1.02940168               -0.00043041                0.01571583                0.01576538
               1.96263324                8.01243971               27.24218561                0.57559198               -0.24088494               -0.24099915                0.80287877                0.00029623                0.04917984                0.00759151
               2.96056202                8.01408098               27.17376022                0.53090124               -0.17317459               -0.17278241                0.57654920               -0.00008985                0.09485351                0.00424458
               3.95916975                8.01570277               27.10559494                0.51157961               -0.10519397               -0.10491789                0.35011785               -0.00038900                0.11731331                0.00229009
               4.95845814                8.01730753               27.03758635                0.50152804               -0.03716789               -0.03700532                0.12362092               -0.00046633                0.12922508                0.00097691
               5.95842639                8.01889761               26.96964295                0.50008141                0.03081163                0.03093470               -0.10292277               -0.00043900                0.13142410               -0.00007914
               6.95907437                8.02047415               26.90167802                0.50703736                0.09879692                0.09889224               -0.32950116               -0.00036507                0.12419975               -0.00120846
               7.96040233                8.02203828               26.83360584                0.52259926                0.16681743                0.16686394               -0.55610421               -0.00020485                0.10747676               -0.00277371
               8.96241072                8.02359153               26.76533819                0.54738710                0.23480903                0.23487782               -0.78271832                0.00008292                0.08090480               -0.00528357
               9.96509851                8.02513471               26.69678236                0.58247897                0.30264774                0.30317057               -1.00932147                0.00034256                0.04418243               -0.00962520
              10.96846367                8.02666385               26.62784406                0.80542402                0.33651644                0.37183142               -1.23587806                0.00099828                0.02107145               -0.01706654
               0.96337849                9.00769078               27.30977221                0.80994840               -0.27326603               -0.30929628                1.02470674               -0.00049867                0.01723069                0.01162605
               1.96064583                9.01003848               27.24070561                0.57496409               -0.23955612               -0.23908316                0.79816770                0.00001482                0.05361073                0.00392149
               2.95858737                9.01236102               27.17230264                0.53060728               -0.17167828               -0.17150883                0.57185813               -0.00032879                0.10283667                0.00229659
               3.95721227                9.01466028               27.10417249                0.51144078               -0.10355143               -0.10360691                0.34544395               -0.00044256                0.12616038                0.00122235
               4.95651634                9.01694426               27.03620400                0.50152692               -0.03565868               -0.03566118                0.11896166               -0.00035798                0.13840242                0.00051776
               5.95649910                9.01921383               26.96830272                0.50020613                0.03221137                0.03231675               -0.10756907               -0.00031392                0.14064316               -0.00003937
               6.95716057                9.02147002               26.90037908                0.50728056                0.10010569                0.10030389               -0.33413574               -0.00027645                0.13316261               -0.00064155
               7.95850121                9.02371382               26.83234421                0.52295785                0.16806550                0.16828628               -0.56072807               -0.00022824                0.11578808               -0.00150894
               8.96052188                9.02594657               26.76410513                0.54786201                0.23615258                0.23627181               -0.78733314               -0.00002388                0.08780925               -0.00298381
               9.96322426                9.02817266               26.69555876                0.58307819                0.30405364                0.30431775               -1.01393242                0.00029920                0.04820713               -0.00578153
              10.96660295                9.03039145               26.62659178                0.80576784                0.33786932                0.37392812               -1.24049963                0.00099987                0.02317291               -0.01246054
               0.96067435               10.00459910               27.30822394                0.90482012               -0.27110566               -0.30916786                1.01995858                0.03547982                0.02249968                0.01002243
               1.95796330               10.00765804               27.23915039                0.78727642               -0.23703556               -0.23804335                0.79341519                0.03433108                0.06197267                0.00294530
               2.95593364               10.01065080               27.17080283                0.76521113               -0.16928170               -0.17102211                0.56713908                0.03325608                0.11417059                0.00217725
               3.95457766               10.01363063               27.10272581                0.75568016               -0.10181069               -0.10296508                0.34075025                0.03371453                0.13745683                0.00120249
               4.95389743               10.01659431               27.03481247                0.75076933               -0.03416568               -0.03499524                0.11429250                0.03377432                0.14980870                0.00044877
               5.95389435               10.01954395               26.96696692                0.75015090                0.03357113                0.03301166               -0.11221439                0.03382154                0.15204099               -0.00022874
               6.95456885               10.02248023               26.89909860                0.75372743                0.10134333                0.10102079               -0.33875782                0.03383090                0.14444423               -0.00093102
               7.95592122               10.02540401               26.83111745                0.76160397                0.16912752                0.16901845               -0.56532739                0.03383715                0.12679339               -0.00177925
               8.95795140               10.02831696               26.76292843                0.77409370                0.23691998                0.23703895               -0.79191057                0.03380505                0.09824735               -0.00298037
               9.96065961               10.03122107               26.69442464                0.79174091                0.30473458                0.30484049               -1.01849019                0.03480786                0.05628253               -0.00492030
              10.96404609               10.03414241               26.62546059                0.90299868                0.33864777                0.37509594               -1.24505329                0.03644826                0.02925634               -0.01084861
               1.02704038                0.03730953               28.33275241                0.91203643               -0.28175306               -0.31779744                1.05379170               -0.03616937                0.01836348               -0.00482368
               2.02422285                0.03349397               28.26161801                0.80003762               -0.24823910               -0.24794743                0.82997734               -0.03420009                0.04320341               -0.00484949
               3.02207560                0.02970340               28.19091316                0.77400009               -0.18134893               -0.18130945                0.60628886               -0.03326243                0.07906537               -0.00237756
               4.02059587                0.02590113               28.12044484                0.75967074               -0.11453847               -0.11410561                0.38258601               -0.03347584                0.09969823               -0.00142894
               5.01978483                0.02208693               28.05011751                0.75182389               -0.04761693               -0.04696919                0.15886457               -0.03350538                0.11078008               -0.00066198
               6.01964353                0.01825892               27.97985174                0.75021888                0.01937414                0.02018623               -0.06487481               -0.03353249                0.11332369               -0.00000374
               7.02017231                0.01441655               27.90957228                0.75477279                0.08638694                0.08734313               -0.28863437               -0.03353478                0.10761304                0.00061513
               8.02137127                0.01055922               27.83920537                0.76555007                0.15338987                0.15449094               -0.51241701               -0.03354340                0.09366964                0.00124485
               9.02324011                0.00668526               27.76867620                0.78276381                0.22039153                0.22169235               -0.73622293               -0.03347663                0.07127449                0.00193940
              10.02577910                0.00279365               27.69790662                0.80678417                0.28731397                0.28857056               -0.96004719               -0.03435669                0.03978310                0.00272147
              11.02898639               -0.00114036               27.62680894                0.91307806                0.32072865                0.35827070               -1.18388875               -0.03444231                0.01950916                0.00428789
               1.03049424                1.03413155               28.33137846                0.81790264               -0.28103274               -0.31653129                1.04927687               -0.00087860                0.01525177               -0.00400352
               2.02768391                1.03101450               28.26022620                0.58882628               -0.24774230               -0.24747821                0.82545334               -0.00019234                0.04134499               -0.00509026
               3.02553939                1.02789031               28.18952874                0.54003888               -0.18072807               -0.18046703                0.60176060                0.00006433                0.07769750               -0.00264613
               4.02406935                1.02476008               28.11905246                0.51586055               -0.11342547               -0.11336992                0.37803528                0.00020421                0.09745352               -0.00151230
               5.02327088                1.02161723               28.04871521                0.50271954               -0.04629779               -0.04625557                0.15428975                0.00014804                0.10836029               -0.00080776
               6.02314339                1.01846078               27.97843827                0.50003806                0.02079640                0.02087798               -0.06947410                0.00010843                0.11079656               -0.00031232
               7.02368681                1.01528998               27.90814707                0.50762044                0.08790444                0.08801822               -0.29325845                0.00007574                0.10503620                0.00009241
               8.02490148                1.01210413               27.83776836                0.52561648                0.15506592                0.15515911               -0.51706639                0.00003777                0.09109212                0.00049930
               9.02678813                1.00890218               27.76722782                0.55452709                0.22234318                0.22232179               -0.74089802               -0.00017834                0.06872986                0.00099851
              10.02934834                1.00567935               27.69644753                0.59522985                0.28939227                0.28956077               -0.96474760               -0.00027727                0.03761035                0.00169923
              11.03257597                1.00244235               27.62534645                0.81406960                0.32276289                0.35833810               -1.18859746                0.00072801                0.01767734                0.00293870
               1.03325691                2.03097890               28.32994501                0.81159995               -0.27966641               -0.31435440                1.04474890               -0.00094488                0.01252169               -0.00299693
               2.03046025                2.02854441               28.25877042                0.57741449               -0.24628039               -0.24646900                0.82092557               -0.00037523                0.04085776               -0.00399861
               3.02833130                2.02609406               28.18809582                0.53202236               -0.17936105               -0.17904357                0.59725954               -0.00013300                0.07890145               -0.00262283
               4.02687303                2.02363374               28.11763140                0.51235817               -0.11221083               -0.11194833                0.37351479                0.00009919                0.09774728               -0.00154024
               5.02608709                2.02116181               28.04729910                0.50178891               -0.04500381               -0.04484752                0.14973600                0.00014747                0.10813023               -0.00087597
               6.02597295                2.01867648               27.97702386                0.49964935                0.02216934                0.02226772               -0.07406632                0.00010850                0.11030807               -0.00044394
               7.02653047                2.01617692               27.90673276                0.50571847                0.08934374                0.08939688               -0.29789115                0.00004120                0.10443852               -0.00014158
               8.02775982                2.01366240               27.83635389                0.52016658                0.15654228                0.15654634               -0.52173968               -0.00009427                0.09051436                0.00011203
               9.02966132                2.01113170               27.76581421                0.54356279                0.22367851                0.22375425               -0.74560904               -0.00031332                0.06832720                0.00039662
              10.03223339                2.00858486               27.69503764                0.57691018                0.29068227                0.29129706               -0.96948522               -0.00043992                0.03749033                0.00081410
              11.03547496                2.00602640               27.62394336                0.80198192                0.32415698                0.35894117               -1.19333313                0.00039417                0.01769475                0.00135758
               1.03534432                3.02784446               28.32851589                0.81112706               -0.27830755               -0.31267558                1.04020249               -0.00081565                0.01285999                0.00182282
               2.03256124                3.02608512               28.25734154                0.57674841               -0.24484587               -0.24527606                0.81638700               -0.00027334                0.04127801                0.00067750
               3.03044740                3.02430943               28.18666916                0.53166433               -0.17788339               -0.17785148                0.59272101               -0.00025042                0.07964607                0.00009878
               4.02900358                3.02252111               28.11621183                0.51214541               -0.11081567               -0.11061349                0.36896752               -0.00006902                0.09863227               -0.00004908
               5.02823109                3.02072028               28.04588490                0.50170389               -0.04365589               -0.04346851                0.14516793                0.00000974                0.10882718               -0.00016542
               6.02813046                3.01890613               27.97561332                0.49968494                0.02353082                0.02366439               -0.07866140               -0.00000023                0.11083589               -0.00034670
               7.02870171                3.01707792               27.90532454                0.50587512                0.09071779                0.09081225               -0.30251572               -0.00006888                0.10482805               -0.00062991
               8.02994482                3.01523506               27.83494691                0.52044632                0.15788484                0.15800332               -0.52639317               -0.00018570                0.09079357               -0.00104719
               9.03185940                3.01337727               27.76440767                0.54396384                0.22500138                0.22530353               -0.75028682               -0.00031446                0.06852147               -0.00162303
              10.03444484                3.01150530               27.69363095                0.57742007                0.29206902                0.29273269               -0.97417707               -0.00027805                0.03759665               -0.00238359
              11.03770078                3.00962117               27.62253568                0.80226873                0.32559404                0.36010454               -1.19802502                0.00054304                0.01774173               -0.00336765
               1.03675929                4.02472539               28.32710398                0.81067257               -0.27694774               -0.31119528                1.03564607               -0.00074440                0.01308317                0.00689547
               2.03398981                4.02363889               28.25592065                0.57611532               -0.24344926               -0.24394161                0.81183185               -0.00014859                0.04193249                0.00414395
               3.03189030                4.02253703               28.18524824                0.53132961               -0.17645063               -0.17658226                0.58816469               -0.00019300                0.08090195                0.00250532
               4.03046080                4.02142147               28.11479430                0.51194566               -0.10940211               -0.10929920                0.36440387               -0.00014151                0.10014393                0.00134996
               5.02970226                4.02029244               28.04447281                0.50162954               -0.04227449               -0.04210150                0.14059048               -0.00011009                0.11042870                0.00049884
               6.02961531                4.01914977               27.97420676                0.49973138                0.02489563                0.02505847               -0.08325773               -0.00011871                0.11237351               -0.00026062
               7.03020017                4.01799316               27.90392248                0.50604226                0.09207277                0.09223015               -0.30713321               -0.00015330                0.10619999               -0.00109732
               8.03145676                4.01682247               27.83354739                0.52073834                0.15923109                0.15945601               -0.53103114               -0.00019856                0.09191430               -0.00215968
               9.03338479                4.01563777               27.76300795                0.54438901                0.22635862                0.22676064               -0.75494152               -0.00021644                0.06931668               -0.00358160
              10.03598393                4.01443952               27.69222759                0.57799087                0.29346423                0.29411076               -0.97884176               -0.00015325                0.03800778               -0.00547527
              11.03925408                4.01322849               27.62112475                0.80260377                0.32701434                0.36139884               -1.20269081                0.00061918                0.01793994               -0.00791408
               1.03750243                5.02162056               28.32570184                0.81021977               -0.27558015               -0.30979984                1.03107965               -0.00069867                0.01343940                0.01114765
               2.03474663                5.02120629               28.25450279                0.57548601               -0.24207345               -0.24257289                0.80726286               -0.00003781                0.04291783                0.00692573
               3.03266096                5.02077779               28.18382756                0.53100070               -0.17506492               -0.17523197                0.58359471               -0.00009146                0.08281135                0.00430273
               4.03124533                5.02033513               28.11337673                0.51175439               -0.10801873               -0.10794092                0.35982924               -0.00014676                0.10251679                0.00241848
               5.03050059                5.01987825               28.04306204                0.50156555               -0.04089828               -0.04072719                0.13600684               -0.00019430                0.11304044                0.00101122
               6.03042737                5.01940730               27.97280420                0.49978895                0.02626724                0.02644487               -0.08785405               -0.00021736                0.11499660               -0.00019370
               7.03102593                5.01892252               27.90252727                0.50621959                0.09344354                0.09362659               -0.31174416               -0.00020935                0.10861875               -0.00146670
               8.03229624                5.01842418               27.83215664                0.52103835                0.16060470                0.16086029               -0.53565642               -0.00017051                0.09393223               -0.00306539
               9.03423803                5.01791248               27.76161688                0.54481908                0.22774081                0.22816117               -0.75957885               -0.00011022                0.07076299               -0.00523431
              10.03685105                5.01738751               27.69082988                0.57856386                0.29485956                0.29549204               -0.98348725               -0.00004839                0.03875676               -0.00818353
              11.04013522                5.01684915               27.61971312                0.80293944                0.32841650                0.36276138               -1.20733987                0.00067597                0.01830748               -0.01204773
               1.03757385                6.01852939               28.32430086                0.80976818               -0.27420333               -0.30846537                1.02650280               -0.00064935                0.01394912                0.01435409
               2.03483182                6.01878743               28.25307955                0.57486023               -0.24071122               -0.24119105                0.80267972                0.00007811                0.04434587                0.00870355
               3.03275963                6.01903239               28.18240078                0.53067850               -0.17372122               -0.17381308                0.57901238                0.00001199                0.08558389                0.00533438
               4.03135740                6.01926265               28.11195491                0.51157293               -0.10667167               -0.10652927                0.35524559               -0.00015273                0.10597288                0.00298597
               5.03062620                6.01947790               28.04165066                0.50151336               -0.03953543               -0.03933634                0.13141875               -0.00027554                0.11686861                0.00128173
               6.03056669                6.01967866               27.97140556                0.49985868                0.02764564                0.02782158               -0.09244944               -0.00030946                0.11888006               -0.00014792
               7.03117911                6.01986569               27.90114052                0.50640817                0.09483527                0.09499299               -0.31634863               -0.00025982                0.11224606               -0.00165099
               8.03246339                6.02003968               27.83077785                0.52134703                0.16200740                0.16221608               -0.54027031               -0.00014140                0.09699854               -0.00357629
               9.03441926                6.02020099               27.76023910                0.54525461                0.22914551                0.22951899               -0.76420121               -0.00000223                0.07298492               -0.00628938
              10.03704630                6.02034936               27.68944350                0.57913930                0.29625349                0.29688072               -0.98811674                0.00006206                0.03991522               -0.01013934
              11.04034433                6.02048372               27.61830682                0.80327583                0.32980235                0.36418765               -1.21197569                0.00073844                0.01888267               -0.01537176
               1.03697337                7.01545125               28.32288906                0.80931707               -0.27281741               -0.30722878                1.02191258               -0.00056976                0.01467519                0.01610872
               2.03424519                7.01638247               28.25163959                0.57423785               -0.23936915               -0.23976656                0.79807980                0.00021323                0.04638456                0.00912327
               3.03218598                7.01730153               28.18095926                0.53036468               -0.17242127               -0.17231245                0.57441658                0.00006526                0.08951274                0.00537180
               4.03079677                7.01820454               28.11052335                0.51140346               -0.10534606               -0.10508546                0.35065283               -0.00022784                0.11081374                0.00295017
               5.03007906                7.01909153               28.04023611                0.50147516               -0.03816920               -0.03794844                0.12682665               -0.00037836                0.12218640                0.00126932
               6.03003338                7.01996374               27.97001083                0.49994287                0.02903297                0.02918804               -0.09704336               -0.00039875                0.12427538               -0.00011336
               7.03065972                7.02082238               27.89976468                0.50661007                0.09623639                0.09634239               -0.32094602               -0.00031910                0.11733561               -0.00157669
               8.03195811                7.02166850               27.82941606                0.52166638                0.16342897                0.16353554               -0.54487206               -0.00014546                0.10137421               -0.00351779
               9.03392830                7.02250286               27.75888226                0.54569649                0.23057277                0.23082418               -0.76880778                0.00009011                0.07621532               -0.00642082
              10.03656957                7.02332512               27.68807817                0.57971693                0.29764822                0.29826277               -0.99272929                0.00019835                0.04162323               -0.01087139
              11.03988127                7.02413290               27.61691634                0.80361244                0.33116991                0.36570757               -1.21659717                0.00083119                0.01974120               -0.01735051
               1.03570003                8.01238482               28.32144970                0.80886529               -0.27142198               -0.30621571                1.01730293               -0.00042525                0.01574516                0.01583574
               2.03298581                8.01399210               28.25016744                0.57361930               -0.23805851               -0.23817076                0.79345737                0.00029290                0.04932639                0.00762724
               3.03093886                8.01558614               28.17949210                0.53006230               -0.17114837               -0.17076128                0.56980375               -0.00008806                0.09506163                0.00427469
               4.02956284                8.01716094               28.10907584                0.51124957               -0.10397108               -0.10369935                0.34604915               -0.00038257                0.11744910                0.00231293
               5.02885944                8.01871893               28.03881563                0.50145435               -0.03674928               -0.03658944                0.12222984               -0.00045812                0.12931108                0.00099007
               6.02882785                8.02026242               27.96862015                0.50004471                0.03042631                0.03054768               -0.10163550               -0.00043082                0.13147075               -0.00007758
               7.02946796                8.02179254               27.89840279                0.50682839                0.09760754                0.09770214               -0.32553508               -0.00035799                0.12421299               -0.00121978
               8.03078001                8.02331039               27.82807793                0.52199921                0.16482364                0.16487061               -0.54945913               -0.00020036                0.10746327               -0.00279874
               9.03276443                8.02481747               27.75755749                0.54614705                0.23201143                0.23208072               -0.77339444                0.00008304                0.08087727               -0.00532365
              10.03542023                8.02631461               27.68674898                0.58029680                0.29904845                0.29956600               -0.99731914                0.00033884                0.04416455               -0.00968454
              11.03874540                8.02779787               27.61555846                0.80394845                0.33251697                0.36741488               -1.22119769                0.00098650                0.02105284               -0.01715590
               1.03375030                9.00932694               28.31995926                0.80841233               -0.27005704               -0.30566135                1.01266412               -0.00049287                0.01726666                0.01167860
               2.03104973                9.01161905               28.24864062                0.57300790               -0.23674565               -0.23627699                0.78880249                0.00001384                0.05378181                0.00393842
               3.02901538                9.01388630               28.17798789                0.52977723               -0.16966992               -0.16950344                0.56516873               -0.00032488                0.10308579                0.00231481
               4.02765633                9.01613056               28.10760693                0.51111581               -0.10234832               -0.10240405                0.34143121               -0.00043612                0.12633436                0.00123640
               5.02696842                9.01835974               28.03738697                0.50145503               -0.03525847               -0.03526133                0.11762647               -0.00035186                0.13852444                0.00052598
               6.02695116                9.02057469               27.96723373                0.50016831                0.03180911                0.03191317               -0.10622598               -0.00030819                0.14072426               -0.00003812
               7.02760460                9.02277643               27.89705778                0.50706757                0.09890069                0.09909678               -0.33011391               -0.00027128                0.13320910               -0.00064809
               8.02892917                9.02496591               27.82677034                0.52235045                0.16605693                0.16627577               -0.55402734               -0.00022397                0.11580643               -0.00152378
               9.03092574                9.02714448               27.75627856                0.54661106                0.23333887                0.23345798               -0.77795375               -0.00002262                0.08781003               -0.00300800
              10.03359595                9.02931644               27.68547954                0.58088092                0.30043731                0.30069984               -1.00187455                0.00029610                0.04820772               -0.00581855
              11.03693448                9.03148120               27.61426024                0.80428318                0.33385346                0.36948618               -1.22576354                0.00098802                0.02316555               -0.01252518
               1.03110594               10.00627159               28.31836379                0.90405590               -0.26792227               -0.30553475                1.00797248                0.03506157                0.02255943                0.01007182
               2.02842672               10.00926656               28.24703815                0.78630384               -0.23425435               -0.23524912                0.78410652                0.03392349                0.06218617                0.00295955
               3.02642085               10.01219607               28.17644117                0.76479904               -0.16730183               -0.16902290                0.56050594                0.03286206                0.11447666                0.00219468
               4.02508068               10.01511286               28.10611360                0.75551940               -0.10062947               -0.10176975                0.33679357                0.03331706                0.13768327                0.00121481
               5.02440826               10.01801370               28.03594903                0.75073407               -0.03378403               -0.03460328                0.11301321                0.03337627                0.14998238                0.00045524
               6.02440500               10.02090069               27.96585175                0.75013161                0.03315240                0.03259978               -0.11081560                0.03342297                0.15217300               -0.00022873
               7.02507131               10.02377448               27.89573135                0.75361959                0.10012374                0.09980501               -0.33468043                0.03343220                0.14454095               -0.00093798
               8.02640748               10.02663590               27.82549786                0.76129793                0.16710688                0.16699904               -0.55857131                0.03343833                0.12686115               -0.00179347
               9.02841345               10.02948663               27.75505636                0.77346467                0.23409803                0.23421576               -0.78247604                0.03340665                0.09829587               -0.00300249
              10.03108944               10.03232861               27.68430012                0.79063727                0.30111060                0.30121655               -1.00637734                0.03439676                0.05632194               -0.00495237
              11.03443566               10.03518759               27.61308379                0.90225338                0.33462254                0.37063979               -1.23026222                0.03601620                0.02928004               -0.01090607
               1.09947779                0.03865777               29.34322740                0.91109900               -0.27837954               -0.31399043                1.04116630               -0.03573395                0.01842135               -0.00483201
               2.09669400                0.03485992               29.26986829                0.79875822               -0.24526906               -0.24498019                0.82004640               -0.03378776                0.04334516               -0.00484748
               3.09457241                0.03108677               29.19693998                0.77337527               -0.17918445               -0.17914579                0.59905117               -0.03286181                0.07927891               -0.00236078
               4.09311031                0.02730205               29.12424805                0.75941266               -0.11317860               -0.11275076                0.37804157               -0.03307324                0.09990686               -0.00141546
               5.09230884                0.02350552               29.05169693                0.75176320               -0.04706260               -0.04642253                0.15701364               -0.03310244                0.11097724               -0.00065345
               6.09216905                0.01969536               28.97920720                0.75019791                0.01912216                0.01992450               -0.06403196               -0.03312922                0.11350371               -0.00000053
               7.09269128                0.01587102               28.90670357                0.75463812                0.08532838                0.08627297               -0.28509748               -0.03313147                0.10776848                0.00061283
               8.09387562                0.01203189               28.83411227                0.76514527                0.15152484                0.15261244               -0.50618574               -0.03314001                0.09379405                0.00123676
               9.09572178                0.00817634               28.76135847                0.78192249                0.21772005                0.21900490               -0.72729704               -0.03307404                0.07136530                0.00192529
              10.09823002                0.00430336               28.68836409                0.80532237                0.28383663                0.28507793               -0.94842644               -0.03394309                0.03983836                0.00270203
              11.10139851                0.00038851               28.61504142                0.91209590                0.31684875                0.35393872               -1.16957282               -0.03402696                0.01953311                0.00428048
               1.10291831                1.03551787               29.34180858                0.81616180               -0.27766847               -0.31273932                1.03670760               -0.00086714                0.01528360               -0.00399447
               2.10014162                1.03241012               29.26843152                0.58651831               -0.24477893               -0.24451728                0.81557859               -0.00018965                0.04146319               -0.00507136
               3.09802273                1.02929531               29.19551056                0.53897143               -0.17857124               -0.17831378                0.59457898                0.00006342                0.07788097               -0.00260187
               4.09657020                1.02617454               29.12281044                0.51542338               -0.11207858               -0.11202443                0.37354700                0.00020131                0.09762221               -0.00147479
               5.09578116                1.02304130               29.05024917                0.50261676               -0.04575912               -0.04571788                0.15249506                0.00014550                0.10851646               -0.00078471
               6.09565501                1.01989461               28.97774802                0.50000262                0.02052727                0.02060770               -0.06857499                0.00010629                0.11093513               -0.00030645
               7.09619170                1.01673375               28.90523241                0.50739487                0.08682732                0.08693989               -0.28966523                0.00007397                0.10514967                0.00008008
               8.09739156                1.01355802               28.83262904                0.52493632                0.15318015                0.15327273               -0.51077873                0.00003648                0.09117394                0.00046867
               9.09925530                1.01036639               28.75986362                0.55310400                0.21964729                0.21962707               -0.73191559               -0.00017690                0.06877788                0.00095098
              10.10178451                1.00715414               28.68685827                0.59273177                0.28588918                0.28605662               -0.95307013               -0.00027394                0.03763133                0.00164080
              11.10497309                1.00392790               28.61353213                0.81238312                0.31885813                0.35400501               -1.17422487                0.00072002                0.01767531                0.00289223
               1.10567595                2.03240299               29.34033013                0.80999703               -0.27631897               -0.31058874                1.03223583               -0.00093314                0.01254188               -0.00297999
               2.10291276                2.02996957               29.26693074                0.57536263               -0.24333486               -0.24352118                0.81110699               -0.00037073                0.04097747               -0.00396828
               3.10080926                2.02752049               29.19403291                0.53113927               -0.17722090               -0.17690792                0.59013374               -0.00013148                0.07907653               -0.00256989
               4.09936834                2.02506156               29.12134446                0.51200089               -0.11087876               -0.11062058                0.36908229                0.00009761                0.09787766               -0.00149218
               5.09859168                2.02259116               29.04878780                0.50170497               -0.04448079               -0.04432731                0.14799720                0.00014498                0.10823855               -0.00084563
               6.09847873                2.02010752               28.97628796                0.49962004                0.02188354                0.02198035               -0.07311106                0.00010632                0.11039513               -0.00043693
               7.09902935                2.01760982               28.90377205                0.50553608                0.08824904                0.08830182               -0.29424147                0.00003980                0.10449931               -0.00015998
               8.10024371                2.01509735               28.83116813                0.51961534                0.15463837                0.15464330               -0.51539530               -0.00009393                0.09054474                0.00006859
               9.10212212                2.01256888               28.75840319                0.54239869                0.22096623                0.22104241               -0.73656965               -0.00031003                0.06833055                0.00033212
              10.10466303                2.01002449               28.68540129                0.57483864                0.28716352                0.28777208               -0.95775077               -0.00043478                0.03748624                0.00073936
              11.10786539                2.00746861               28.61208196                0.80057430                0.32023543                0.35460079               -1.17890385                0.00038931                0.01768169                0.00129396
               1.10776647                3.02930609               29.33885583                0.80953660               -0.27497685               -0.30893068                1.02774554               -0.00080550                0.01288102                0.00184904
               2.10501670                3.02753969               29.26545676                0.57471445               -0.24191794               -0.24234307                0.80662443               -0.00026997                0.04139461                0.00071274
               3.10292811                3.02575715               29.19256113                0.53079098               -0.17576135               -0.17573046                0.58565115               -0.00024726                0.07980964                0.00013782
               4.10150148                3.02396213               29.11987970                0.51179341               -0.10950071               -0.10930200                0.36459088               -0.00006805                0.09874067               -0.00001376
               5.10073810                3.02215475               29.04732820                0.50162188               -0.04314932               -0.04296515                0.14348508                0.00000958                0.10890437               -0.00014301
               6.10063849                3.02033421               28.97483176                0.49965442                0.02322843                0.02335995               -0.07764998               -0.00000040                0.11088742               -0.00034277
               7.10120267                3.01849978               28.90231787                0.50568867                0.08960635                0.08969989               -0.29880963               -0.00006828                0.10485222               -0.00064668
               8.10243062                3.01665088               28.82971489                0.51988808                0.15596463                0.15608245               -0.51999210               -0.00018361                0.09078978               -0.00108393
               9.10432196                3.01478724               28.75695016                0.54278991                0.22227322                0.22257264               -0.74119067               -0.00031064                0.06849795               -0.00167528
              10.10687608                3.01290958               28.68394797                0.57533664                0.28853364                0.28918990               -0.96238586               -0.00027458                0.03757755               -0.00244263
              11.11009263                3.01101992               28.61062764                0.80085474                0.32165517                0.35575041               -1.18353896                0.00053648                0.01772042               -0.00342191
               1.10919264                4.02622437               29.33739864                0.80909375               -0.27363376               -0.30746865                1.02324520               -0.00073516                0.01310327                0.00693507
               2.10645631                4.02512271               29.26399059                0.57409780               -0.24053847               -0.24102499                0.80212525               -0.00014661                0.04204685                0.00418251
               3.10438187                4.02400588               29.19109493                0.53046500               -0.17434615               -0.17447669                0.58115067               -0.00019022                0.08105892                0.00254222
               4.10296938                4.02287552               29.11841681                0.51159881               -0.10810449               -0.10800369                0.36008308               -0.00013914                0.10023938                0.00138032
               5.10221978                4.02173186               29.04587062                0.50154932               -0.04178484               -0.04161479                0.13896362               -0.00010808                0.11048708                0.00051727
               6.10213369                4.02057472               28.97337951                0.49969973                0.02457657                0.02473700               -0.08219012               -0.00011664                0.11240248               -0.00025844
               7.10271132                4.01940381               28.90086991                0.50585165                0.09094483                0.09110042               -0.30337071               -0.00015090                0.10620068               -0.00111338
               8.10395258                4.01821900               28.82826927                0.52017281                0.15729458                0.15751729               -0.52457354               -0.00019569                0.09188911               -0.00219331
               9.10585721                4.01702034               28.75550417                0.54320441                0.22361407                0.22401179               -0.74578870               -0.00021345                0.06927691               -0.00362956
              10.10842486                4.01580829               28.68249824                0.57589265                0.28991196                0.29055107               -0.96699379               -0.00015124                0.03798009               -0.00553204
              11.11165545                4.01458362               28.60917034                0.80118093                0.32305824                0.35702906               -1.18814813                0.00061169                0.01791435               -0.00797264
               1.10995509                5.02315672               29.33595111                0.80865253               -0.27228295               -0.30609041                1.01873489               -0.00069002                0.01345959                0.01120031
               2.10723226                5.02271919               29.26252732                0.57348481               -0.23917953               -0.23967302                0.79761224               -0.00003707                0.04303295                0.00696872
               3.10517150                5.02226762               29.18962883                0.53014480               -0.17297742               -0.17314285                0.57663660               -0.00008967                0.08296799                0.00434018
               4.10377271                5.02180205               29.11695377                0.51141252               -0.10673805               -0.10666195                0.35556440               -0.00014395                0.10260785                0.00244747
               5.10303674                5.02132245               29.04441428                0.50148715               -0.04042547               -0.04025725                0.13443603               -0.00019068                0.11309033                0.00102803
               6.10296420                5.02082895               28.97193126                0.49975613                0.02593141                0.02610646               -0.08673024               -0.00021339                0.11501416               -0.00019228
               7.10355537                5.02032179               28.89942887                0.50602488                0.09229886                0.09247977               -0.30792528               -0.00020560                0.10860711               -0.00148241
               8.10481018                5.01980123               28.82683256                0.52046552                0.15865145                0.15890435               -0.52914233               -0.00016751                0.09389590               -0.00309805
               9.10672840                5.01926747               28.75406701                0.54362368                0.22497944                0.22539514               -0.75036942               -0.00010832                0.07071499               -0.00528209
              10.10930977                5.01872060               28.68105436                0.57645069                0.29129033                0.29191549               -0.97158273               -0.00004757                0.03872495               -0.00824362
              11.11255420                5.01816050               28.60771250                0.80150773                0.32444337                0.35837512               -1.19274081                0.00066784                0.01827999               -0.01211711
               1.11005390                6.02010256               29.33450464                0.80821250               -0.27092300               -0.30477235                1.01421416               -0.00064135                0.01397057                0.01441809
               2.10734467                6.02032925               29.26105853                0.57287532               -0.23783398               -0.23830808                0.79308517                0.00007750                0.04446572                0.00874941
               3.10529722                6.02054302               29.18815650                0.52983133               -0.17165016               -0.17174131                0.57211032                0.00001263                0.08574764                0.00537235
               4.10391167                6.02074228               29.11548639                0.51123611               -0.10540745               -0.10526759                0.35103680               -0.00014961                0.10606833                0.00301441
               5.10318907                6.02092672               29.04295731                0.50143674               -0.03907928               -0.03888343                0.12990404               -0.00027049                0.11691981                0.00129788
               6.10313008                6.02109684               28.97048695                0.49982462                0.02729295                0.02746634               -0.09126944               -0.00030381                0.11889652               -0.00014664
               7.10373493                6.02125341               28.89799636                0.50620931                0.09367354                0.09382947               -0.31247343               -0.00025494                0.11223219               -0.00166616
               8.10500355                6.02139708               28.82540790                0.52076693                0.16003694                0.16024360               -0.53369976               -0.00013842                0.09696019               -0.00360833
               9.10693567                6.02152824               28.75264328                0.54404839                0.22636693                0.22673641               -0.75493530               -0.00000150                0.07293593               -0.00633784
              10.10953089                6.02164660               28.67962197                0.57701124                0.29266725                0.29328727               -0.97615579                0.00006162                0.03988341               -0.01020391
              11.11278901                6.02175112               28.60626013                0.80183521                0.32581234                0.35978407               -1.19732021                0.00072959                0.01885551               -0.01545324
               1.10948889                7.01706127               29.33304722                0.80777291               -0.26955403               -0.30355097                1.00968014               -0.00056280                0.01469945                0.01617951
               2.10679335                7.01795303               29.25957285                0.57226927               -0.23650837               -0.23690091                0.78854140                0.00021095                0.04651400                0.00916775
               3.10475872                7.01883279               29.18666931                0.52952623               -0.17036611               -0.17025907                0.56757062                0.00006519                0.08969236                0.00540786
               4.10338603                7.01969670               29.11400919                0.51107168               -0.10409801               -0.10384153                0.34650013               -0.00022376                0.11092321                0.00297700
               5.10267676                7.02054479               29.04149711                0.50140035               -0.03772974               -0.03751256                0.12536806               -0.00037178                0.12224912                0.00128461
               6.10263143                7.02137828               28.96904657                0.49990760                0.02866329                0.02881608               -0.09580717               -0.00039165                0.12430122               -0.00011188
               7.10325003                7.02219838               28.89657482                0.50640702                0.09505746                0.09516242               -0.31701460               -0.00031315                0.11732977               -0.00159051
               8.10453258                7.02300610               28.82400038                0.52107893                0.16144101                0.16154704               -0.53824520               -0.00014219                0.10134313               -0.00354770
               9.10647885                7.02380220               28.75124066                0.54447945                0.22777663                0.22802583               -0.75948557                0.00008977                0.07617268               -0.00646767
              10.10908812                7.02458635               28.67821079                0.57757392                0.29404486                0.29465254               -0.98071194                0.00019619                0.04159563               -0.01093729
              11.11235975                7.02535618               28.60482371                0.80216297                0.32716312                0.36128549               -1.20188522                0.00082120                0.01971672               -0.01744040
               1.10825913                8.01403154               29.33156204                0.80733264               -0.26817565               -0.30255040                1.00512671               -0.00042011                0.01577423                0.01590544
               2.10557737                8.01559123               29.25805476                0.57166686               -0.23521381               -0.23532427                0.78397529                0.00028938                0.04947167                0.00766244
               3.10355485                8.01713784               29.18515629                0.52923255               -0.16910883               -0.16872697                0.56301409               -0.00008667                0.09526791                0.00430438
               4.10219519                8.01866545               29.11251592                0.51092276               -0.10273980               -0.10247253                0.34195267               -0.00037670                0.11758375                0.00233551
               5.10150006                8.02017646               29.04003095                0.50138133               -0.03632720               -0.03617021                0.12082743               -0.00045056                0.12939665                0.00100314
               6.10146865                8.02167317               28.96761024                0.50000839                0.03003953                0.03015910               -0.10034314               -0.00042329                0.13151745               -0.00007591
               7.10210085                8.02315666               28.89516732                0.50662116                0.09641180                0.09650557               -0.32154751               -0.00035151                0.12422659               -0.00123077
               8.10339689                8.02462802               28.82261666                0.52140456                0.16281853                0.16286588               -0.54277614               -0.00019631                0.10745020               -0.00282332
               9.10535722                8.02608875               28.74987031                0.54491922                0.22919751                0.22926728               -0.76401609                0.00008286                0.08084999               -0.00536327
              10.10798084                8.02753965               28.67683598                0.57813870                0.29542786                0.29594013               -0.98524577                0.00033490                0.04414677               -0.00974317
              11.11126577                8.02897683               28.60342010                0.80249007                0.32849371                0.36297198               -1.20642975                0.00097458                0.02103442               -0.01724423
               1.10636111                9.01101026               29.33002549                0.80689117               -0.26682743               -0.30200316                1.00054434               -0.00048705                0.01730231                0.01173061
               2.10369284                9.01324655               29.25648166                0.57107179               -0.23391704               -0.23345281                0.77937695                0.00001279                0.05395148                0.00395502
               3.10168277                9.01545825               29.18360602                0.52895616               -0.16764839               -0.16748492                0.55843554               -0.00032116                0.10333291                0.00233273
               4.10033987                9.01764725               29.11100111                0.51079407               -0.10113694               -0.10119300                0.33739108               -0.00042999                0.12650707                0.00125030
               5.09966003                9.01982138               29.03855653                0.50138396               -0.03485487               -0.03485821                0.11628027               -0.00034613                0.13864584                0.00053417
               6.09964277                9.02198146               28.96617820                0.50013083                0.03140531                0.03150795               -0.10487752               -0.00030283                0.14080526               -0.00003682
               7.10028814                9.02412849               28.89377680                0.50685621                0.09768922                0.09788311               -0.32607031               -0.00026646                0.13325576               -0.00065437
               8.10159656                9.02626342               28.82126367                0.52174853                0.16403696                0.16425378               -0.54728846               -0.00021995                0.11582492               -0.00153833
               9.10356888                9.02838755               28.74854605                0.54537244                0.23050874                0.23062771               -0.76851959               -0.00002151                0.08781093               -0.00303191
              10.10620673                9.03050515               28.67552127                0.57870791                0.29679961                0.29706056               -0.98974547                0.00029288                0.04820845               -0.00585514
              11.10950487                9.03261562               28.60207651                0.80281589                0.32981381                0.36501785               -1.21093991                0.00097607                0.02315842               -0.01258917
               1.10377683               10.00799148               29.32838339                0.90329918               -0.26471842               -0.30187836                0.99590968                0.03464063                0.02261866                0.01012068
               2.10112964               10.01092218               29.25483252                0.78534118               -0.23145521               -0.23243697                0.77473791                0.03351337                0.06239792                0.00297356
               3.09914772               10.01378814               29.18201295                0.76439154               -0.16530892               -0.16701059                0.55382941                0.03246553                0.11478032                0.00221183
               4.09782346               10.01664159               29.10946168                0.75536027               -0.09944003               -0.10056632                0.33280994                0.03291695                0.13790807                0.00122701
               5.09715892               10.01947930               29.03707274                0.75069916               -0.03339907               -0.03420811                0.11172327                0.03297555                0.15015503                0.00046173
               6.09715548               10.02230333               28.96475060                0.75011254                0.03273200                0.03218620               -0.10941112                0.03302173                0.15230453               -0.00022870
               7.09781356               10.02511432               28.89240499                0.75351258                0.09889755                0.09858264               -0.33058101                0.03303084                0.14463749               -0.00094473
               8.09913343               10.02791310               28.81994602                0.76099457                0.16507469                0.16496812               -0.55177680                0.03303688                0.12692863               -0.00180744
               9.10111506               10.03070131               28.74727891                0.77284173                0.23125954                0.23137609               -0.77298649                0.03300567                0.09834410               -0.00302442
              10.10375862               10.03348086               28.67429709                0.78954587                0.29746516                0.29757120               -0.99419300                0.03398312                0.05636113               -0.00498417
              11.10706436               10.03627719               28.60085534                0.90151677                0.33057344                0.36615723               -1.21538334                0.03558154                0.02930364               -0.01096302
               1.17412702                0.04005052               30.35357573                0.91016965               -0.27498491               -0.31015962                1.02846210               -0.03529595                0.01847853               -0.00484027
               2.17137717                0.03627056               30.27801894                0.79749019               -0.24228031               -0.24199430                0.81005298               -0.03337294                0.04348544               -0.00484549
               3.16928141                0.03251502               30.20289418                0.77275616               -0.17700611               -0.17696827                0.59176718               -0.03245876                0.07949025               -0.00234423
               4.16783705                0.02874804               30.12800567                0.75915675               -0.11180971               -0.11138694                0.37346712               -0.03266823                0.10011331               -0.00140219
               5.16704522                0.02496939               30.05325778                0.75170301               -0.04650412               -0.04587179                0.15514897               -0.03269707                0.11117236               -0.00064504
               6.16690697                0.02117727               29.97857110                0.75017712                0.01886948                0.01966194               -0.06318661               -0.03272352                0.11368190                0.00000263
               7.16742261                0.01737114               29.90387033                0.75450452                0.08426425                0.08519708               -0.28154180               -0.03272575                0.10792236                0.00061060
               8.16859225                0.01355041               29.82908166                0.76474380                0.14964937                0.15072336               -0.49991947               -0.03273419                0.09391718                0.00122871
               9.17041560                0.00971347               29.75413026                0.78108852                0.21503325                0.21630197               -0.71831989               -0.03266901                0.07145514                0.00191135
              10.17289292                0.00585932               29.67893809                0.80387417                0.28033911                0.28156498               -0.93673822               -0.03352697                0.03989313                0.00268277
              11.17602238                0.00196383               29.60341748                0.91112319                0.31294626                0.34958143               -1.15517336               -0.03360919                0.01955700                0.00427273
               1.17755402                1.03694893               30.35211261                0.81443705               -0.27428303               -0.30892362                1.02405954               -0.00085571                0.01531501               -0.00398552
               2.17481119                1.03385062               30.27653777                0.58423263               -0.24179678               -0.24153766                0.80564136               -0.00018695                0.04158005               -0.00505265
               3.17271809                1.03074534               30.20142032                0.53791449               -0.17640050               -0.17614670                0.58735120                0.00006249                0.07806234               -0.00255807
               4.17128318                1.02763417               30.12652340                0.51499020               -0.11072269               -0.11067000                0.36902891                0.00019831                0.09778890               -0.00143775
               5.17050363                1.02451067               30.05176511                0.50251495               -0.04521634               -0.04517615                0.15068684                0.00014285                0.10867071               -0.00076195
               6.17037886                1.02137389               29.97706677                0.49996738                0.02025732                0.02033655               -0.06767304                0.00010403                0.11107200               -0.00030064
               7.17090878                1.01822311               29.90235377                0.50717116                0.08574450                0.08585578               -0.28605281                0.00007210                0.10526171                0.00006794
               8.17209375                1.01505765               29.82755278                0.52426218                0.15128376                0.15137567               -0.50445558                0.00003512                0.09125468                0.00043835
               9.17393446                1.01187649               29.75258951                0.55169401                0.21693589                0.21691677               -0.72288140               -0.00017549                0.06882525                0.00090398
              10.17643246                1.00867497               29.67738613                0.59025931                0.28236569                0.28253203               -0.94132465               -0.00027057                0.03765193                0.00158293
              11.17958177                1.00545965               29.60186195                0.81071456                0.31493057                0.34964654               -1.15976808                0.00071196                0.01767310                0.00284590
               1.18030652                2.03387205               30.35058973                0.80841008               -0.27295037               -0.30679949                1.01964406               -0.00092139                0.01256177               -0.00296323
               2.17757702                2.03143981               30.27499256                0.57333238               -0.24037059               -0.24055466                0.80122602               -0.00036626                0.04109579               -0.00393832
               3.17549911                2.02899209               30.19989850                0.53026604               -0.17506691               -0.17475849                0.58296194               -0.00013009                0.07924945               -0.00251755
               4.17407568                2.02653464               30.12501305                0.51164717               -0.10953778               -0.10928396                0.36462019                0.00009582                0.09800620               -0.00144470
               5.17330836                2.02406587               30.05025905                0.50162187               -0.04395376               -0.04380315                0.14624516                0.00014222                0.10834529               -0.00081571
               6.17319661                2.02158400               29.97556164                0.49959096                0.02159683                0.02169202               -0.07215263                0.00010384                0.11048092               -0.00043000
               7.17374029                2.01908826               29.90084793                0.50535533                0.08714851                0.08720086               -0.29057223                0.00003814                0.10455907               -0.00017814
               8.17493958                2.01657793               29.82604599                0.51906920                0.15272373                0.15272946               -0.50901500               -0.00009380                0.09057442                0.00002576
               9.17679477                2.01405180               29.75108282                0.54124630                0.21823833                0.21831488               -0.72747811               -0.00030686                0.06833362                0.00026834
              10.17930434                2.01150996               29.67588263                0.57279054                0.28362426                0.28422648               -0.94594783               -0.00042965                0.03748187                0.00066529
              11.18246725                2.00895677               29.60036528                0.79918355                0.31629093                0.35023492               -1.16438971                0.00038440                0.01766837                0.00123092
               1.18240008                3.03081294               30.34907080                0.80796194               -0.27162505               -0.30516235                1.01521020               -0.00079534                0.01290174                0.00187492
               2.17968383                3.02903952               30.27347403                0.57270188               -0.23897136               -0.23939150                0.79679978               -0.00026670                0.04150981                0.00074746
               3.17762065                3.02725017               30.19838218                0.52992732               -0.17362555               -0.17359576                0.57853553               -0.00024434                0.07997111                0.00017625
               4.17621132                3.02544849               30.12350365                0.51144507               -0.10817693               -0.10798175                0.36018490               -0.00006744                0.09884736                0.00002101
               5.17545712                3.02363461               30.04875461                0.50154053               -0.04263887               -0.04245795                0.14178933                0.00000898                0.10898022               -0.00012097
               6.17535854                3.02180773               29.97406032                0.49962419                0.02292502                0.02305444               -0.07663506               -0.00000104                0.11093800               -0.00033889
               7.17591562                3.01996713               29.89934835                0.50550383                0.08848897                0.08858155               -0.29508367               -0.00006807                0.10487582               -0.00066319
               8.17712832                3.01811224               29.82454707                0.51933486                0.15403358                0.15415069               -0.51355484               -0.00018183                0.09078566               -0.00112001
               9.17899629                3.01624279               29.74958386                0.54162788                0.21952931                0.21982597               -0.73204200               -0.00030707                0.06847426               -0.00172680
              10.18151891                3.01435950               29.67438324                0.57327674                0.28497763                0.28562643               -0.95052580               -0.00027126                0.03755848               -0.00250102
              11.18469584                3.01246435               29.59886490                0.79945762                0.31769322                0.35137074               -1.16896782                0.00052981                0.01769943               -0.00347555
               1.18383744                4.02776880               30.34756889                0.80753066               -0.27029877               -0.30371874                1.01076629               -0.00072592                0.01312307                0.00697420
               2.18113445                4.02665198               30.27196316                0.57210150               -0.23760912               -0.23808995                0.79235692               -0.00014477                0.04215983                0.00422045
               3.17908526                4.02552017               30.19687125                0.52961000               -0.17222804               -0.17235759                0.57409132               -0.00018778                0.08121385                0.00257850
               4.17768989                4.02437500               30.12199596                0.51125535               -0.10679816               -0.10669954                0.35573339               -0.00013727                0.10033329                0.00141014
               5.17694930                4.02321671               30.04725209                0.50146982               -0.04129139               -0.04112436                0.13732421               -0.00010664                0.11054443                0.00053538
               6.17686407                4.02204509               29.97256296                0.49966832                0.02425640                0.02441436               -0.08111869               -0.00011515                0.11243084               -0.00025625
               7.17743442                4.02085989               29.89785506                0.50566276                0.08981085                0.08996462               -0.29958801               -0.00014901                0.10620112               -0.00112907
               8.17866028                4.01966094               29.82305592                0.51961252                0.15534710                0.15556759               -0.51807931               -0.00019324                0.09186388               -0.00222636
               9.18054137                4.01844832               29.74809218                0.54203159                0.22085366                0.22124706               -0.73658300               -0.00021076                0.06923716               -0.00367674
              10.18307736                4.01722249               29.67288771                0.57381801                0.28633899                0.28697064               -0.95507680               -0.00014936                0.03795247               -0.00558797
              11.18626815                4.01598418               29.59736179                0.79977504                0.31907902                0.35263368               -1.17352017                0.00060409                0.01788902               -0.00803066
               1.18461922                5.02473856               30.34607654                0.80710095               -0.26896482               -0.30235778                1.00631231               -0.00068139                0.01347943                0.01125242
               2.18192957                5.02427773               30.27045503                0.57150468               -0.23626714               -0.23675484                0.78790023               -0.00003651                0.04314673                0.00701106
               3.17989387                5.02380302               30.19536030                0.52929850               -0.17087639               -0.17104033                0.56963355               -0.00008829                0.08312267                0.00437703
               4.17851204                5.02331450               30.12048801                0.51107410               -0.10544878               -0.10537447                0.35127101               -0.00014169                0.10269749                0.00247598
               5.17778490                5.02281212               30.04575076                0.50140948               -0.03994897               -0.03978369                0.13285300               -0.00018768                0.11313939                0.00104458
               6.17771306                5.02229602               29.97106959                0.49972349                0.02559438                0.02576679               -0.08560230               -0.00021005                0.11503139               -0.00019083
               7.17829678                5.02176642               29.89636877                0.50583183                0.09114806                0.09132678               -0.30408591               -0.00020243                0.10859545               -0.00149774
               8.17953602                5.02122359               29.82157380                0.51989790                0.15668715                0.15693735               -0.52259131               -0.00016498                0.09385974               -0.00313009
               9.18143053                5.02066773               29.74660950                0.54244024                0.22220212                0.22261316               -0.74110685               -0.00010670                0.07066726               -0.00532910
              10.18398006                5.02009891               29.67139823                0.57436144                0.28770028                0.28831809               -0.95960878               -0.00004689                0.03869325               -0.00830290
              11.18718453                5.01951702               29.59585830                0.80009307                0.32044698                0.35396308               -1.17805591                0.00065958                0.01825260               -0.01218586
               1.18474549                6.02172165               30.34458514                0.80667237               -0.26762181               -0.30105618                1.00184799               -0.00063337                0.01399171                0.01448146
               2.18206927                6.02191688               30.26894125                0.57091135               -0.23493838               -0.23540688                0.78342956                0.00007668                0.04458425                0.00879462
               3.18004672                6.02209937               30.19384298                0.52899363               -0.16956570               -0.16965623                0.56516366                0.00001285                0.08590947                0.00540973
               4.17867796                6.02226751               30.11897564                0.51090262               -0.10413475               -0.10399749                0.34679979               -0.00014706                0.10616244                0.00304240
               5.17796403                6.02242103               30.04424875                0.50136083               -0.03861953               -0.03842699                0.12837744               -0.00026607                0.11697032                0.00131384
               6.17790557                6.02256043               29.96958017                0.49979088                0.02693895                0.02710973               -0.09008500               -0.00029879                0.11891285               -0.00014529
               7.17850280                6.02268642               29.89489105                0.50601212                0.09250561                0.09265972               -0.30857748               -0.00025063                0.11221853               -0.00168102
               8.17975568                6.02279969               29.82010385                0.52019218                0.15805537                0.15825999               -0.52709208               -0.00013589                0.09692215               -0.00363979
               9.18166391                6.02290059               29.74514039                0.54285424                0.22357233                0.22393782               -0.74561598               -0.00000108                0.07288723               -0.00638564
              10.18422712                6.02298885               29.66992039                0.57490712                0.28906008                0.28967287               -0.96412506                0.00006097                0.03985171               -0.01026769
              11.18744511                6.02306344               29.59436042                0.80041175                0.32179895                0.35535462               -1.18257860                0.00072060                0.01882847               -0.01553385
               1.18421608                7.01871744               30.34308266                0.80624420               -0.26626991               -0.29985002                0.99737046               -0.00055584                0.01472334                0.01624959
               2.18155338                7.01956959               30.26741042                0.57032135               -0.23362933               -0.23401712                0.77894229                0.00020845                0.04664208                0.00921163
               3.17954350                7.02040989               30.19231067                0.52869712               -0.16829767               -0.16819246                0.56068043                0.00006470                0.08987003                0.00544339
               4.17818743                7.02123455               30.11745336                0.51074317               -0.10284157               -0.10258928                0.34231958               -0.00022017                0.11103142                0.00300345
               5.17748666                7.02204358               30.04274347                0.50132624               -0.03728676               -0.03707325                0.12389792               -0.00036577                0.12231123                0.00129974
               6.17744170                7.02283821               29.96809469                0.49987277                0.02829223                0.02844267               -0.09456622               -0.00038511                0.12432697               -0.00011031
               7.17805251                7.02361961               29.89342439                0.50620568                0.09387223                0.09397613               -0.31306212               -0.00030771                0.11732419               -0.00160403
               8.17931914                7.02438879               29.81865116                0.52049694                0.15944185                0.15954734               -0.53158094               -0.00013932                0.10131239               -0.00357713
               9.18124135                7.02514648               29.74369255                0.54327460                0.22496436                0.22521138               -0.75010960                0.00008916                0.07613042               -0.00651383
              10.18381843                7.02589237               29.66846393                0.57545503                0.29042051                0.29102131               -0.96862466                0.00019389                0.04156832               -0.01100243
              11.18704976                7.02662411               29.59287864                0.80073069                0.32313297                0.35683747               -1.18708710                0.00081109                0.01969252               -0.01752952
               1.18303007                8.01572465               30.34155223                0.80581526               -0.26490873               -0.29886201                0.99287371               -0.00041495                0.01580297                0.01597441
               2.18038099                8.01723654               30.26584695                0.56973518               -0.23235099               -0.23245974                0.77443291                0.00028567                0.04961556                0.00769719
               3.17838305                8.01873552               30.19075238                0.52841212               -0.16705609               -0.16667952                0.55618049               -0.00008560                0.09547212                0.00433376
               4.17703986                8.02021573               30.11591490                0.51059930               -0.10150024               -0.10123744                0.33782863               -0.00037123                0.11771703                0.00235784
               5.17635305                8.02167957               30.04123218                0.50130907               -0.03590172               -0.03574761                0.11941377               -0.00044345                0.12948154                0.00101610
               6.17632183                8.02312928               29.96661328                0.49997228                0.02965128                0.02976898               -0.09904574               -0.00041624                0.13156400               -0.00007414
               7.17694607                8.02456594               29.89197184                0.50641582                0.09520969                0.09530256               -0.31753856               -0.00034542                0.12424036               -0.00124151
               8.17822602                8.02599063               29.81722241                0.52081528                0.16080215                0.16084984               -0.53605548               -0.00019254                0.10743745               -0.00284748
               9.18016212                8.02740481               29.74227717                0.54370365                0.22636740                0.22643763               -0.75458373                0.00008250                0.08082297               -0.00540219
              10.18275337                8.02880927               29.66704406                0.57600515                0.29178619                0.29229312               -0.97310206                0.00033086                0.04412894               -0.00980124
              11.18599784                8.03020019               29.59142986                0.80104903                0.32444695                0.35850297               -1.19157514                0.00096253                0.02101587               -0.01733209
               1.18118400                9.01274020               30.33997015                0.80538523               -0.26357739               -0.29832194                0.98834825               -0.00048117                0.01733765                0.01178214
               2.17854823                9.01492039               30.26422815                0.56915614               -0.23107043               -0.23061079                0.76989157                0.00001171                0.05411967                0.00397137
               3.17656259                9.01707630               30.18915660                0.52814435               -0.16561376               -0.16545336                0.55165883               -0.00031758                0.10357770                0.00235048
               4.17523595                9.01920980               30.11435475                0.51047563               -0.09991740               -0.09997379                0.33332374               -0.00042412                0.12667808                0.00126408
               5.17456425                9.02132863               30.03971258                0.50131350               -0.03444799               -0.03445182                0.11492315               -0.00034069                0.13876630                0.00054228
               6.17454699                9.02343359               29.96513618                0.50009360                0.03099994                0.03110111               -0.10352371               -0.00029777                0.14088587               -0.00003545
               7.17518424                9.02552567               29.89053637                0.50664679                0.09647132                0.09666292               -0.32200508               -0.00026186                0.13330236               -0.00066054
               8.17647642                9.02760578               29.81582457                0.52115212                0.16200561                0.16222037               -0.54051157               -0.00021604                0.11584359               -0.00155265
               9.17842436                9.02967524               29.74090817                0.54414628                0.22766231                0.22778108               -0.75903100               -0.00002050                0.08781182               -0.00305545
              10.18102967                9.03173823               29.66568463                0.57655957                0.29314073                0.29340000               -0.97754564                0.00028954                0.04820874               -0.00589136
              11.18428717                9.03379417               29.59004144                0.80136615                0.32575056                0.36052328               -1.19602930                0.00096398                0.02315075               -0.01265264
               1.17866006               10.00975821               30.33828198                0.90255005               -0.26149433               -0.29819895                0.98377090                0.03421708                0.02267722                0.01016916
               2.17604512               10.01262432               30.26253290                0.78438882               -0.22863828               -0.22960708                0.76530992                0.03310079                0.06260777                0.00298737
               3.17408729               10.01542645               30.18751775                0.76398855               -0.16330310               -0.16498528                0.54710989                0.03206655                0.11508120                0.00222882
               4.17277905               10.01821625               30.11276980                0.75520268               -0.09824250               -0.09935477                0.32879949                0.03251425                0.13813070                0.00123916
               5.17212244               10.02099053               30.03818349                0.75066458               -0.03301089               -0.03380970                0.11042274                0.03257222                0.15032624                0.00046815
               6.17211884               10.02375130               29.96366353                0.75009364                0.03230995                0.03177096               -0.10800095                0.03261787                0.15243519               -0.00022862
               7.17276864               10.02649920               29.88911973                0.75340655                0.09766483                0.09735371               -0.32645969                0.03262691                0.14473351               -0.00095142
               8.17407213               10.02923504               29.81446232                0.76069396                0.16303099                0.16292572               -0.54494401                0.03263292                0.12699587               -0.00182128
               9.17602926               10.03196044               29.73959663                0.77222513                0.22840457                0.22851997               -0.76344211                0.03260220                0.09839198               -0.00304613
              10.17864022               10.03467727               29.66441626                0.78846677                0.29379844                0.29390453               -0.98193761                0.03356694                0.05639970               -0.00501563
              11.18190523               10.03741066               29.58877612                0.90078896                0.32650071                0.36164841               -1.20041736                0.03514433                0.02932660               -0.01101944
               1.25096095                0.04148722               31.36379664                0.90924862               -0.27156925               -0.30630517                1.01567962               -0.03485534                0.01853508               -0.00484841
               2.24824526                0.03772534               31.28606935                0.79623391               -0.23927299               -0.23898983                0.79999742               -0.03295568                0.04362419               -0.00484358
               3.24617549                0.03398760               31.20877532                0.77214282               -0.17481405               -0.17477694                0.58443727               -0.03205332                0.07969926               -0.00232782
               4.24474898                0.03023854               31.13171739                0.75890317               -0.11043190               -0.11001421                0.36886292               -0.03226078                0.10031751               -0.00138901
               5.24396685                0.02647796               31.05479991                0.75164330               -0.04594153               -0.04531699                0.15327065               -0.03228928                0.11136540               -0.00063677
               6.24383014                0.02270407               30.97794347                0.75015654                0.01861608                0.01939858               -0.06233875               -0.03231542                0.11385823                0.00000576
               7.24433917                0.01891635               30.90107274                0.75437211                0.08319456                0.08411554               -0.27796749               -0.03231761                0.10807464                0.00060839
               8.24549404                0.01511422               30.82411388                0.76434579                0.14776350                0.14882378               -0.49361848               -0.03232595                0.09403907                0.00122083
               9.24729444                0.01129607               30.74699207                0.78026200                0.21233123                0.21358375               -0.70929202               -0.03226156                0.07154407                0.00189754
              10.24974066                0.00746095               30.66962932                0.80243994                0.27682160                0.27803194               -0.92498325               -0.03310838                0.03994716                0.00266373
              11.25283088                0.00358503               30.59193795                0.91016013                0.30902141                0.34519905               -1.14069110               -0.03318899                0.01958031                0.00426543
               1.25437427                1.03842417               31.36228977                0.81272874               -0.27087657               -0.30508440                1.01133337               -0.00084423                0.01534600               -0.00397655
               2.25166551                1.03533544               31.28454435                0.58196953               -0.23879603               -0.23853950                0.79564220               -0.00018427                0.04169560               -0.00503410
               3.24959835                1.03223983               31.20725758                0.53686852               -0.17421603               -0.17396589                0.58007769                0.00006151                0.07824164               -0.00251464
               4.24818119                1.02913840               31.13019102                0.51456114               -0.10935795               -0.10930668                0.36448125                0.00019526                0.09795355               -0.00140105
               5.24741119                1.02602479               31.05326290                0.50241386               -0.04466956               -0.04463040                0.14886525                0.00014013                0.10882309               -0.00073948
               6.24728780                1.02289806               30.97639456                0.49993244                0.01998656                0.02006455               -0.06676829                0.00010170                0.11120726               -0.00029492
               7.24781093                1.01975751               30.89951135                0.50694929                0.08465600                0.08476598               -0.28242145                0.00007019                0.10537245                0.00005594
               8.24898092                1.01660245               30.82253993                0.52359404                0.14937685                0.14946806               -0.49809732                0.00003378                0.09133448                0.00040844
               9.25079846                1.01343191               30.74540599                0.55029762                0.21420912                0.21419111               -0.71379601               -0.00017402                0.06887203                0.00085738
              10.25326510                1.01024127               30.66803178                0.58781261                0.27882204                0.27898723               -0.92951191               -0.00026717                0.03767230                0.00152550
              11.25637490                1.00703702               30.59033677                0.80906412                0.31098045                0.34526294               -1.14522795                0.00070378                0.01767092                0.00280003
               1.25712151                2.03538553               31.36072301                0.80683936               -0.26956082               -0.30298690                1.00697443               -0.00090959                0.01258134               -0.00294652
               2.25442591                2.03295455               31.28295526                0.57132401               -0.23738781               -0.23756966                0.79128340               -0.00036181                0.04121277               -0.00390859
               3.25237376                2.03050828               31.20569214                0.52940265               -0.17289927               -0.17259543                0.57574472               -0.00012879                0.07942030               -0.00246573
               4.25096792                2.02805241               31.12863687                0.51129701               -0.10818802               -0.10793854                0.36012881                0.00009389                0.09813295               -0.00139781
               5.25021000                2.02558535               31.05171270                0.50153955               -0.04342281               -0.04327506                0.14448006                0.00013929                0.10845052               -0.00078615
               6.25009946                2.02310536               30.97484491                0.49956224                0.02130920                0.02140274               -0.07119107                0.00010121                0.11056554               -0.00042317
               7.25063618                2.02061167               30.89796060                0.50517617                0.08604221                0.08609409               -0.28688372                0.00003636                0.10461805               -0.00019607
               8.25182031                2.01810358               30.82098783                0.51852825                0.15079845                0.15080494               -0.50259922               -0.00009371                0.09060357               -0.00001662
               9.25365215                2.01557989               30.74385362                0.54010589                0.21549495                0.21557180               -0.71833486               -0.00030369                0.06833630                0.00020520
              10.25613021                2.01304069               30.66648233                0.57076630                0.28006469                0.28066048               -0.93407713               -0.00042455                0.03747743                0.00059184
              11.25925344                2.01049029               30.58879417                0.79780981                0.31232370                0.34584381               -1.14979168                0.00037940                0.01765529                0.00116808
               1.25921804                3.03236443               31.35916003                0.80640341               -0.26825239               -0.30137079                1.00259728               -0.00078515                0.01292213                0.00190065
               2.25653552                3.03058405               31.28139275                0.57071101               -0.23600635               -0.23642152                0.78691372               -0.00026349                0.04162363                0.00078184
               3.25449792                3.02878792               31.20413184                0.52907350               -0.17147620               -0.17144750                0.57137474               -0.00024155                0.08013048                0.00021422
               4.25310599                3.02697963               31.12708339                0.51110007               -0.10684445               -0.10665281                0.35574999               -0.00006703                0.09895244                0.00005530
               5.25236103                3.02515929               31.05016399                0.50146005               -0.04212456               -0.04194692                0.14008083                0.00000812                0.10905492               -0.00009922
               6.25226350                3.02332611               30.97329906                0.49959426                0.02262061                0.02274788               -0.07561669               -0.00000192                0.11098777               -0.00033506
               7.25281344                3.02147939               30.89641619                0.50532061                0.08736572                0.08745728               -0.29133805               -0.00006809                0.10489891               -0.00067944
               8.25401082                3.01961855               30.81944380                0.51878708                0.15209179                0.15220814               -0.50708168               -0.00018023                0.09078132               -0.00115566
               9.25585528                3.01774335               30.74230932                0.54047783                0.21676979                0.21706362               -0.72284117               -0.00030359                0.06845052               -0.00177769
              10.25834621                3.01585448               30.66493745                0.57124069                0.28140118                0.28204245               -0.93859752               -0.00026800                0.03753922               -0.00255885
              11.26148330                3.01395390               30.58724828                0.79807745                0.31370845                0.34696575               -1.15431250                0.00052306                0.01767817               -0.00352903
               1.26066657                4.02935811               31.35761396                0.80598356               -0.26694299               -0.29994568                0.99821002               -0.00071667                0.01314250                0.00701293
               2.25799714                4.02822612               31.27983773                0.57012663               -0.23466143               -0.23513658                0.78252749               -0.00014302                0.04227142                0.00425791
               3.25597334                4.02707933               31.20257675                0.52876471               -0.17009646               -0.17022502                0.56698710               -0.00018554                0.08136676                0.00261429
               4.25459521                4.02591936               31.12553148                0.51091543               -0.10548324               -0.10538679                0.35135503               -0.00013569                0.10042571                0.00143957
               5.25386368                4.02474642               31.04861710                0.50139110               -0.04079420               -0.04063019                0.13567237               -0.00010555                0.11060079                0.00055324
               6.25377933                4.02356032               30.97175714                0.49963720                0.02393512                0.02409059               -0.08004350               -0.00011402                0.11245867               -0.00025409
               7.25434238                4.02236082               30.89487814                0.50547542                0.08867091                0.08882282               -0.29578539               -0.00014744                0.10620139               -0.00114451
               8.25555275                4.02114774               30.81790769                0.51905740                0.15338879                0.15360701               -0.51154894               -0.00019105                0.09183868               -0.00225887
               9.25741016                4.01992117               30.74077251                0.54087095                0.21807754                0.21846660               -0.72732491               -0.00020825                0.06919746               -0.00372333
              10.25991430                4.01868154               30.66339670                0.57176747                0.28274549                0.28336962               -0.94309130               -0.00014754                0.03792469               -0.00564337
              11.26306507                4.01742960               30.58569994                0.79838621                0.31507688                0.34821290               -1.15880769                0.00059644                0.01786345               -0.00808814
               1.26146770                5.02636551               31.35607736                0.80556516               -0.26562597               -0.29860209                0.99381271               -0.00067275                0.01349905                0.01130393
               2.25881144                5.02588132               31.27828532                0.56954589               -0.23333650               -0.23381843                0.77812744               -0.00003608                0.04325918                0.00705282
               3.25680097                5.02538342               31.20102151                0.52846170               -0.16876202               -0.16892446                0.56258600               -0.00008717                0.08327537                0.00441335
               4.25543620                5.02487190               31.12397919                0.51073906               -0.10415102               -0.10407850                0.34694933               -0.00013979                0.10278577                0.00250407
               5.25471795                5.02434669               31.04707134                0.50133258               -0.03946882               -0.03930650                0.13125786               -0.00018509                0.11318764                0.00106091
               6.25464682                5.02380793               30.97021922                0.49969121                0.02525614                0.02542588               -0.08447029               -0.00020712                0.11504830               -0.00018937
               7.25522307                5.02325584               30.89334716                0.50564044                0.08999120                0.09016772               -0.30022633               -0.00019963                0.10858388               -0.00151285
               8.25644665                5.02269069               30.81638073                0.51933572                0.15471192                0.15495940               -0.51600387               -0.00016274                0.09382379               -0.00316170
               9.25831731                5.02211268               30.73924487                0.54126905                0.21940901                0.21981538               -0.73179162               -0.00010529                0.07061964               -0.00537552
              10.26083483                5.02152187               30.66186218                0.57229630                0.28408962                0.28470003               -0.94756607               -0.00004627                0.03866158               -0.00836148
              11.26399910                5.02091815               30.58415138                0.79869556                0.31642758                0.34952554               -1.16328614                0.00065124                0.01822532               -0.01225389
               1.26162151                6.02338607               31.35454160                0.80514793               -0.26430005               -0.29731703                0.98940513               -0.00062538                0.01401263                0.01454414
               2.25897851                6.02354975               31.27672712                0.56896844               -0.23202465               -0.23248757                0.77371354                0.00007570                0.04470146                0.00883923
               3.25698102                6.02370084               31.19945978                0.52816543               -0.16746798               -0.16755793                0.55817283                0.00001277                0.08606935                0.00544662
               4.25562915                6.02383779               31.12242238                0.51057261               -0.10285364               -0.10271901                0.34253479               -0.00014486                0.10625526                0.00307004
               5.25492395                6.02396029               31.04552486                0.50128561               -0.03815623               -0.03796702                0.12683904               -0.00026205                0.11702013                0.00132960
               6.25486603                6.02406884               30.96868525                0.49975745                0.02658367                0.02675181               -0.08889617               -0.00029420                0.11892896               -0.00014389
               7.25545562                6.02416417               30.89182481                0.50581674                0.09133152                0.09148380               -0.30466098               -0.00024672                0.11220501               -0.00169561
               8.25669266                6.02424693               30.81486606                0.51962277                0.15606278                0.15626535               -0.52044766               -0.00013369                0.09688443               -0.00367081
               9.25857688                6.02431747               30.73773096                0.54167236                0.22076185                0.22112333               -0.73624372               -0.00000086                0.07283883               -0.00643272
              10.26110790                6.02437554               30.66033946                0.57282743                0.28543221                0.28603772               -0.95202527                0.00006025                0.03982008               -0.01033079
              11.26428552                6.02442011               30.58260855                0.79900560                0.31776245                0.35089954               -1.16775174                0.00071152                0.01880145               -0.01561391
               1.26112784                7.02041917               31.35299463                0.80473104               -0.26296534               -0.29612617                0.98498442               -0.00054890                0.01474707                0.01631901
               2.25849818                7.02123157               31.27515170                0.56839451               -0.23073226               -0.23111533                0.76928315                0.00020578                0.04676886                0.00925496
               3.25651319                7.02203226               31.19788291                0.52787740               -0.16621606               -0.16611273                0.55374644                0.00006396                0.09004573                0.00547846
               4.25517386                7.02281752               31.12085558                0.51041807               -0.10157684               -0.10132874                0.33811137               -0.00021690                0.11113826                0.00302958
               5.25448165                7.02358735               31.04397507                0.50125288               -0.03684035               -0.03663049                0.12241630               -0.00036014                0.12237262                0.00131471
               6.25443705                7.02434296               30.96715525                0.49983807                0.02791976                0.02806785               -0.09332061               -0.00037897                0.12435254               -0.00010869
               7.25504005                7.02508552               30.89031358                0.50600619                0.09268077                0.09278356               -0.30908878               -0.00030263                0.11731878               -0.00161728
               8.25629067                7.02581600               30.81336876                0.51992030                0.15743159                0.15753651               -0.52487966               -0.00013674                0.10128205               -0.00360610
               9.25818868                7.02653514               30.73623847                0.54208220                0.22213616                0.22238095               -0.74068048                0.00008838                0.07608833               -0.00655940
              10.26073339                7.02724262               30.65883830                0.57336071                0.28677539                0.28736924               -0.95646804                0.00019152                0.04154078               -0.01106686
              11.26392419                7.02793614               30.58108197                0.79931580                0.31907958                0.35236375               -1.17220339                0.00080088                0.01966805               -0.01761775
               1.25998575                8.01746355               31.35141951                0.80431347               -0.26162144               -0.29515076                0.98054467               -0.00040982                0.01583140                0.01604278
               2.25736954                8.01892744               31.27354342                0.56782427               -0.22947022               -0.22957730                0.76483073                0.00028183                0.04975795                0.00773149
               3.25539635                8.02037859               31.19627990                0.52760099               -0.16499027               -0.16461901                0.54930335               -0.00008470                0.09567415                0.00436270
               4.25406973                8.02181121               31.11927249                0.51027917               -0.10025249               -0.09999416                0.33367729               -0.00036598                0.11784880                0.00237989
               5.25339130                8.02322768               31.04241922                0.50123750               -0.03547290               -0.03532166                0.11798895               -0.00043664                0.12956558                0.00102893
               6.25336027                8.02463020               30.96562933                0.49993651                0.02926154                0.02937737               -0.09774337               -0.00040949                0.13161027               -0.00007237
               7.25397653                8.02601984               30.88881655                0.50621226                0.09400126                0.09409321               -0.31350849               -0.00033961                0.12425422               -0.00125204
               8.25524030                8.02739766               30.81189555                0.52023159                0.15877460                0.15882258               -0.52929748               -0.00018900                0.10742491               -0.00287128
               9.25715202                8.02876509               30.73477863                0.54250062                0.22352128                0.22359190               -0.74509787                0.00008205                0.08079611               -0.00544070
              10.25971073                8.03012293               30.65737394                0.57389618                0.28812363                0.28862517               -0.96088861                0.00032686                0.04411116               -0.00985851
              11.26291449                8.03146739               30.57958860                0.79962543                0.32037684                0.35400813               -1.17663460                0.00095044                0.02099740               -0.01741882
               1.25819185                9.01451616               31.34979246                0.80389473               -0.26030706               -0.29461784                0.97607637               -0.00047527                0.01737247                0.01183308
               2.25558878                9.01664002               31.27187949                0.56726123               -0.22820596               -0.22775098                0.76034668                0.00001061                0.05428610                0.00398747
               3.25362773                9.01873988               31.19463920                0.52734191               -0.16356617               -0.16340876                0.54483881               -0.00031407                0.10381996                0.00236805
               4.25231746                9.02081763               31.11766758                0.51016049               -0.09868978               -0.09874643                0.32922936               -0.00041834                0.12684728                0.00127770
               5.25165393                9.02288091               31.04085500                0.50124374               -0.03403785               -0.03404217                0.11355519               -0.00033540                0.13888561                0.00055032
               6.25163670                9.02493051               30.96410772                0.50005680                0.03059299                0.03069267               -0.10216461               -0.00029289                0.14096592               -0.00003409
               7.25226579                9.02696738               30.88733670                0.50643916                0.09524697                0.09543629               -0.31791840               -0.00025742                0.13334880               -0.00066661
               8.25354164                9.02899245               30.81045343                0.52056127                0.15996302                0.16017564               -0.53369703               -0.00021231                0.11586220               -0.00156673
               9.25546505                9.03100698               30.73336543                0.54293256                0.22479982                0.22491830               -0.74948874               -0.00001954                0.08781272               -0.00307859
              10.25803763                9.03301513               30.65597035                0.57443619                0.28946085                0.28971835               -0.96527570                0.00028629                0.04820898               -0.00592709
              11.26125427                9.03501631               30.57815592                0.79993383                0.32166377                0.35600256               -1.18103198                0.00095192                0.02314306               -0.01271564
               1.25572853               10.01157119               31.34805881                0.90180849               -0.25825010               -0.29449665                0.97155672                0.03379096                0.02273523                0.01021697
               2.25314603               10.01437242               31.27013871                0.78344665               -0.22580367               -0.22675947                0.75582281                0.03268580                0.06281565                0.00300103
               3.25121245               10.01711041               31.19295515                0.76359020               -0.16128445               -0.16294694                0.54034738                0.03166517                0.11537901                0.00224582
               4.24992034               10.01983628               31.11603767                0.75504679               -0.09703696               -0.09813511                0.32476232                0.03210903                0.13835091                0.00125119
               5.24927171               10.02254683               31.03928119                0.75063040               -0.03261955               -0.03340809                0.10911174                0.03216637                0.15049578                0.00047452
               6.24926795               10.02524405               30.96259058                0.75007483                0.03188621                0.03135408               -0.10658516                0.03221150                0.15256477               -0.00022851
               7.24990944               10.02792857               30.88587580                0.75330139                0.09642552                0.09611828               -0.32231655                0.03222045                0.14482887               -0.00095802
               8.25119646               10.03060117               30.80904714                0.76039619                0.16097591                0.16087196               -0.53807326                0.03222642                0.12706270               -0.00183488
               9.25312896               10.03326346               30.73201007                0.77161481                0.22553350                0.22564768               -0.75384385                0.03219622                0.09843942               -0.00306733
              10.25570713               10.03591729               30.65465834                0.78740013                0.29011066                0.29021667               -0.96961179                0.03314823                0.05643763               -0.00504673
              11.25893117               10.03858744               30.57684700                0.90007000                0.32240436                0.35711323               -1.18536407                0.03470448                0.02934889               -0.01107570
               1.32995230                0.04296730               32.37388933                0.90833603               -0.26813281               -0.30242732                1.00281963               -0.03441214                0.01859090               -0.00485640
               2.32727097                0.03922369               32.29401889                0.79498939               -0.23624729               -0.23596701                0.78988039               -0.03253600                0.04376144               -0.00484155
               3.32522736                0.03550394               32.21458293                0.77153542               -0.17260839               -0.17257200                0.57706194               -0.03164552                0.07990604               -0.00231158
               4.32381881                0.03177300               32.13538293                0.75865182               -0.10904526               -0.10863265                0.36422924               -0.03185092                0.10051941               -0.00137607
               5.32304645                0.02803067               32.05632319                0.75158407               -0.04537488               -0.04475818                0.15137882               -0.03187908                0.11155631               -0.00062857
               6.32291131                0.02427520               31.97732433                0.75013617                0.01836196                0.01913443               -0.06148845               -0.03190489                0.11403271                0.00000883
               7.32341369                0.02050608               31.89831098                0.75424072                0.08211938                0.08302842               -0.27437480               -0.03190704                0.10822537                0.00060615
               8.32455370                0.01672273               31.81920929                0.76395144                0.14586736                0.14691381               -0.48728310               -0.03191528                0.09415960                0.00121295
               9.32633104                0.01292358               31.73994442                0.77944328                0.20961414                0.21085031               -0.70021374               -0.03185170                0.07163194                0.00188399
              10.32874598                0.00910768               31.66043843                0.80101995                0.27328421                0.27447890               -0.91316191               -0.03268736                0.04000067                0.00264495
              11.33179672                0.00525152               31.58060366                0.90920683                0.30507428                0.34079168               -1.12612643               -0.03276638                0.01960347                0.00425794
               1.33335178                1.03994302               32.37233928                0.81103714               -0.26744934               -0.30122188                0.99852990               -0.00083274                0.01537657               -0.00396754
               2.33067729                1.03686402               32.29245062                0.57972946               -0.23577689               -0.23552299                0.78558180               -0.00018160                0.04180983               -0.00501556
               3.32863625                1.03377822               32.21302188                0.53583347               -0.17201799               -0.17177148                0.57275893                0.00006052                0.07841888               -0.00247152
               4.32723693                1.03068667               32.13381302                0.51413604               -0.10798445               -0.10793457                0.35990433                0.00019220                0.09811626               -0.00136473
               5.32647656                1.02758309               32.05474241                0.50231389               -0.04411881               -0.04408067                0.14703043                0.00013742                0.10897370               -0.00071722
               6.32635456                1.02446655               31.97573141                0.49989780                0.01971497                0.01979173               -0.06586079                0.00009937                0.11134098               -0.00028926
               7.32687086                1.02133636               31.89670534                0.50672963                0.08356188                0.08367053               -0.27877134                0.00006829                0.10548192                0.00004403
               8.32802579                1.01819187               31.81759084                0.52293214                0.14745952                0.14754999               -0.49170427                0.00003244                0.09141334                0.00037875
               9.32982005                1.01503208               31.73831359                0.54891494                0.21146714                0.21145017               -0.70465980               -0.00017255                0.06891823                0.00081136
              10.33225514                1.01185246               31.65879589                0.58539219                0.27525837                0.27542237               -0.91763240               -0.00026381                0.03769233                0.00146866
              11.33532521                1.00865944               31.57895739                0.80743208                0.30700791                0.34085445               -1.13060513                0.00069549                0.01766861                0.00275441
               1.33609365                2.03694286               32.37072921                0.80528509               -0.26615058               -0.29915117                0.99422778               -0.00089775                0.01260068               -0.00292978
               2.33343214                2.03451323               32.29081823                0.56933783               -0.23438672               -0.23456634                0.78127977               -0.00035733                0.04132846               -0.00387900
               3.33140591                2.03206851               32.21141339                0.52854946               -0.17071811               -0.17041885                0.56848243               -0.00012749                0.07958906               -0.00241431
               4.33001778                2.02961431               32.13221562                0.51095057               -0.10682956               -0.10658440                0.35560843                0.00009191                0.09825794               -0.00135132
               5.32926932                2.02714906               32.05314865                0.50145806               -0.04288798               -0.04274307                0.14270201                0.00013630                0.10855437               -0.00075691
               6.32916002                2.02467104               31.97413781                0.49953368                0.02102065                0.02111255               -0.07022647                0.00009850                0.11064907               -0.00041643
               7.32968974                2.02217949               31.89511025                0.50499875                0.08493019                0.08498157               -0.28317609                0.00003451                0.10467621               -0.00021380
               8.33085863                2.01967373               31.81599400                0.51799253                0.14886265                0.14886986               -0.49614831               -0.00009366                0.09063233               -0.00005848
               9.33266699                2.01715258               31.73671612                0.53897752                0.21273622                0.21281338               -0.70914049               -0.00030051                0.06833890                0.00014277
              10.33511335                2.01461612               31.65720108                0.56876587                0.27648503                0.27707434               -0.92213940               -0.00041938                0.03747281                0.00051905
              11.33819669                2.01206861               31.57736945                0.79645305                0.30833402                0.34142785               -1.13511089                0.00037441                0.01764207                0.00110572
               1.33819308                3.03396000               32.36912274                0.80486122               -0.26485909               -0.29755616                0.98990751               -0.00077494                0.01294221                0.00192622
               2.33554449                3.03217269               32.28921230                0.56874206               -0.23302309               -0.23343325                0.77696686               -0.00026028                0.04173612                0.00081593
               3.33353262                3.03036984               32.20980967                0.52822955               -0.16931342               -0.16928580                0.56416919               -0.00023884                0.08028788                0.00025177
               4.33215822                3.02855498               32.13061865                0.51075877               -0.10550338               -0.10531525                0.35128642               -0.00006676                0.09905597                0.00008920
               5.33142255                3.02672823               32.05155622                0.50138029               -0.04160649               -0.04143208                0.13835968                0.00000713                0.10912846               -0.00007774
               6.33132609                3.02488880               31.97254799                0.49956461                0.02231517                0.02244032               -0.07459493               -0.00000296                0.11103680               -0.00033128
               7.33186886                3.02303600               31.89352159                0.50513898                0.08623667                0.08632718               -0.28757304               -0.00006825                0.10492166               -0.00069551
               8.33305083                3.02116927               31.81440543                0.51824449                0.15013940                0.15025493               -0.50057311               -0.00017867                0.09077694               -0.00119084
               9.33487164                3.01928835               31.73512704                0.53933991                0.21399486                0.21428581               -0.71358891               -0.00030006                0.06842680               -0.00182808
              10.33733072                3.01739395               31.65561129                0.56922880                0.27780450                0.27843820               -0.92660181               -0.00026465                0.03751990               -0.00261623
              11.34042773                3.01548799               31.57577865                0.79671435                0.30970103                0.34253568               -1.13957360                0.00051627                0.01765698               -0.00358215
               1.33965276                4.03099173               32.36753309                0.80445258               -0.26356664               -0.29614965                0.98557720               -0.00070737                0.01316175                0.00705133
               2.33701709                4.02984457               32.28761371                0.56817359               -0.23169559               -0.23216503                0.77263757               -0.00014136                0.04238172                0.00429498
               3.33501885                4.02868279               32.20821099                0.52792929               -0.16795156               -0.16807910                0.55983843               -0.00018348                0.08151769                0.00264968
               4.33365806                4.02750800               32.12902306                0.51057905               -0.10415980               -0.10406552                0.34694830               -0.00013430                0.10051671                0.00146861
               5.33293565                4.02632042               32.04996553                0.50131315               -0.04029333               -0.04013232                0.13400818               -0.00010464                0.11065625                0.00057086
               6.33285219                4.02511985               31.97096209                0.49960641                0.02361272                0.02376570               -0.07896460               -0.00011308                0.11248600               -0.00025194
               7.33340791                4.02390603               31.89193935                0.50528980                0.08752508                0.08767509               -0.29196308               -0.00014606                0.10620157               -0.00115978
               8.33460270                4.02267883               31.81282494                0.51850769                0.15141981                0.15163570               -0.50498293               -0.00018898                0.09181365               -0.00229106
               9.33643630                4.02143830               31.73354568                0.53972270                0.21528590                0.21567054               -0.71801493               -0.00020576                0.06915791               -0.00376945
              10.33890841                4.02018489               31.65402589                0.56974107                0.27913157                0.27974816               -0.93103771               -0.00014576                0.03789695               -0.00569825
              11.34201893                4.01891932               31.57418564                0.79701457                0.31105188                0.34376684               -1.14401105                0.00058867                0.01783797               -0.00814520
               1.34047327                5.02803701               32.36595280                0.80404543               -0.26226675               -0.29482356                0.98123702               -0.00066408                0.01351834                0.01135501
               2.33785060                5.02752939               32.28601758                0.56760853               -0.23038785               -0.23086399                0.76829463               -0.00003577                0.04337034                0.00709413
               3.33586551                5.02700826               32.20661202                0.52763484               -0.16663439               -0.16679535                0.55549433               -0.00008625                0.08342618                0.00444928
               4.33451792                5.02647367               32.12742700                0.51040751               -0.10284482               -0.10277409                0.34259954               -0.00013810                0.10287266                0.00253183
               5.33380862                5.02592558               32.04837592                0.50125636               -0.03898509               -0.03882568                0.12965069               -0.00018273                0.11323509                0.00107702
               6.33373821                5.02536411               31.96938019                0.49965915                0.02491669                0.02508378               -0.08333427               -0.00020443                0.11506490               -0.00018791
               7.33430695                5.02478950               31.89036424                0.50545087                0.08882836                0.08900264               -0.29634674               -0.00019705                0.10857234               -0.00152771
               8.33551478                5.02420198               31.81125372                0.51877884                0.15272593                0.15297063               -0.50938050               -0.00016073                0.09378815               -0.00319288
               9.33736147                5.02360176               31.73197366                0.54011012                0.21660028                0.21700193               -0.72242427               -0.00010405                0.07057238               -0.00542140
              10.33984679                5.02298891               31.65244691                0.57025551                0.28045847                0.28106149               -0.93545508               -0.00004575                0.03862999               -0.00841948
              11.34297064                5.02236333               31.57259258                0.79731539                0.31238528                0.34506272               -1.14843223                0.00064285                0.01819806               -0.01232132
               1.34065470                6.02509526               32.36437324                0.80363945               -0.26095799               -0.29355513                0.97688652               -0.00061739                0.01403325                0.01460628
               2.33804512                6.02522729               32.28441552                0.56704715               -0.22909299               -0.22955031                0.76393779                0.00007463                0.04481735                0.00888337
               3.33607284                6.02534689               32.20500644                0.52734691               -0.16535710               -0.16544646                0.55113819                0.00001252                0.08622725                0.00548308
               4.33473798                6.02545252               32.12582634                0.51024598               -0.10156421               -0.10143218                0.33824205               -0.00014289                0.10634667                0.00309731
               5.33404156                6.02554390               32.04678553                0.50121137               -0.03768943               -0.03750352                0.12528892               -0.00025829                0.11706919                0.00134519
               6.33398419                6.02562152               31.96780225                0.49972435                0.02622707                0.02639259               -0.08770304               -0.00028985                0.11894485               -0.00014251
               7.33456610                6.02568609               31.88879784                0.50562305                0.09015134                0.09030175               -0.30072416               -0.00024304                0.11219166               -0.00170995
               8.33578722                6.02573824               31.80969490                0.51905885                0.15405931                0.15425978               -0.51376694               -0.00013171                0.09684706               -0.00370140
               9.33764729                6.02577834               31.73041552                0.54050305                0.21793568                0.21829312               -0.72681912               -0.00000081                0.07279070               -0.00647937
              10.34014593                6.02580612               31.65087988                0.57077213                0.28178381                0.28238204               -0.93985707                0.00005950                0.03978855               -0.01039326
              11.34328296                6.02582058               31.57100538                0.79761680                0.31370301                0.34641913               -1.15284052                0.00070241                0.01877457               -0.01569312
               1.34019688                7.02216590               32.36278235                0.80323379               -0.25964054               -0.29237961                0.97252289               -0.00054191                0.01477045                0.01638772
               2.33760047                7.02293839               32.28279609                0.56648880               -0.22781735               -0.22819566                0.75956451                0.00020307                0.04689422                0.00929770
               3.33564053                7.02369933               32.20338560                0.52706736               -0.16412140               -0.16401993                0.54676890                0.00006305                0.09021932                0.00551304
               4.33431804                7.02444503               32.12421558                0.51009637               -0.10030387               -0.10005995                0.33387570               -0.00021387                0.11124363                0.00305540
               5.33363445                7.02517551               32.04519179                0.50118030               -0.03639052               -0.03618429                0.12092326               -0.00035477                0.12243320                0.00132952
               6.33359023                7.02589197               31.96622828                0.49980377                0.02754590                0.02769165               -0.09207038               -0.00037310                0.12437786               -0.00010706
               7.33418537                7.02659553               31.88724261                0.50580849                0.09148312                0.09158479               -0.30509482               -0.00029779                0.11731353               -0.00163034
               8.33541990                7.02728717               31.80815356                0.51934931                0.15541038                0.15551466               -0.51814177               -0.00013434                0.10125193               -0.00363472
               9.33729358                7.02796762               31.72887894                0.54090234                0.21929219                0.21953468               -0.73119870                0.00008746                0.07604656               -0.00660443
              10.33980574                7.02863656               31.64933457                0.57129107                0.28310962                0.28369649               -0.94424256                0.00018909                0.04151352               -0.01113060
              11.34295577                7.02929171               31.56943457                0.79791851                0.31500313                0.34786447               -1.15723476                0.00079061                0.01964390               -0.01770528
               1.33909889                8.01924767               32.36116313                0.80282737               -0.25831404               -0.29141682                0.96814033               -0.00040465                0.01585936                0.01611033
               2.33651575                8.02066337               32.28114356                0.56593430               -0.22657172               -0.22667711                0.75516947                0.00027796                0.04989881                0.00776525
               3.33456746                8.02206649               32.20173844                0.52679927               -0.16291153               -0.16254559                0.54238319               -0.00008391                0.09587397                0.00439125
               4.33325752                8.02345132               32.12258844                0.50996229               -0.09899661               -0.09874273                0.32949884               -0.00036092                0.11797897                0.00240167
               5.33258753                8.02482022               32.04359196                0.50116664               -0.03504076               -0.03489237                0.11655305               -0.00043005                0.12964865                0.00104164
               6.33255671                8.02617535               31.96465842                0.49990113                0.02887032                0.02898429               -0.09643606               -0.00040299                0.13165615               -0.00007056
               7.33316493                8.02751778               31.88570167                0.50601049                0.09278656                0.09287757               -0.30945753               -0.00033404                0.12426808               -0.00126242
               8.33441244                8.02884853               31.80663646                0.51965350                0.15673599                0.15678420               -0.52250257               -0.00018564                0.10741257               -0.00289476
               9.33629965                8.03016903               31.72737522                0.54131020                0.22065929                0.22073022               -0.73555904                0.00008144                0.08076941               -0.00547870
              10.33882562                8.03148005               31.64782629                0.57181210                0.28444039                0.28493642               -0.94860611                0.00032272                0.04409325               -0.00991520
              11.34198846                8.03277786               31.56789717                0.79821945                0.31628364                0.34948764               -1.16160891                0.00093828                0.02097877               -0.01750475
               1.33735738                9.01633757               32.35949167                0.80241981               -0.25701670               -0.29089110                0.96372955               -0.00046936                0.01740692                0.01188345
               2.33478721                9.01840485               32.27943509                0.56538713               -0.22532385               -0.22487359                0.75074305                0.00000947                0.05445086                0.00400333
               3.33285090                9.02044842               32.20005338                0.52654881               -0.16150575               -0.16135134                0.53797611               -0.00031060                0.10405966                0.00238537
               4.33155710                9.02247018               32.12093934                0.50984864               -0.09745414               -0.09751105                0.32510825               -0.00041262                0.12701455                0.00129114
               5.33090182                9.02447766               32.04198368                0.50117483               -0.03362450               -0.03362928                0.11217648               -0.00033023                0.13900366                0.00055830
               6.33088461                9.02647165               31.96309289                0.50002028                0.03018445                0.03028267               -0.10080025               -0.00028814                0.14104525               -0.00003270
               7.33150551                9.02845308               31.88417800                0.50623336                0.09401626                0.09420330               -0.31381053               -0.00025316                0.13339494               -0.00067255
               8.33276493                9.03042286               31.80515063                0.51997610                0.15790927                0.15811975               -0.52684536               -0.00020871                0.11588071               -0.00158062
               9.33466369                9.03238223               31.72591839                0.54173166                0.22192137                0.22203951               -0.73989327               -0.00001869                0.08781351               -0.00310161
              10.33720336                9.03433528               31.64637912                0.57233759                0.28576025                0.28601590               -0.95293663                0.00028297                0.04820917               -0.00596242
              11.34037890                9.03628146               31.56642080                0.79851935                0.31755391                0.35145618               -1.16594953                0.00093980                0.02313559               -0.01277753
               1.33495495               10.01342985               32.35771312                0.90107486               -0.25498601               -0.29077174                0.95926805                0.03336223                0.02279252                0.01026436
               2.33240509               10.01616590               32.27764936                0.78251493               -0.22295163               -0.22389438                0.74627727                0.03226835                0.06302134                0.00301449
               3.33049592               10.01883946               32.19832470                0.76319653               -0.15925311               -0.16089578                0.53354234                0.03126143                0.11567368                0.00226252
               4.32922003               10.02150110               32.11926504                0.75489258               -0.09582347               -0.09690748                0.32069868                0.03170139                0.13856869                0.00126310
               5.32857945               10.02414763               32.04036573                0.75059649               -0.03222507               -0.03300329                0.10779030                0.03175807                0.15066351                0.00048086
               6.32857553               10.02678101               31.96153183                0.75005626                0.03146076                0.03093559               -0.10516379                0.03180266                0.15269310               -0.00022840
               7.32920866               10.02940185               31.88267340                0.75319720                0.09517972                0.09487646               -0.31815190                0.03181150                0.14492342               -0.00096450
               8.33047912               10.03201093               31.80370086                0.76010126                0.15890958                0.15880702               -0.53116510                0.03181743                0.12712882               -0.00184836
               9.33238685               10.03460982               31.72451975                0.77101090                0.22264639                0.22275939               -0.74419221                0.03178780                0.09848635               -0.00308856
              10.33493205               10.03720036               31.64502403                0.78634613                0.28640210                0.28650804               -0.95721665                0.03272709                0.05647554               -0.00507737
              11.33811490               10.03980699               31.56506884                0.89935987                0.31828486                0.35255238               -1.17022532                0.03426210                0.02937173               -0.01113058
               1.41107364                0.04449019               33.38385303                0.90743211               -0.26467581               -0.29852630                0.98988289               -0.03396639                0.01864611               -0.00486423
               2.40842688                0.04076505               33.30186696                0.79375703               -0.23320340               -0.23292603                0.77970257               -0.03211390                0.04389717               -0.00483952
               3.40640957                0.03706347               33.22031656                0.77093410               -0.17038926               -0.17035356                0.56964157               -0.03123536                0.08011043               -0.00229555
               4.40501910                0.03335083               33.13900198                0.75840279               -0.10764985               -0.10724237                0.35956632               -0.03143869                0.10071896               -0.00136323
               5.40425658                0.02962695               33.05782749                0.75152551               -0.04480421               -0.04419539                0.14947361               -0.03146650                0.11174507               -0.00062047
               6.40412301                0.02589009               32.97671370                0.75011590                0.01810712                0.01886953               -0.06063574               -0.03149199                0.11420524                0.00001185
               7.40461872                0.02213975               32.89558524                0.75411066                0.08103874                0.08193580               -0.27076392               -0.03149410                0.10837445                0.00060399
               8.40574379                0.01837538               32.81436822                0.76356063                0.14396100                0.14499357               -0.48091372               -0.03150224                0.09427896                0.00120524
               9.40749794                0.01459541               32.73298780                0.77863231                0.20688208                0.20810184               -0.69108558               -0.03143947                0.07171894                0.00187048
              10.40988143                0.01079892               32.65136608                0.79961429                0.26972717                0.27090616               -0.90127500               -0.03226390                0.04005352                0.00262635
              11.41289248                0.00696272               32.56941542                0.90826367                0.30110519                0.33635973               -1.11148054               -0.03234136                0.01962635                0.00425060
               1.41445912                1.04150493               33.38226037                0.80936260               -0.26400154               -0.29733630                0.98564994               -0.00082123                0.01540680               -0.00395844
               2.41181910                1.03843579               33.30025598                0.57751282               -0.23273955               -0.23248831                0.77546077               -0.00017894                0.04192277               -0.00499713
               3.40980433                1.03535994               33.21871276                0.53480946               -0.16980650               -0.16956362                0.56539541                0.00005952                0.07859402               -0.00242884
               4.40842297                1.03227841               33.13738911                0.51371531               -0.10660228               -0.10655377                0.35529849                0.00018912                0.09827699               -0.00132877
               5.40767228                1.02918499               33.05620351                0.50221479               -0.04356413               -0.04352699                0.14518248                0.00013471                0.10912250               -0.00069522
               6.40755169                1.02607879               32.97507734                0.49986361                0.01944255                0.01951809               -0.06495057                0.00009708                0.11147313               -0.00028368
               7.40806113                1.02295911               32.89393592                0.50651181                0.08246220                0.08256952               -0.27510269                0.00006640                0.10559020                0.00003229
               8.40920094                1.01982531               32.81270584                0.52227650                0.14553188                0.14562160               -0.48527688                0.00003108                0.09149139                0.00034946
               9.41097177                1.01667643               32.73131280                0.54754621                0.20871009                0.20869414               -0.69547342               -0.00017103                0.06896393                0.00076566
              10.41337514                1.01350799               32.64967913                0.58299826                0.27167492                0.27183769               -0.90568698               -0.00026037                0.03771214                0.00141215
              11.41640527                1.01032632               32.56772466                0.80581871                0.30301327                0.33642131               -1.11590064                0.00068714                0.01766637                0.00270891
               1.41719550                2.03854347               33.38060757                0.80374754               -0.26271987               -0.29529253                0.98140488               -0.00088587                0.01261970               -0.00291304
               2.41456830                2.03611528               33.29858086                0.56737392               -0.23136754               -0.23154488                0.77121579               -0.00035287                0.04144274               -0.00384962
               3.41256814                2.03367220               33.21706179                0.52770636               -0.16852360               -0.16822890                0.56117565               -0.00012624                0.07975577               -0.00236335
               4.41119782                2.03121976               33.13574903                0.51060792               -0.10546249               -0.10522164                0.35105935                0.00008991                0.09838129               -0.00130531
               5.41045889                2.02875641               33.05456674                0.50137738               -0.04234930               -0.04220721                0.14091110                0.00013331                0.10865682               -0.00072801
               6.41035084                2.02628045               32.97344038                0.49950545                0.02073118                0.02082145               -0.06925883                0.00009582                0.11073155               -0.00040977
               7.41087352                2.02379114               32.89229708                0.50482311                0.08381250                0.08386339               -0.27944957                0.00003266                0.10473373               -0.00023136
               8.41202709                2.02128781               32.81106486                0.51746218                0.14691644                0.14692434               -0.48966267               -0.00009362                0.09066063               -0.00009999
               9.41381185                2.01876930               32.72967081                0.53786158                0.20996239                0.21003974               -0.69989562               -0.00029728                0.06834115                0.00008085
              10.41622634                2.01623568               32.64803954                0.56678985                0.27288547                0.27346821               -0.91013523               -0.00041415                0.03746797                0.00044674
              11.41926956                2.01369115               32.56609195                0.79511351                0.30432204                0.33698715               -1.12034780                0.00036938                0.01762873                0.00104365
               1.41929777                3.03559908               33.37895818                0.80333553               -0.26144542               -0.29371875                0.97714183               -0.00076471                0.01296202                0.00195164
               2.41668331                3.03380489               33.29693209                0.56679533               -0.23002184               -0.23042695                0.76695996               -0.00025713                0.04184729                0.00084973
               3.41469733                3.03199536               33.21541523                0.52739564               -0.16713736               -0.16711082                0.55691940               -0.00023614                0.08044330                0.00028900
               4.41334057                3.03017398               33.13410912                0.51042121               -0.10415377               -0.10396914                0.34679433               -0.00006649                0.09915801                0.00012275
               5.41261425                3.02834085               33.05293118                0.50130143               -0.04108464               -0.04091346                0.13662595                0.00000610                0.10920093               -0.00005651
               6.41251887                3.02649521               32.97180716                0.49953517                0.02200871                0.02213176               -0.07356987               -0.00000404                0.11108513               -0.00032753
               7.41305443                3.02463638               32.89066473                0.50495938                0.08510183                0.08519131               -0.28378879               -0.00006845                0.10494401               -0.00071144
               8.41422091                3.02276380               32.80943233                0.51770721                0.14817650                0.14829120               -0.49402955               -0.00017716                0.09077246               -0.00122577
               9.41601796                3.02087723               32.72803754                0.53821428                0.21120470                0.21149273               -0.70428592               -0.00029656                0.06840313               -0.00187787
              10.41844500                3.01897735               32.64640541                0.56724090                0.27418785                0.27481391               -0.91453940               -0.00026129                0.03750064               -0.00267289
              11.42150172                3.01706606               32.56445681                0.79536847                0.30567126                0.33808084               -1.12475234                0.00050947                0.01763598               -0.00363467
               1.42076857                4.03266909               33.37732551                0.80293805               -0.26017004               -0.29233094                0.97286887               -0.00069809                0.01318067                0.00708953
               2.41816687                4.03150674               33.29529048                0.56624258               -0.22871182               -0.22917551                0.76268785               -0.00013974                0.04249071                0.00433183
               3.41619434                4.03032998               33.21377352                0.52710380               -0.16579343               -0.16591997                0.55264570               -0.00018142                0.08166670                0.00268473
               4.41485100                4.02914037               33.13247044                0.51024624               -0.10282793               -0.10273579                0.34251342               -0.00013293                0.10060631                0.00149730
               5.41413778                4.02793814               33.05129726                0.50123588               -0.03978880               -0.03963075                0.13233175               -0.00010382                0.11071084                0.00058827
               6.41405523                4.02672309               32.97017785                0.49957586                0.02328921                0.02343974               -0.07788210               -0.00011225                0.11251290               -0.00024983
               7.41460356                4.02549497               32.88903888                0.50510607                0.08637338                0.08652151               -0.28812122               -0.00014476                0.10620157               -0.00117485
               8.41578270                4.02425363               32.80780803                0.51796343                0.14944022                0.14965378               -0.49838160               -0.00018696                0.09178886               -0.00232288
               9.41759237                4.02299915               32.72641221                0.53858662                0.21247895                0.21285915               -0.70865399               -0.00020333                0.06911878               -0.00381507
              10.42003228                4.02173196               32.64477595                0.56773918                0.27549763                0.27610660               -0.91891728               -0.00014395                0.03786931               -0.00575254
              11.42310232                4.02045277               32.56281972                0.79566020                0.30700447                0.33929593               -1.12913167                0.00058092                0.01781262               -0.00820191
               1.42160850                5.02975246               33.37570210                0.80254218               -0.25888726               -0.29102235                0.96858589               -0.00065540                0.01353739                0.01140570
               2.41901962                5.02922138               33.29365121                0.56569343               -0.22742130               -0.22789161                0.75840213               -0.00003546                0.04348011                0.00713508
               3.41706007                5.02867696               33.21213139                0.52681769               -0.16449362               -0.16465306                0.54835876               -0.00008538                0.08357490                0.00448477
               4.41572975                5.02811926               33.13083118                0.51007978               -0.10153028               -0.10146130                0.33822186               -0.00013649                0.10295820                0.00255925
               5.41502947                5.02754823               33.04966436                0.50118094               -0.03849780               -0.03834127                0.12803158               -0.00018049                0.11328181                0.00109295
               6.41495980                5.02696401               32.96855253                0.49962755                0.02457603                0.02474050               -0.08219432               -0.00020188                0.11508120               -0.00018647
               7.41552099                5.02636681               32.88742022                0.50526301                0.08765955                0.08783161               -0.29244734               -0.00019459                0.10856084               -0.00154237
               8.41671299                5.02575688               32.80619312                0.51822772                0.15072923                0.15097114               -0.50272143               -0.00015875                0.09375279               -0.00322368
               9.41853557                5.02513441               32.72479639                0.53896375                0.21377615                0.21417302               -0.71300553               -0.00010284                0.07052547               -0.00546693
              10.42098851                5.02449948               32.64315308                0.56823929                0.27680718                0.27740269               -0.92327682               -0.00004527                0.03859845               -0.00847709
              11.42407171                5.02385198               32.56118274                0.79595257                0.30832042                0.34057484               -1.13349495                0.00063438                0.01817071               -0.01238838
               1.42181762                6.02684864               33.37407933                0.80214720               -0.25759574               -0.28977060                0.96429265               -0.00060935                0.01405351                0.01466773
               2.41924166                6.02694891               33.29200587                0.56514738               -0.22614351               -0.22659519                0.75410260                0.00007353                0.04493180                0.00892690
               3.41729475                6.02703692               33.21048254                0.52653818               -0.16323317               -0.16332192                0.54405995                0.00001216                0.08638311                0.00551906
               4.41597700                6.02711115               33.12918722                0.50992297               -0.10026653               -0.10013706                0.33392170               -0.00014109                0.10643677                0.00312429
               5.41528942                6.02717131               33.04803064                0.50113759               -0.03721919               -0.03703650                0.12372715               -0.00025473                0.11711751                0.00136058
               6.41523262                6.02721790               32.96693119                0.49969154                0.02586918                0.02603211               -0.08650566               -0.00028571                0.11896051               -0.00014111
               7.41580680                6.02725160               32.88581033                0.50543122                0.08896513                0.08911368               -0.29676726               -0.00023951                0.11217842               -0.00172411
               8.41701192                6.02727306               32.80459072                0.51850060                0.15204507                0.15224340               -0.50705028               -0.00012979                0.09680998               -0.00373160
               9.41884771                6.02728261               32.72319458                0.53934637                0.21509398                0.21544730               -0.71734269               -0.00000082                0.07274290               -0.00652546
              10.42131380                6.02728001               32.64154232                0.56874175                0.27811514                0.27870597               -0.92762117                0.00005860                0.03975707               -0.01045516
              11.42441001                6.02726426               32.55955174                0.79624557                0.30962092                0.34191353               -1.13784565                0.00069314                0.01874759               -0.01577166
               1.42139577                7.02395705               33.37244508                0.80175265               -0.25629567               -0.28861051                0.95998646               -0.00053487                0.01479343                0.01645565
               2.41883282                7.02468948               33.29034299                0.56460480               -0.22488474               -0.22525826                0.74978686                0.00020032                0.04701811                0.00933999
               3.41689808                7.02541052               33.20881829                0.52626682               -0.16201380               -0.16191419                0.53974819                0.00006205                0.09039081                0.00554734
               4.41559254                7.02611652               33.12753309                0.50977810               -0.09902277               -0.09878298                0.32961283               -0.00021099                0.11134760                0.00308092
               5.41491762                7.02680750               33.04639353                0.50110834               -0.03593735               -0.03573467                0.11941890               -0.00034959                0.12249301                0.00134418
               6.41487379                7.02748465               32.96531384                0.49976982                0.02717066                0.02731409               -0.09081560               -0.00036741                0.12440291               -0.00010543
               7.41546104                7.02814908               32.88421168                0.50561266                0.09027937                0.09037989               -0.30108049               -0.00029311                0.11730834               -0.00164324
               8.41667938                7.02880174               32.80300592                0.51878401                0.15337830                0.15348190               -0.51136763               -0.00013211                0.10122215               -0.00366295
               9.41852860                7.02944336               32.72161449                0.53973529                0.21643255                0.21667269               -0.72166464                0.00008641                0.07600503               -0.00664893
              10.42100803                7.03007360               32.63995344                0.56924623                0.27942349                0.28000324               -0.93194905                0.00018659                0.04148617               -0.01119365
              11.42411707                7.03069025               32.55793727                0.79653878                0.31090399                0.34333995               -1.14218245                0.00078026                0.01961961               -0.01779177
               1.42034206                8.02107643               33.37078232                0.80135729               -0.25498663               -0.28766045                0.95566142               -0.00039943                0.01588715                0.01617721
               2.41779220                8.02244375               33.28864681                0.56406586               -0.22365561               -0.22375934                0.74544954                0.00027406                0.05003821                0.00779870
               3.41586895                8.02379864               33.20712757                0.52600718               -0.16081995               -0.16045933                0.53542021               -0.00008319                0.09607137                0.00441958
               4.41457580                8.02513549               33.12586247                0.50964898               -0.09773270               -0.09748322                0.32529352               -0.00035598                0.11810740                0.00242326
               5.41391430                8.02645662               33.04475028                0.50109651               -0.03460535               -0.03445976                0.11510615               -0.00042360                0.12973072                0.00105423
               6.41388369                8.02776418               32.96370061                0.49986618                0.02847762                0.02858976               -0.09512389               -0.00039662                0.13170153               -0.00006876
               7.41448385                8.02905920               32.88262740                0.50581071                0.09156563                0.09165570               -0.30538582               -0.00032860                0.12428186               -0.00127268
               8.41571500                8.03034269               32.80144550                0.51908109                0.15468641                0.15473484               -0.51567110               -0.00018245                0.10740037               -0.00291799
               9.41757758                8.03161607               32.72006745                0.54013257                0.21778159                0.21785281               -0.72596786                0.00008069                0.08074286               -0.00551633
              10.42007063                8.03288007               32.63840181                0.56975311                0.28073671                0.28122715               -0.93625543                0.00031855                0.04407541               -0.00997135
              11.42319231                8.03413106               32.55635642                0.79683129                0.31216764                0.34494176               -1.14649911                0.00092607                0.02096031               -0.01758981
               1.41865316                9.01820384               33.36906705                0.80096082               -0.25370646               -0.28714198                0.95130857               -0.00046339                0.01744097                0.01193335
               2.41611609                9.02021429               33.28689435                0.56353427               -0.22242423               -0.22197879                0.74108118                0.00000836                0.05461386                0.00401895
               3.41420467                9.02220133               33.20539872                0.52576506               -0.15943261               -0.15928117                0.53107100               -0.00030713                0.10429661                0.00240243
               4.41292744                9.02416685               33.12416975                0.50954029               -0.09621057               -0.09626767                0.32096060               -0.00040700                0.12717972                0.00130445
               5.41228046                9.02611831               33.04309853                0.50110654               -0.03320796               -0.03321316                0.11078707               -0.00032518                0.13912029                0.00056620
               6.41226328                9.02805645               32.96209172                0.49998414                0.02977435                0.02987113               -0.09943072               -0.00028350                0.14112373               -0.00003131
               7.41287595                9.02998220               32.88106049                0.50602966                0.09277922                0.09296398               -0.30968160               -0.00024895                0.13344063               -0.00067843
               8.41411887                9.03189644               32.79991653                0.51939676                0.15584443                0.15605279               -0.51995682               -0.00020514                0.11589904               -0.00159442
               9.41599284                9.03380041               32.71856757                0.54054380                0.21902711                0.21914493               -0.73024516               -0.00001792                0.08781415               -0.00312440
              10.41849941                9.03569814               32.63691162                0.57026426                0.28203914                0.28229288               -0.94052915                0.00027946                0.04820906               -0.00599753
              11.42163362                9.03758909               32.55483693                0.79712265                0.31342119                0.34688439               -1.15078283                0.00092751                0.02312784               -0.01283909
               1.41631189               10.01533359               33.36724417                0.90034899               -0.25170220               -0.28702446                0.94690553                0.03293099                0.02284910                0.01031128
               2.41379487               10.01800417               33.28506426                0.78159377               -0.22008229               -0.22101197                0.73667382                0.03184858                0.06322479                0.00302776
               3.41191024               10.02061302               33.20362599                0.76280750               -0.15720924               -0.15883192                0.52669535                0.03085536                0.11596502                0.00227893
               4.41065068               10.02321014               33.12245165                0.75474003               -0.09460213               -0.09567191                0.31660888                0.03129128                0.13878389                0.00127482
               5.41001820               10.02579236               33.04143700                0.75056301               -0.03182748               -0.03259530                0.10645846                0.03134729                0.15082932                0.00048714
               6.41001413               10.02836160               32.96048731                0.75003788                0.03103369                0.03051551               -0.10373693                0.03139134                0.15282006               -0.00022826
               7.41063887               10.03091848               32.87951276                0.75309401                0.09392753                0.09362828               -0.31396594                0.03140014                0.14501700               -0.00097092
               8.41189268               10.03346375               32.79842384                0.75980921                0.15683203                0.15673096               -0.52421972                0.03140609                0.12719426               -0.00186174
               9.41377552               10.03599896               32.71712622                0.77041349                0.21974327                0.21985521               -0.73448735                0.03137696                0.09853260               -0.00310962
              10.41628755               10.03852593               32.63551401                0.78530487                0.28267295                0.28277880               -0.94475277                0.03230337                0.05651265               -0.00510791
              11.41942897               10.04106875               32.55344249                0.89865879                0.31414255                0.34796617               -1.15500264                0.03381720                0.02939387               -0.01118522
               1.49429737                0.04605534               34.39368698                0.90653696               -0.26119839               -0.29460237                0.97687027               -0.03351811                0.01870080               -0.00487183
               2.49168539                0.04234885               34.30961294                0.79253709               -0.23014145               -0.22986703                0.76946442               -0.03168945                0.04403139               -0.00483753
               3.48969454                0.03866563               34.22597576                0.77033889               -0.16815676               -0.16812171                0.56217653               -0.03082287                0.08031244               -0.00227965
               4.48832225                0.03497147               34.14257425                0.75815626               -0.10624578               -0.10584341                0.35487446               -0.03102409                0.10091616               -0.00135053
               5.48756963                0.03126622               34.05931267                0.75146729               -0.04422957               -0.04362863                0.14755510               -0.03105156                0.11193162               -0.00061249
               6.48743766                0.02754815               33.97611161                0.75009589                0.01785156                0.01860387               -0.05978067               -0.03107672                0.11437583                0.00001486
               7.48792666                0.02381679               33.89289570                0.75398177                0.07995269                0.08083771               -0.26713501               -0.03107880                0.10852193                0.00060183
               8.48903672                0.02007158               33.80959101                0.76317346                0.14204457                0.14306322               -0.47451075               -0.03108684                0.09439698                0.00119755
               9.49076755                0.01631099               33.72612271                0.77782941                0.20413527                0.20533857               -0.68190828               -0.03102488                0.07180487                0.00185717
              10.49311942                0.01253411               33.64241293                0.79822340                0.26615071                0.26731392               -0.88932320               -0.03183803                0.04010571                0.00260797
              11.49609057                0.00871805               33.55837405                0.90733042                0.29711435                0.33190345               -1.09675419               -0.03191396                0.01964886                0.00424327
               1.49766869                1.04310932               34.39205227                0.80770532               -0.26053339               -0.29342790                0.97269435               -0.00080967                0.01543668               -0.00394929
               2.49506335                1.04005018               34.30795983                0.57531991               -0.22968418               -0.22943566                0.76527970               -0.00017626                0.04203442               -0.00497876
               3.49307500                1.03698441               34.22432978                0.53379686               -0.16758168               -0.16734244                0.55798748                0.00005853                0.07876711               -0.00238643
               4.49171172                1.03391304               34.14091899                0.51329874               -0.10521153               -0.10516434                0.35066395                0.00018603                0.09843574               -0.00129318
               5.49097077                1.03082993               34.05764606                0.50211662               -0.04300558               -0.04296939                0.14332152                0.00013201                0.10926951               -0.00067348
               6.49085161                1.02773419               33.97443239                0.49982968                0.01916933                0.01924367               -0.06403770                0.00009478                0.11160375               -0.00027815
               7.49135416                1.02462517               33.89120328                0.50629617                0.08135702                0.08146301               -0.27141572                0.00006452                0.10569724                0.00002069
               8.49247875                1.02150221               33.80788530                0.52162732                0.14359407                0.14368304               -0.47881558                0.00002977                0.09156855                0.00032044
               9.49422604                1.01836438               33.72440412                0.54619164                0.20593818                0.20592325               -0.68623754               -0.00016947                0.06900903                0.00072049
              10.49659751                1.01520725               33.64068215                0.58063132                0.26807193                0.26823342               -0.89367635               -0.00025689                0.03773155                0.00135635
              11.49958748                1.01203709               33.55663938                0.80422395                0.29899673                0.33196382               -1.10111533                0.00067875                0.01766393                0.00266393
               1.50039946                2.04018678               34.39035731                0.80222693               -0.25926888               -0.29141125                0.96850664               -0.00087391                0.01263855               -0.00289619
               2.49780677                2.03776013               34.30624255                0.56543296               -0.22833041               -0.22850551                0.76109204               -0.00034834                0.04155581               -0.00382030
               3.49583285                2.03531878               34.22263691                0.52687345               -0.16631587               -0.16602573                0.55382480               -0.00012495                0.07992040               -0.00231275
               4.49448045                2.03286819               34.13923681                0.51026892               -0.10408694               -0.10385034                0.34648192                0.00008792                0.09850291               -0.00125977
               5.49375111                2.03040683               34.05596687                0.50129741               -0.04180683               -0.04166751                0.13910747                0.00013034                0.10875799               -0.00069943
               6.49364432                2.02793303               33.97275264                0.49947750                0.02044081                0.02052948               -0.06828822                0.00009314                0.11081307               -0.00040320
               7.49415993                2.02544605               33.88952126                0.50464889                0.08268921                0.08273964               -0.27570449                0.00003085                0.10479054               -0.00024867
               8.49529810                2.02294524               33.80620075                0.51693740                0.14495997                0.14496854               -0.48314282               -0.00009353                0.09068858               -0.00014100
               9.49705913                2.02042946               33.72271821                0.53675781                0.20717361                0.20725108               -0.69060087               -0.00029404                0.06834339                0.00001952
              10.49944157                2.01789878               33.63899838                0.56483806                0.26926628                0.26984233               -0.89806555               -0.00040888                0.03746310                0.00037517
              11.50244446                2.01535733               33.55496249                0.79379117                0.30028807                0.33252197               -1.10550330                0.00036435                0.01761539                0.00098204
               1.50250451                3.03728109               34.38866558                0.80182677               -0.25801155               -0.28985877                0.96430099               -0.00075441                0.01298154                0.00197712
               2.49992439                3.03548007               34.30455150                0.56487103               -0.22700273               -0.22740277                0.75689354               -0.00025390                0.04195714                0.00088332
               3.49796445                3.03366389               34.22094806                0.52657196               -0.16494818               -0.16492266                0.54962574               -0.00023343                0.08059668                0.00032579
               4.49662543                3.03183603               34.13755454                0.51008735               -0.10279575               -0.10261455                0.34227411               -0.00006622                0.09925851                0.00015598
               5.49590854                3.02999658               34.05428874                0.50122342               -0.04055910               -0.04039109                0.13487979                0.00000510                0.10927238               -0.00003548
               6.49581424                3.02814478               33.97107659                0.49950603                0.02170125                0.02182224               -0.07254153               -0.00000507                0.11113288               -0.00032386
               7.49634256                3.02627996               33.88784581                0.50478135                0.08396130                0.08404978               -0.27998565               -0.00006859                0.10496611               -0.00072719
               8.49749347                3.02440158               33.80452484                0.51717562                0.14620323                0.14631707               -0.48745134               -0.00017568                0.09076786               -0.00126031
               9.49926663                3.02250940               33.72104132                0.53710116                0.20839950                0.20868450               -0.69493263               -0.00029311                0.06837955               -0.00192734
              10.50166146                3.02060409               33.63732050                0.56527772                0.27055145                0.27116976               -0.90241108               -0.00025798                0.03748128               -0.00272932
              11.50467765                3.01868753               33.55328360                0.79403983                0.30161938                0.33360144               -1.10984931                0.00050261                0.01761470               -0.00368700
               1.50398642                4.03438961               34.38699047                0.80144036               -0.25675328               -0.28848968                0.96008543               -0.00068875                0.01319914                0.00712739
               2.50141889                4.03321208               34.30286746                0.56433383               -0.22571027               -0.22616817                0.75267881               -0.00013807                0.04259826                0.00436818
               3.49947222                4.03202032               34.21926391                0.52628816               -0.16362228               -0.16374774                0.54540945               -0.00017936                0.08181375                0.00271928
               4.49814645                4.03081589               34.13587333                0.50991731               -0.10148771               -0.10139767                0.33805063               -0.00013162                0.10069461                0.00152571
               5.49744246                4.02959901               34.05261217                0.50115972               -0.03928063               -0.03912552                0.13064314               -0.00010303                0.11076454                0.00060551
               6.49736083                4.02836947               33.96940445                0.49954569                0.02296461                0.02311272               -0.07679603               -0.00011140                0.11253938               -0.00024774
               7.49790176                4.02712705               33.88617693                0.50492422                0.08521584                0.08536213               -0.28426005               -0.00014345                0.10620154               -0.00118983
               8.49906515                4.02587158               33.80285731                0.51742482                0.14745011                0.14766133               -0.49174519               -0.00018496                0.09176406               -0.00235439
               9.50085076                4.02460315               33.71937260                0.53746322                0.20965686                0.21003255               -0.69924256               -0.00020094                0.06907974               -0.00386027
              10.50325829                4.02332217               33.63564754                0.56576169                0.27184388                0.27244517               -0.90673080               -0.00014220                0.03784177               -0.00580644
              11.50628764                4.02202936               33.55160301                0.79432331                0.30293492                0.33480048               -1.11417055                0.00057310                0.01778735               -0.00825792
               1.50484579                5.03151130               34.38532451                0.80105536               -0.25548769               -0.28719870                0.95585996               -0.00064669                0.01355599                0.01145578
               2.50229091                5.03095670               34.30118562                0.56380007               -0.22443707               -0.22490149                0.74845056               -0.00003520                0.04358849                0.00717549
               3.50035705                5.03038894               34.21757919                0.52601041               -0.16233993               -0.16249780                0.54118007               -0.00008455                0.08372183                0.00451988
               4.49904411                5.02980808               34.13419144                0.50975551               -0.10020750               -0.10014024                0.33381669               -0.00013495                0.10304257                0.00258634
               5.49835290                5.02921407               34.05093655                0.50110627               -0.03800694               -0.03785329                0.12640059               -0.00017833                0.11332776                0.00110867
               6.49828397                5.02860704               33.96773630                0.49959618                0.02423421                0.02439606               -0.08105051               -0.00019941                0.11509721               -0.00018502
               7.49883758                5.02798720               33.88451529                0.50507712                0.08648484                0.08665469               -0.28852832               -0.00019218                0.10854941               -0.00155692
               8.50001367                5.02735481               33.80119929                0.51768217                0.14872192                0.14896103               -0.49602700               -0.00015676                0.09371767               -0.00325415
               9.50181202                5.02671005               33.71771355                0.53783018                0.21093674                0.21132878               -0.70353584               -0.00010158                0.07047882               -0.00551184
              10.50423241                5.02605300               33.63398137                0.56624790                0.27313596                0.27372390               -0.91103211               -0.00004477                0.03856719               -0.00853405
              11.50727474                5.02538354               33.54992268                0.79460732                0.30423331                0.33606227               -1.11847553                0.00062581                0.01814384               -0.01245471
               1.50508268                6.02864563               34.38365910                0.80067146               -0.25421352               -0.28596371                0.95162436               -0.00060129                0.01407348                0.01472863
               2.50254055                6.02871405               34.29949757                0.56326970               -0.22317644               -0.22362243                0.74420872                0.00007235                0.04504489                0.00897010
               3.50061915                6.02877037               34.21588764                0.52573920               -0.16109640               -0.16118448                0.53693881                0.00001174                0.08653704                0.00555478
               4.49931862                6.02881309               34.13250477                0.50960361               -0.09896069               -0.09883374                0.32957409               -0.00013929                0.10652556                0.00315098
               5.49863994                6.02884194               34.04926007                0.50106476               -0.03674548               -0.03656601                0.12215384               -0.00025120                0.11716513                0.00137582
               6.49858371                6.02885739               33.96607213                0.49965901                0.02551003                0.02567039               -0.08530413               -0.00028165                0.11897593               -0.00013974
               7.49915014                6.02886014               33.88286249                0.50524138                0.08777295                0.08791964               -0.29279046               -0.00023607                0.11216529               -0.00173813
               8.50033917                6.02885080               33.79955389                0.51794803                0.15002015                0.15021632               -0.50029798               -0.00012793                0.09677325               -0.00376149
               9.50215054                6.02882972               33.71606866                0.53820256                0.21223692                0.21258604               -0.70781489               -0.00000083                0.07269540               -0.00657099
              10.50458391                6.02879665               33.63232746                0.56673623                0.27442637                0.27500972               -0.91531817                0.00005774                0.03972574               -0.01051636
              11.50763907                6.02875060               33.54824847                0.79489192                0.30551636                0.33738302               -1.12276796                0.00068382                0.01872092               -0.01584964
               1.50469693                7.02579202               34.38198208                0.80028784               -0.25293090               -0.28481915                0.94737590               -0.00052785                0.01481614                0.01652289
               2.50216762                7.02648425               34.29779182                0.56274251               -0.22193460               -0.22230332                0.73995077                0.00019746                0.04714055                0.00938180
               3.50025824                7.02716525               34.21418056                0.52547618               -0.15989340               -0.15979561                0.53268478                0.00006098                0.09056017                0.00558128
               4.49896976                7.02783140               34.13080784                0.50946361               -0.09773358               -0.09749787                0.32532292               -0.00020815                0.11145007                0.00310622
               5.49830357                7.02848275               34.04758017                0.50103719               -0.03548081               -0.03528166                0.11790329               -0.00034448                0.12255193                0.00135869
               6.49826014                7.02912045               33.96441197                0.49973630                0.02679406                0.02693522               -0.08955637               -0.00036183                0.12442762               -0.00010382
               7.49883945                7.02974560               33.88122100                0.50541869                0.08906954                0.08916895               -0.29704598               -0.00028854                0.11730322               -0.00165595
               8.50004153                7.03035914               33.79792621                0.51822452                0.15133545                0.15143836               -0.50455758               -0.00012993                0.10119269               -0.00369089
               9.50186616                7.03096177               33.71444565                0.53858095                0.21355749                0.21379523               -0.71207914                0.00008534                0.07596385               -0.00669302
              10.50431268                7.03155319               33.63069559                0.56722668                0.27571721                0.27628978               -0.91958833                0.00018402                0.04145885               -0.01125612
              11.50738050                7.03213120               33.54659092                0.79517671                0.30678230                0.33879045               -1.12704704                0.00076983                0.01959523               -0.01787761
               1.50368766                8.02294925               34.38027635                0.79990332               -0.25163948               -0.28388191                0.94310892               -0.00039417                0.01591450                0.01624327
               2.50117127                8.02426798               34.29605256                0.56221901               -0.22072206               -0.22082416                0.73567150                0.00027011                0.05017599                0.00783167
               3.49927322                8.02557446               34.21244685                0.52522467               -0.15871561               -0.15836032                0.52841473               -0.00008251                0.09626650                0.00444757
               4.49799696                8.02686313               34.12909431                0.50933912               -0.09646081               -0.09621567                0.32106153               -0.00035111                0.11823414                0.00244457
               5.49734401                8.02813631               34.04589408                0.50102718               -0.03416671               -0.03402383                0.11364830               -0.00041728                0.12981168                0.00106667
               6.49731362                8.02939610               33.96275594                0.49983134                0.02808345                0.02819382               -0.09380698               -0.00039038                0.13174642               -0.00006696
               7.49790568                8.03064352               33.87959395                0.50561279                0.09033856                0.09042771               -0.30129368               -0.00032327                0.12429551               -0.00128276
               8.49912039                8.03187957               33.79632304                0.51851458                0.15262600                0.15267463               -0.50880350               -0.00017929                0.10738820               -0.00294092
               9.50095820                8.03310563               33.71285586                0.53896829                0.21488834                0.21495979               -0.71632475                0.00007995                0.08071637               -0.00555368
              10.50341816                8.03432244               33.62910118                0.56771937                0.27701277                0.27749757               -0.92383715                0.00031430                0.04405751               -0.01002707
              11.50649845                8.03552641               33.54496719                0.79546086                0.30802904                0.34037089               -1.13130616                0.00091370                0.02094175               -0.01767400
               1.50205159                9.02011439               34.37851784                0.79951791               -0.25037658               -0.28337071                0.93881424               -0.00045731                0.01747458                0.01198268
               2.49954782                9.02206777               34.29425671                0.56170269               -0.21950729               -0.21906675                0.73136159                0.00000737                0.05477506                0.00403439
               3.49766144                9.02399804               34.21067480                0.52499088               -0.15734686               -0.15719835                0.52412383               -0.00030365                0.10453082                0.00241937
               4.49640088                9.02590709               34.12735855                0.50923519               -0.09495914               -0.09501636                0.31678663               -0.00040145                0.12734279                0.00131759
               5.49576226                9.02780227               34.04419942                0.50103895               -0.03278826               -0.03279384                0.10938705               -0.00032021                0.13923552                0.00057400
               6.49574512                9.02968432               33.96110427                0.49994839                0.02936272                0.02945808               -0.09805615               -0.00027893                0.14120139               -0.00002994
               7.49634951                9.03155415               33.87798437                0.50582782                0.09153596                0.09171844               -0.30553191               -0.00024482                0.13348590               -0.00068425
               8.49757584                9.03341263               33.79475149                0.51882327                0.15376869                0.15397487               -0.51303183               -0.00020166                0.11591705               -0.00160802
               9.49942489                9.03526097               33.71131349                0.53936904                0.21611720                0.21623462               -0.72054478               -0.00001719                0.08781451               -0.00314684
              10.50189818                9.03710314               33.62756854                0.56821648                0.27829763                0.27854940               -0.92805360                0.00027600                0.04820883               -0.00603224
              11.50499084                9.03893862               33.54340514                0.79574393                0.30926571                0.34228739               -1.13553255                0.00091520                0.02312018               -0.01290013
               1.49977175               10.01728184               34.37665123                0.89963120               -0.24839886               -0.28325500                0.93446977                0.03249729                0.02290494                0.01035774
               2.49728776               10.01988665               34.29238284                0.78068314               -0.21719583               -0.21811241                0.72701303                0.03142656                0.06342605                0.00304088
               3.49542783               10.02243049               34.20885861                0.76242317               -0.15515295               -0.15675545                0.51980677                0.03044703                0.11625308                0.00229529
               4.49418470               10.02496281               34.12559722                0.75458917               -0.09337301               -0.09442847                0.31249310                0.03087877                0.13899638                0.00128649
               5.49356037               10.02748043               34.04249490                0.75052983               -0.03142678               -0.03218417                0.10511636                0.03093413                0.15099315                0.00049333
               6.49355616               10.02998526               33.95945709                0.75001967                0.03060500                0.03009386               -0.10230469                0.03097765                0.15294564               -0.00022813
               7.49417247               10.03247789               33.87639408                0.75299178                0.09266899                0.09237381               -0.30975887                0.03098638                0.14510964               -0.00097732
               8.49540954               10.03495907               33.79321646                0.75952029                0.15474346                0.15464388               -0.51723756                0.03099230                0.12725903               -0.00187494
               9.49726734               10.03743032               33.70983001                0.76982276                0.21682446                0.21693528               -0.72473007                0.03096367                0.09857815               -0.00313014
              10.49974603               10.03989343               33.62612897                0.78427621                0.27892335                0.27902904               -0.93222064                0.03187728                0.05654894               -0.00513801
              11.50284581               10.04237216               33.54196879                0.89796655                0.30997740                0.34335458               -1.13969577                0.03336987                0.02941516               -0.01123979
               1.57959575                0.04766217               35.40339044                0.90565070               -0.25770091               -0.29065588                0.96378289               -0.03306735                0.01875478               -0.00487923
               2.57701874                0.04397451               35.31725624                0.79132965               -0.22706172               -0.22679032                0.75916682               -0.03126264                0.04416404               -0.00483539
               3.57505451                0.04030983               35.23156009                0.76974989               -0.16591104               -0.16587668                0.55466744               -0.03040809                0.08051211               -0.00226387
               4.57370052                0.03663434               35.14609946                0.75791215               -0.10483307               -0.10443588                0.35015394               -0.03060712                0.10111100               -0.00133793
               5.57295785                0.03294790               35.06077859                0.75140980               -0.04365095               -0.04305795                0.14562342               -0.03063426                0.11211597               -0.00060458
               6.57282750                0.02924882               34.97551809                0.75007612                0.01759531                0.01833748               -0.05892327               -0.03065912                0.11454443                0.00001781
               7.57330976                0.02553662               34.89024254                0.75385417                0.07886130                0.07973424               -0.26348828               -0.03066116                0.10866764                0.00059970
               8.57440472                0.02181076               34.80487800                0.76279022                0.14011818                0.14112281               -0.46807448               -0.03066909                0.09451365                0.00119005
               9.57611212                0.01806973               34.71934963                0.77703457                0.20137387                0.20256057               -0.67268223               -0.03060795                0.07188990                0.00184396
              10.57843220                0.01431264               34.63357962                0.79684749                0.26255499                0.26370229               -0.87730709               -0.03140980                0.04015722                0.00258976
              11.58136322                0.01051693               34.54748034                0.90640752                0.29310191                0.32742289               -1.08194783               -0.03148421                0.01967088                0.00423621
               1.58295273                1.04475562               35.40171425                0.80606573               -0.25704518               -0.28949698                0.95966409               -0.00079808                0.01546613               -0.00394000
               2.58038228                1.04170661               35.31556158                0.57315113               -0.22661102               -0.22636525                0.75503938               -0.00017355                0.04214472               -0.00496042
               3.57842051                1.03865106               35.22987251                0.53279580               -0.16534367               -0.16510806                0.55053566                0.00005761                0.07893813               -0.00234437
               4.57707541                1.03558999               35.14440239                0.51288673               -0.10381225               -0.10376636                0.34600097                0.00018303                0.09859255               -0.00125787
               5.57634427                1.03251732               35.05906994                0.50201937               -0.04244317               -0.04240791                0.14144768                0.00012936                0.10941473               -0.00065196
               6.57622655                1.02943219               34.97379659                0.49979612                0.01889530                0.01896848               -0.06312221                0.00009252                0.11173282               -0.00027270
               7.57672218                1.02633396               34.88850761                0.50608254                0.08024641                0.08035108               -0.26771067                0.00006269                0.10580302                0.00000918
               8.57783147                1.02322199               34.80312953                0.52098472                0.14164619                0.14173437               -0.47232070                0.00002850                0.09164478                0.00029179
               9.57955510                1.02009534               34.71758804                0.54485167                0.20315156                0.20313759               -0.67695255               -0.00016791                0.06905362                0.00067571
              10.58189451                1.01694966               34.63180560                0.57829157                0.26444956                0.26460972               -0.88160108               -0.00025347                0.03775077                0.00130086
              11.58484409                1.01379116               34.54570236                0.80264833                0.29495848                0.32748215               -1.08624976                0.00067023                0.01766148                0.00261930
               1.58567780                2.04187223               35.39997770                0.80072358               -0.25579785               -0.28750750                0.95553375               -0.00086190                0.01265696               -0.00287937
               2.58311982                2.03944721               35.31380270                0.56351486               -0.22527553               -0.22544835                0.75090912               -0.00034372                0.04166746               -0.00379115
               3.58117229                2.03700767               35.22813829                0.52605106               -0.16409500               -0.16380941                0.54643014               -0.00012356                0.08008305               -0.00226260
               4.57983792                2.03455902               35.14267867                0.50993378               -0.10270295               -0.10247056                0.34187628                0.00008597                0.09862290               -0.00121469
               5.57911823                2.03209974               35.05734889                0.50121847               -0.04126064               -0.04112401                0.13729128                0.00012738                0.10885777               -0.00067115
               6.57901271                2.02962819               34.97207462                0.49944981                0.02014953                0.02023666               -0.06731474                0.00009051                0.11089353               -0.00039669
               7.57952122                2.02714364               34.88678299                0.50447673                0.08156041                0.08161036               -0.27194101                0.00002909                0.10484667               -0.00026586
               8.58064391                2.02464545               34.80140201                0.51641806                0.14299332                0.14300256               -0.47658909               -0.00009340                0.09071610               -0.00018159
               9.58238108                2.02213249               34.71585880                0.53566689                0.20437000                0.20444762               -0.68125669               -0.00029080                0.06834530               -0.00004118
              10.58473131                2.01960483               34.63007823                0.56291087                0.26562766                0.26619698               -0.88593106               -0.00040364                0.03745816                0.00030412
              11.58769364                2.01706657               34.54398188                0.79248628                0.29623237                0.32803270               -1.09057872                0.00035928                0.01760235                0.00092098
               1.58778555                3.03900547               35.39824420                0.80033498               -0.25455767               -0.28597641                0.95138573               -0.00074404                0.01300076                0.00200227
               2.58523998                3.03719764               35.31206996                0.56296947               -0.22396596               -0.22436086                0.74676818               -0.00025060                0.04206564                0.00091662
               3.58330623                3.03537487               35.22640774                0.52575821               -0.16274599               -0.16272146                0.54228872               -0.00023065                0.08074814                0.00036231
               4.58198506                3.03354057               35.14095461                0.50975715               -0.10142941               -0.10125161                0.33772612               -0.00006598                0.09935764                0.00018878
               5.58127764                3.03169484               35.05562878                0.50114605               -0.04002990               -0.03986500                0.13312134                0.00000407                0.10934284               -0.00001474
               6.58118446                3.02983693               34.97035633                0.49947727                0.02139283                0.02151177               -0.07151000               -0.00000612                0.11117993               -0.00032022
               7.58170550                3.02796617               34.88506502                0.50460517                0.08281517                0.08290262               -0.27616382               -0.00006872                0.10498787               -0.00074271
               8.58284076                3.02608204               34.79968331                0.51664958                0.14421968                0.14433266               -0.48083896               -0.00017409                0.09076329               -0.00129445
               9.58458989                3.02418429               34.71413888                0.53600073                0.20557937                0.20586137               -0.68552963               -0.00028959                0.06835602               -0.00197627
              10.58695235                3.02227360               34.62835719                0.56333900                0.26689552                0.26750605               -0.89021765               -0.00025466                0.03746210               -0.00278510
              11.58992780                3.02035181               34.54225983                0.79272868                0.29754567                0.32909781               -1.09486574                0.00049566                0.01759396               -0.00373892
               1.58927856                4.03615271               35.39652722                0.79995952               -0.25331657               -0.28462613                0.94722776               -0.00067935                0.01321757                0.00716496
               2.58674540                4.03495999               35.31034406                0.56244771               -0.22269115               -0.22314318                0.74261111               -0.00013639                0.04270466                0.00440431
               3.58482474                4.03375324               35.22468171                0.52548297               -0.16143824               -0.16156255                0.53813011               -0.00017729                0.08195891                0.00275370
               4.58351663                4.03253399               35.13923146                0.50959184               -0.10013930               -0.10005126                0.33356033               -0.00013028                0.10078151                0.00155384
               5.58282196                4.03130244               35.05391013                0.50108411               -0.03876892               -0.03861666                0.12894253               -0.00010224                0.11081748                0.00062252
               6.58274126                4.03005843               34.96864193                0.49951568                0.02263897                0.02278464               -0.07570645               -0.00011058                0.11256553               -0.00024569
               7.58327473                4.02880169               34.88335368                0.50474398                0.08405268                0.08419705               -0.28037998               -0.00014215                0.10620149               -0.00120454
               8.58442231                4.02753210               34.79797312                0.51689208                0.14544968                0.14565849               -0.48507427               -0.00018293                0.09173941               -0.00238552
               9.58618373                4.02624971               34.71242736                0.53635281                0.20681969                0.20719084               -0.68978072               -0.00019850                0.06904085               -0.00390501
              10.58855870                4.02495496               34.62664133                0.56380928                0.26817041                0.26876395               -0.89447851               -0.00014046                0.03781431               -0.00585986
              11.59154714                4.02364853               34.54053631                0.79300384                0.29884336                0.33028056               -1.09912826                0.00056515                0.01776214               -0.00831379
               1.59015740                5.03331294               35.39481930                0.79958543               -0.25206832               -0.28335284                0.94306017               -0.00063791                0.01357452                0.01150555
               2.58763672                5.03273478               35.30862022                0.56192934               -0.22143535               -0.22189383                0.73844071               -0.00003495                0.04369573                0.00721560
               3.58572869                5.03214362               35.22295499                0.52521330               -0.16017342               -0.16032964                0.53395846               -0.00008375                0.08386680                0.00455461
               4.58443325                5.03153955               35.13750751                0.50943489               -0.09887660               -0.09881096                0.32938421               -0.00013344                0.10312546                0.00261317
               5.58375116                5.03092251               35.05219237                0.50103265               -0.03751263               -0.03736177                0.12475792               -0.00017620                0.11337298                0.00112426
               6.58368299                5.03029262               34.96693152                0.49956510                0.02389124                0.02405050               -0.07990292               -0.00019694                0.11511301               -0.00018363
               7.58422898                5.02965011               34.88164966                0.50489320                0.08530437                0.08547197               -0.28459001               -0.00018980                0.10853811               -0.00157132
               8.58538908                5.02899521               34.79627258                0.51714221                0.14670419                0.14694044               -0.48929775               -0.00015488                0.09368282               -0.00328432
               9.58716307                5.02832811               34.71072567                0.53670951                0.20808219                0.20846936               -0.69401562               -0.00010040                0.07043236               -0.00555624
              10.58955073                5.02764888               34.62493244                0.56428139                0.26944494                0.27002525               -0.89872129               -0.00004427                0.03853587               -0.00859034
              11.59255197                5.02695742               34.53881323                0.79327958                0.30012411                0.33152523               -1.10337485                0.00061724                0.01811686               -0.01252040
               1.59042214                6.03048565               35.39311182                0.79921231               -0.25081161               -0.28213475                0.93888260               -0.00059317                0.01409320                0.01478886
               2.58791402                6.03052211               35.30689005                0.56141402               -0.22019201               -0.22063225                0.73425690                0.00007115                0.04515664                0.00901269
               3.58601830                6.03054665               35.22122132                0.52494994               -0.15894691               -0.15903428                0.52977527                0.00001124                0.08668895                0.00558988
               4.58473508                6.03055777               35.13577871                0.50928762               -0.09764681               -0.09752235                0.32519962               -0.00013763                0.10661303                0.00317729
               5.58406536                6.03055521               35.05047371                0.50099273               -0.03626836               -0.03609208                0.12056912               -0.00024776                0.11721200                0.00139087
               6.58400971                6.03053944               34.96522511                0.49962683                0.02514965                0.02530745               -0.08409853               -0.00027763                0.11899111               -0.00013838
               7.58456835                6.03051113               34.87995452                0.50505315                0.08657488                0.08671970               -0.28879407               -0.00023269                0.11215234               -0.00175202
               8.58574121                6.03047091               34.79458476                0.51740143                0.14798469                0.14817868               -0.49351056               -0.00012617                0.09673688               -0.00379108
               9.58752805                6.03041910               34.70903828                0.53707160                0.20936465                0.20970959               -0.69823648               -0.00000089                0.07264831               -0.00661612
              10.58992850                6.03035546               34.62323596                0.56475584                0.27071781                0.27129363               -0.90294914                0.00005696                0.03969457               -0.01057694
              11.59294240                6.03027903               34.53709639                0.79355597                0.30138973                0.33282805               -1.10760899                0.00067459                0.01869432               -0.01592672
               1.59007261                7.02767025               35.39139260                0.79883949               -0.24954658               -0.28100581                0.93469222               -0.00052074                0.01483852                0.01658946
               2.58757714                7.02832213               35.30514200                0.56090201               -0.21896723               -0.21933107                0.73005714                0.00019459                0.04726155                0.00942311
               3.58569326                7.02896294               35.21947199                0.52469519               -0.15776040               -0.15766440                0.52557934                0.00005983                0.09072742                0.00561478
               4.58442193                7.02958910               35.13403955                0.50915231               -0.09643643               -0.09620478                0.32100645               -0.00020536                0.11155116                0.00313122
               5.58376454                7.03020067               35.04875160                0.50096703               -0.03502093               -0.03482530                0.11637656               -0.00033941                0.12261008                0.00137302
               6.58372152                7.03079877               34.96352271                0.49970315                0.02641614                0.02655502               -0.08829273               -0.00035629                0.12445200               -0.00010223
               7.58429286                7.03138450               34.87827076                0.50522674                0.08785373                0.08795204               -0.29299157               -0.00028403                0.11729817               -0.00166859
               8.58547859                7.03195878               34.79291477                0.51767073                0.14928198                0.14938420               -0.49771217               -0.00012779                0.10116344               -0.00371858
               9.58727850                7.03252230               34.70737291                0.53743982                0.21066719                0.21090249               -0.70244279                0.00008426                0.07592286               -0.00673665
              10.58969193                7.03307475               34.62156168                0.56523250                0.27199103                0.27255637               -0.90716126                0.00018155                0.04143169               -0.01131803
              11.59271832                7.03361398               34.53539633                0.79383259                0.30263839                0.33421629               -1.11182957                0.00075942                0.01957113               -0.01796269
               1.58910795                8.02486553               35.38964450                0.79846597               -0.24827286               -0.28008141                0.93048345               -0.00038890                0.01594129                0.01630875
               2.58662522                8.02613549               35.30336024                0.56039383               -0.21777136               -0.21787177                0.72583624                0.00026616                0.05031206                0.00786441
               3.58475252                8.02739336               35.21769586                0.52445193               -0.15659877               -0.15624877                0.52136751               -0.00008179                0.09645920                0.00447537
               4.58349325                8.02863367               35.13228370                0.50903290               -0.09518100               -0.09494018                0.31680312               -0.00034620                0.11835919                0.00246577
               5.58284890                8.02985870               35.04702325                0.50095867               -0.03372480               -0.03358463                0.11217960               -0.00041094                0.12989156                0.00107900
               6.58281875                8.03107054               34.96182447                0.49979699                0.02768788                0.02779647               -0.09248536               -0.00038417                0.13179070               -0.00006520
               7.58340266                8.03227017               34.87660152                0.50541677                0.08910542                0.08919366               -0.29718136               -0.00031796                0.12430902               -0.00129278
               8.58460086                8.03345859               34.79126943                0.51795413                0.15055487                0.15060369               -0.50190020               -0.00017612                0.10737621               -0.00296370
               9.58641376                8.03463715               34.70574096                0.53781685                0.21197976                0.21205139               -0.70663049                0.00007918                0.08069006               -0.00559052
              10.58884045                8.03580659               34.61992507                0.56571111                0.27326884                0.27374791               -0.91135216                0.00030999                0.04403952               -0.01008206
              11.59187913                8.03696336               34.53373030                0.79410854                0.30386809                0.33577520               -1.11603069                0.00090125                0.02092313               -0.01775748
               1.58752491                9.02206862               35.38784333                0.79809131               -0.24702723               -0.27957749                0.92624718               -0.00045126                0.01750767                0.01203130
               2.58505464                9.02396470               35.30152159                0.55989303               -0.21657322               -0.21613761                0.72158491                0.00000637                0.05493437                0.00404972
               3.58319345                9.02583796               35.21588119                0.52422621               -0.15524866               -0.15510302                0.51713514               -0.00030007                0.10476222                0.00243627
               4.58194967                9.02769030               35.13050548                0.50893367               -0.09369991               -0.09375720                0.31258661               -0.00039581                0.12750372                0.00133064
               5.58131945                9.02952897               35.04528627                0.50097213               -0.03236542               -0.03237132                0.10797649               -0.00031525                0.13934921                0.00058173
               6.58130236                9.03135470               34.96013059                0.49991299                0.02894957                0.02904355               -0.09667658               -0.00027439                0.14127810               -0.00002857
               7.58189844                9.03316838               34.87494985                0.50562814                0.09028655                0.09046676               -0.30136179               -0.00024070                0.13353063               -0.00069000
               8.58310809                9.03497085               34.78965589                0.51825581                0.15168213                0.15188612               -0.50607078               -0.00019818                0.11593490               -0.00162152
               9.58493209                9.03676333               34.70415667                0.53820761                0.21319182                0.21330880               -0.71079277               -0.00001645                0.08781486               -0.00316917
              10.58737193                9.03854971               34.61835055                0.56619436                0.27453604                0.27478576               -0.91551101                0.00027250                0.04820824               -0.00606670
              11.59042281                9.04032949               34.53212628                0.79438320                0.30508786                0.33766552               -1.12019971                0.00090278                0.02311203               -0.01296050
               1.58530677               10.01927398               35.38593356                0.89892144               -0.24507620               -0.27946359                0.92196172                0.03206107                0.02296039                0.01040332
               2.58285601               10.02181274               35.29960452                0.77978334               -0.21429239               -0.21519583                0.71729540                0.03100220                0.06362517                0.00305389
               3.58102092               10.02429130               35.21402213                0.76204371               -0.15308435               -0.15466648                0.51287682                0.03003649                0.11653769                0.00231162
               4.57979432               10.02675853               35.12870151                0.75444008               -0.09213619               -0.09317724                0.30835164                0.03046396                0.13920613                0.00129797
               5.57917820               10.02921127               35.04353933                0.75049715               -0.03102304               -0.03176989                0.10376404                0.03051861                0.15115496                0.00049949
               6.57917386               10.03165141               34.95844121                0.75000155                0.03017472                0.02967069               -0.10086718                0.03056161                0.15306971               -0.00022795
               7.57978169               10.03407951               34.87331758                0.75289063                0.09140422                0.09111315               -0.30553097                0.03057027                0.14520116               -0.00098361
               8.58100194               10.03649631               34.78807909                0.75923424                0.15264400                0.15254593               -0.51021908                0.03057613                0.12732296               -0.00188798
               9.58283457               10.03890333               34.70263162                0.76923865                0.21389012                0.21399978               -0.71492101                0.03054808                0.09862304               -0.00315076
              10.58527975               10.04130230               34.61686959                0.78326056                0.27515356                0.27525907               -0.91962104                0.03144888                0.05658477               -0.00516815
              11.58833764               10.04371667               34.53064857                0.89728354                0.30578971                0.33871808               -1.12430580                0.03292006                0.02943639               -0.01129344
               1.66694085                0.04931012               36.41296264                0.90477376               -0.25418350               -0.28668694                0.95062113               -0.03261410                0.01880785               -0.00488677
               2.66439902                0.04564147               36.32479628                0.79013501               -0.22396436               -0.22369601                0.74881032               -0.03083351                0.04429501               -0.00483339
               3.66246157                0.04199551               36.23706911                0.76916731               -0.16365228               -0.16361858                0.54711473               -0.02999104                0.08070929               -0.00224839
               4.66112597                0.03833887               36.14957733                0.75767023               -0.10341191               -0.10301992                0.34540515               -0.03018788                0.10130341               -0.00132554
               5.66039333                0.03467142               36.06222513                0.75135277               -0.04306844               -0.04248342                0.14367877               -0.03021466                0.11229810               -0.00059674
               6.66026460                0.03099151               35.97493315                0.75005643                0.01733840                0.01807037               -0.05806360               -0.03023918                0.11471105                0.00002073
               7.66074010                0.02729865               35.88762593                0.75372778                0.07776467                0.07862547               -0.25982403               -0.03024120                0.10881170                0.00059755
               8.66181990                0.02359232               35.80022952                0.76241074                0.13818193                0.13917247               -0.46160530               -0.03024904                0.09462890                0.00118253
               9.66350373                0.01987105               35.71266906                0.77624803                0.19859805                0.19976810               -0.66340803               -0.03018872                0.07197383                0.00183105
              10.66579186                0.01613393               35.62486679                0.79548671                0.25894029                0.26007161               -0.86522757               -0.03097922                0.04020823                0.00257177
              11.66868254                0.01235875               35.53673509                0.90549509                0.28906819                0.32291845               -1.06706256               -0.03105209                0.01969293                0.00422892
               1.67028336                1.04644325               36.41124556                0.80444398               -0.25353705               -0.28554372                0.94655976               -0.00078649                0.01549512               -0.00393091
               2.66774799                1.04340451               36.32306062                0.57100679               -0.22352024               -0.22327726                0.74474040               -0.00017084                0.04225363               -0.00494228
               3.66581296                1.04035932               36.23534050                0.53180599               -0.16309268               -0.16286069                0.54304057                0.00005666                0.07910700               -0.00230278
               4.66448614                1.03730867               36.14783901                0.51247896               -0.10240459               -0.10235996                0.34131003                0.00018001                0.09874743               -0.00122300
               5.66376486                1.03424659               36.06047502                0.50192333               -0.04187694               -0.04184259                0.13956112                0.00012677                0.10955821               -0.00063065
               6.66364860                1.03117221               35.97316995                0.49976279                0.01862052                0.01869252               -0.06220417                0.00009032                0.11186033               -0.00026732
               7.66413727                1.02808490               35.88584907                0.50587128                0.07913044                0.07923379               -0.26398776                0.00006089                0.10590755               -0.00000218
               8.66523121                1.02498405               35.79843888                0.52034862                0.13968836                0.13977574               -0.46579263                0.00002727                0.09172016                0.00026341
               9.66693104                1.02186873               35.71086507                0.54352625                0.20035042                0.20033738               -0.66761916               -0.00016627                0.06909764                0.00063152
              10.66923821                1.01873465               35.62305013                0.57597944                0.26080809                0.26096686               -0.86946209               -0.00025009                0.03776966                0.00124600
              11.67214720                1.01558793               35.53491439                0.80109186                0.29089884                0.32297661               -1.07130508                0.00066154                0.01765906                0.00257481
               1.67300260                2.04359925               36.40946799                0.79923762               -0.25230700               -0.28358155                0.94248709               -0.00084986                0.01267526               -0.00286260
               2.67047953                2.04117593               36.32126073                0.56161997               -0.22220315               -0.22237364                0.74066781               -0.00033912                0.04177778               -0.00376219
               3.66855854                2.03873829               36.23356551                0.52523908               -0.16186125               -0.16158015                0.53899243               -0.00012217                0.08024360               -0.00221278
               4.66724231                2.03629167               36.14607434                0.50960252               -0.10131064               -0.10108241                0.33724284                0.00008409                0.09874134               -0.00116997
               5.66653233                2.03383457               36.05871269                0.50114028               -0.04071069               -0.04057673                0.13546259                0.00012450                0.10895631               -0.00064319
               6.66642809                2.03136536               35.97140634                0.49942228                0.01985740                0.01994300               -0.06633842                0.00008794                0.11097299               -0.00039028
               7.66692947                2.02888332               35.88408244                0.50430614                0.08042616                0.08047562               -0.26815937                0.00002739                0.10490210               -0.00028279
               8.66803662                2.02638784               35.79666897                0.51590453                0.14101665                0.14102651               -0.47000190               -0.00009319                0.09074331               -0.00022173
               9.66974981                2.02387779               35.70909307                0.53458866                0.20155174                0.20162944               -0.67186366               -0.00028746                0.06834715               -0.00010133
              10.67206765                2.02135327               35.62127976                0.56100848                0.26196979                0.26253231               -0.87373232               -0.00039840                0.03745294                0.00023368
              11.67498920                2.01881828               35.53315092                0.79119894                0.29215515                0.32351958               -1.07557479                0.00035410                0.01758891                0.00086011
               1.67511300                3.04077162               36.40769330                0.79886048               -0.25108408               -0.28207195                0.93839697               -0.00073365                0.01301977                0.00202737
               2.67260216                3.03895704               36.31948687                0.56109100               -0.22091175               -0.22130146                0.73658464               -0.00024733                0.04217290                0.00094970
               3.67069477                3.03712772               36.23179384                0.52495495               -0.16053095               -0.16050736                0.53490877               -0.00022785                0.08089768                0.00039854
               4.66939154                3.03528702               36.14430906                0.50943075               -0.10005484               -0.09988036                0.33315059               -0.00006566                0.09945527                0.00022134
               5.66869367                3.03343505               36.05695117                0.50106963               -0.03949707               -0.03933523                0.13135072                0.00000309                0.10941227                0.00000579
               6.66860160                3.03157107               35.96964639                0.49944875                0.02108344                0.02120037               -0.07047535               -0.00000710                0.11122642               -0.00031664
               7.66911534                3.02969441               35.88232254                0.50443085                0.08166351                0.08174991               -0.27232352               -0.00006880                0.10500936               -0.00075814
               8.67023487                3.02780458               35.79490806                0.51612922                0.14222602                0.14233808               -0.47419277               -0.00017250                0.09075859               -0.00132821
               9.67195986                3.02590132               35.70733073                0.53491317                0.20274449                0.20302341               -0.67607739               -0.00028604                0.06833253               -0.00202464
              10.67428976                3.02398529               35.61951614                0.56142529                0.26322023                0.26382293               -0.87795964               -0.00025122                0.03744276               -0.00284040
              11.67722426                3.02205832               35.53138629                0.79143499                0.29345034                0.32457021               -1.07980260                0.00048877                0.01757289               -0.00379037
               1.67661709                4.03795781               36.40593502                0.79849571               -0.24986030               -0.28074063                0.93429713               -0.00066989                0.01323572                0.00720217
               2.67411849                4.03674990               36.31771968                0.56058419               -0.21965469               -0.22010081                0.73248562               -0.00013469                0.04280973                0.00444001
               3.67222400                4.03552815               36.23002651                0.52468758               -0.15924142               -0.15936456                0.53080821               -0.00017524                0.08210220                0.00278749
               4.67093366                4.03429407               36.14254454                0.50927027               -0.09878271               -0.09869668                0.32904289               -0.00012898                0.10086718                0.00158158
               5.67024834                4.03304786               36.05519102                0.50100962               -0.03825362               -0.03810422                0.12723005               -0.00010143                0.11086961                0.00063936
               6.67016859                4.03178936               35.96789032                0.49948617                0.02231227                0.02245555               -0.07461345               -0.00010972                0.11259123               -0.00024368
               7.67069459                4.03051832               35.88056933                0.50456583                0.08288383                0.08302632               -0.27648110               -0.00014081                0.10620141               -0.00121918
               8.67182626                4.02923460               35.79315582                0.51636486                0.14343901                0.14364540               -0.47836928               -0.00018091                0.09171514               -0.00241633
               9.67356337                4.02793826               35.70557698                0.53525503                0.20396776                0.20433429               -0.68026966               -0.00019606                0.06900229               -0.00394919
              10.67590562                4.02662973               35.61775797                0.56188181                0.26447753                0.26506325               -0.88216144               -0.00013860                0.03778680               -0.00591259
              11.67885292                4.02530968               35.52962044                0.79170208                0.29473002                0.32573651               -1.08400566                0.00055729                0.01773697               -0.00836892
               1.67751543                5.03515681               36.40418572                0.79813245               -0.24862943               -0.27948511                0.93018757               -0.00062907                0.01359269                0.01155482
               2.67502913                5.03455502               36.31595444                0.56008092               -0.21841642               -0.21886887                0.72837337               -0.00003462                0.04380147                0.00725527
               3.67314710                5.03394043               36.22825836                0.52442596               -0.15799425               -0.15814879                0.52669468               -0.00008293                0.08400993                0.00458900
               4.67186925                5.03331309               36.14077912                0.50911816               -0.09753759               -0.09747357                0.32492480               -0.00013193                0.10320735                0.00263972
               5.67119634                5.03267297               36.05343171                0.50095962               -0.03701482               -0.03686675                0.12310359               -0.00017405                0.11341751                0.00113963
               6.67112895                5.03202018               35.96613824                0.49953454                0.02354713                0.02370382               -0.07875156               -0.00019449                0.11512850               -0.00018226
               7.67166729                5.03135494               35.87882349                0.50471095                0.08411816                0.08428352               -0.28063265               -0.00018743                0.10852694               -0.00158554
               8.67281131                5.03067749               35.79141333                0.51660837                0.14467614                0.14490950               -0.48253410               -0.00015296                0.09364838               -0.00331416
               9.67456081                5.02998800               35.70383324                0.53560182                0.20521277                0.20559501               -0.68444575               -0.00009921                0.07038638               -0.00560032
              10.67691557                5.02928656               35.61600694                0.56234017                0.26573443                0.26630704               -0.88634547               -0.00004381                0.03850467               -0.00864623
              11.67987550                5.02857305               35.52785518                0.79196966                0.29599308                0.32696394               -1.08819353                0.00060865                0.01808983               -0.01258563
               1.67780808                6.03236811               36.40243675                0.79777018               -0.24739021               -0.27828395                0.92606809               -0.00058499                0.01411259                0.01484861
               2.67533418                6.03237252               36.31418271                0.55958090               -0.21719040               -0.21762483                0.72424776                0.00007003                0.04526701                0.00905505
               3.67346427                6.03236517               36.22648314                0.52417102               -0.15678484               -0.15687145                0.52256972                0.00001084                0.08683896                0.00562495
               4.67219848                6.03234459               36.13900876                0.50897541               -0.09632494               -0.09620291                0.32079845               -0.00013590                0.10669918                0.00320344
               5.67153777                6.03231053               36.05167145                0.50092148               -0.03578787               -0.03561473                0.11897306               -0.00024433                0.11725811                0.00140575
               6.67148272                6.03226344               35.96439016                0.49959514                0.02478804                0.02494330               -0.08288884               -0.00027364                0.11900603               -0.00013703
               7.67203353                6.03220399               35.87708661                0.50486713                0.08537101                0.08551395               -0.28477833               -0.00022932                0.11213952               -0.00176578
               8.67319014                6.03213279               35.78968368                0.51686050                0.14593883                0.14613061               -0.48668849               -0.00012437                0.09670088               -0.00382040
               9.67495231                6.03205016               35.70210393                0.53595383                0.20647740                0.20681807               -0.68860807               -0.00000093                0.07260146               -0.00666087
              10.67731969                6.03195587               35.61426848                0.56280096                0.26698967                0.26755789               -0.89051484                0.00005608                0.03966331               -0.01063709
              11.68029210                6.03184896               35.52609629                0.79223799                0.29724122                0.32824879               -1.09236920                0.00066519                0.01866750               -0.01600301
               1.67749490                7.02959113               36.40067592                0.79740810               -0.24614281               -0.27717068                0.92193604               -0.00051361                0.01486057                0.01665528
               2.67503347                7.03020253               36.31239297                0.55908397               -0.21598272               -0.21634166                0.72010645                0.00019176                0.04738107                0.00946407
               3.67317524                7.03080300               36.22469215                0.52392396               -0.15561490               -0.15552067                0.51843226                0.00005875                0.09089250                0.00564799
               4.67192117                7.03138903               36.13722797                0.50884490               -0.09513141               -0.09490377                0.31666369               -0.00020258                0.11165070                0.00315589
               5.67127261                7.03196067               36.04990770                0.50089733               -0.03455779               -0.03436561                0.11483883               -0.00033438                0.12266732                0.00138720
               6.67123001                7.03251905               35.96264611                0.49967008                0.02603691                0.02617354               -0.08702479               -0.00035080                0.12447603               -0.00010064
               7.67179335                7.03306522               35.87536117                0.50503684                0.08663205                0.08672920               -0.28891750               -0.00027953                0.11729314               -0.00168106
               8.67296265                7.03360010               35.78797197                0.51712312                0.14721804                0.14731951               -0.49083179               -0.00012568                0.10113446               -0.00374600
               9.67473771                7.03412436               35.70039679                0.53631219                0.20776176                0.20799458               -0.69275599                0.00008318                0.07588215               -0.00677995
              10.67711789                7.03463772               35.61255237                0.56326369                0.26824515                0.26880319               -0.89466841                0.00017903                0.04140467               -0.01137934
              11.68010261                7.03513803               35.52435433                0.79250643                0.29847251                0.32961783               -1.09653126                0.00074891                0.01954724               -0.01804662
               1.67657501                8.02682469               36.39888602                0.79704525               -0.24488679               -0.27625915                0.91778559               -0.00038364                0.01596792                0.01637326
               2.67412615                8.02804569               36.31056928                0.55859093               -0.21480358               -0.21490230                0.71594407                0.00026215                0.05044659                0.00789660
               3.67227894                8.02925476               36.22287420                0.52368900               -0.15446953               -0.15412477                0.51427894               -0.00008110                0.09664941                0.00450279
               4.67103676                8.03044652               36.13543037                0.50872995               -0.09389345               -0.09365685                0.31251874               -0.00034130                0.11848246                0.00248664
               5.67040107                8.03162322               36.04813767                0.50089074               -0.03327972               -0.03314220                0.11070020               -0.00040462                0.12997041                0.00109117
               6.67037116                8.03278691               35.96090623                0.49976288                0.02729093                0.02739776               -0.09115915               -0.00037799                0.13183448               -0.00006346
               7.67094689                8.03393858               35.87365032                0.50522295                0.08786632                0.08795360               -0.29304907               -0.00031268                0.12432232               -0.00130270
               8.67212849                8.03507918               35.78628503                0.51739939                0.14847318                0.14852213               -0.49496161               -0.00017302                0.10736417               -0.00298616
               9.67391636                8.03621005               35.69872325                0.53667895                0.20905600                0.20912777               -0.69688563                0.00007839                0.08066377               -0.00562700
              10.67630961                8.03733193               35.61087414                0.56372866                0.26950514                0.26997841               -0.89880121                0.00030579                0.04402170               -0.01013664
              11.67930646                8.03844132               35.52264658                0.79277418                0.29968509                0.33115506               -1.10067409                0.00088886                0.02090494               -0.01784028
               1.67504523                9.02406595               36.39704279                0.79668119               -0.24365860               -0.27576255                0.91360819               -0.00044521                0.01754045                0.01207942
               2.67260865                9.02590448               36.30868841                0.55810515               -0.21362216               -0.21319155                0.71175164                0.00000529                0.05509193                0.00406470
               3.67077279                9.02772050               36.22101750                0.52347135               -0.15313811               -0.15299529                0.51010520               -0.00029653                0.10499079                0.00245289
               4.66954588                9.02951590               36.13361028                0.50863572               -0.09243300               -0.09249026                0.30836075               -0.00039016                0.12766244                0.00134364
               5.66892413                9.03129783               36.04635895                0.50090608               -0.03193947               -0.03194565                0.10655549               -0.00031024                0.13946146                0.00058939
               6.66890709                9.03306700               35.95917074                0.49987795                0.02853495                0.02862755               -0.09529210               -0.00026983                0.14135388               -0.00002725
               7.66949483                9.03482429               35.87195714                0.50543024                0.08903106                0.08920900               -0.29717143               -0.00023662                0.13357489               -0.00069567
               8.67068772                9.03657054               35.78463008                0.51769445                0.14958492                0.14978669               -0.49907424               -0.00019470                0.11595250               -0.00163482
               9.67248653                9.03830692               35.69709763                0.53705965                0.21025124                0.21036772               -0.70099007               -0.00001570                0.08781483               -0.00319120
              10.67489274                9.04003729               35.60925832                0.56419823                0.27075462                0.27100220               -0.90290225                0.00026897                0.04820737               -0.00610070
              11.67790162                9.04176113               35.52100115                0.79304074                0.30088780                0.33301897               -1.10478497                0.00089029                0.02310392               -0.01302043
               1.67288904               10.02130944               36.39509046                0.89822004               -0.24173447               -0.27565051                0.90938232                0.03162242                0.02301488                0.01044866
               2.67047170               10.02378186               36.30672874                0.77889460               -0.21137218               -0.21226243                0.70752159                0.03057551                0.06382190                0.00306664
               3.66866160               10.02619485               36.21911614                0.76166896               -0.15100351               -0.15256511                0.50590597                0.02962366                0.11681901                0.00232764
               4.66745163               10.02859671               36.13176425                0.75429260               -0.09089171               -0.09191825                0.30418459                0.03004684                0.13941320                0.00130957
               5.66684376               10.03098430               36.04457018                0.75046454               -0.03061626               -0.03135250                0.10240154                0.03010083                0.15131461                0.00050563
               6.66683930               10.03335946               35.95743974                0.74998375                0.02974283                0.02924601               -0.09942445                0.03014328                0.15319236               -0.00022783
               7.66743862               10.03572276               35.87028347                0.75279052                0.09013327                0.08984640               -0.30128260                0.03015182                0.14529171               -0.00098972
               8.66864197               10.03807491               35.78301208                0.75895140                0.15053383                0.15043727               -0.50316480                0.03015770                0.12738606               -0.00190090
               9.67044930               10.04041741               35.69553159                0.76866137                0.21094045                0.21104896               -0.70506065                0.03013020                0.09866721               -0.00317114
              10.67286078               10.04275198               35.60773655                0.78225797                0.27136386                0.27146912               -0.90695478                0.03101798                0.05661994               -0.00519761
              11.67587657               10.04510170               35.51948267                0.89660956                0.30157985                0.33405682               -1.10883389                0.03246774                0.02945697               -0.01134660
               1.75630463                0.05099861               37.42240286                0.90390612               -0.25064628               -0.28269578                0.93738567               -0.03215835                0.01886049               -0.00489399
               2.75379817                0.04734915               37.33223245                0.78895348               -0.22084951               -0.22058425                0.73839532               -0.03040212                0.04442445               -0.00483138
               3.75188764                0.04372208               37.24250238                0.76859104               -0.16138062               -0.16134753                0.53951886               -0.02957175                0.08090407               -0.00223294
               4.75057056                0.04008447               37.15300757                0.75743111               -0.10198235               -0.10159559                0.34062840               -0.02976635                0.10149349               -0.00131324
               5.74984800                0.03643620               37.06365217                0.75129633               -0.04248205               -0.04190505                0.14172120               -0.02979279                0.11247794               -0.00058907
               6.74972092                0.03277563               36.97435681                0.75003714                0.01708081                0.01780254               -0.05720171               -0.02981697                0.11487556                0.00002361
               7.75018961                0.02910229               36.88504606                0.75360270                0.07666282                0.07751143               -0.25614241               -0.02981896                0.10895400                0.00059550
               8.75125417                0.02541569               36.79564590                0.76203522                0.13623593                0.13721239               -0.45510375               -0.02982669                0.09474276                0.00117513
               9.75291433                0.02171434               36.70608147                0.77547007                0.19580791                0.19696126               -0.65408619               -0.02976719                0.07205672                0.00181811
              10.75517033                0.01799739               36.61627507                0.79414123                0.25530679                0.25642206               -0.85308536               -0.03054627                0.04025864                0.00255396
              11.75802047                0.01424292               36.52613909                0.90459315                0.28501350                0.31839057               -1.05209986               -0.03061771                0.01971481                0.00422166
               1.75963251                1.04817165               37.42064545                0.80284040               -0.25000925               -0.28156839                0.93338225               -0.00077482                0.01552378               -0.00392169
               2.75713241                1.04514331               37.33045638                0.56888724               -0.22041203               -0.22017187                0.73438339               -0.00016820                0.04236126               -0.00492425
               3.75522427                1.04210861               37.24073332                0.53082827               -0.16082880               -0.16060043                0.53550260                0.00005565                0.07927383               -0.00226154
               4.75391584                1.03906852               37.15122859                0.51207577               -0.10098864               -0.10094523                0.33659138                0.00017697                0.09890031               -0.00118850
               5.75320449                1.03601715               37.06186116                0.50182823               -0.04130695               -0.04127348                0.13766193                0.00012417                0.10969980               -0.00060965
               6.75308970                1.03295365               36.97255251                0.49973003                0.01834497                0.01841580               -0.06128360                0.00008816                0.11198623               -0.00026200
               7.75357139                1.02987741               36.88322785                0.50566214                0.07800918                0.07811118               -0.26024718                0.00005918                0.10601080               -0.00001342
               8.75464988                1.02678781               36.79381368                0.51971967                0.13772070                0.13780726               -0.45923180                0.00002610                0.09179449                0.00023535
               9.75632581                1.02368396               36.70423566                0.54221592                0.19753488                0.19752276               -0.65823779               -0.00016461                0.06914106                0.00058779
              10.75860058                1.02056161               36.61441636                0.57369532                0.25714769                0.25730503               -0.85726003               -0.00024655                0.03778843                0.00119165
              11.76146876                1.01742683               36.52427625                0.79955474                0.28681804                0.31844752               -1.05628231                0.00065292                0.01765679                0.00253051
               1.76234582                2.04536724               37.41882744                0.79776930               -0.24879664               -0.27963375                0.92936769               -0.00083775                0.01269322               -0.00284586
               2.75985785                2.04294572               37.32861605                0.55974850               -0.21911348               -0.21928162                0.73036888               -0.00033451                0.04188676               -0.00373348
               3.75796355                2.04051007               37.23891814                0.52443729               -0.15961470               -0.15933811                0.53151222               -0.00012082                0.08040215               -0.00216360
               4.75666556                2.03806557               37.14942353                0.50927516               -0.09991010               -0.09968600                0.33258202                0.00008218                0.09885813               -0.00112584
               5.75596535                2.03561073               37.06005815                0.50106296               -0.04015704               -0.04002574                0.13362156                0.00012166                0.10905351               -0.00061555
               6.75586242                2.03314394               36.97074785                0.49939520                0.01956445                0.01964849               -0.06535928                0.00008543                0.11105143               -0.00038394
               7.75635664                2.03066452               36.88141980                0.50413774                0.07928652                0.07933548               -0.26435976                0.00002578                0.10495681               -0.00029959
               8.75744815                2.02817183               36.79200197                0.51539666                0.13903000                0.13904046               -0.46338143               -0.00009292                0.09077010               -0.00026140
               9.75913724                2.02566480               36.70242152                0.53352318                0.19871905                0.19879673               -0.66242242               -0.00028409                0.06834881               -0.00016062
              10.76142253                2.02314349               36.61260359                0.55913123                0.25829297                0.25884850               -0.86147025               -0.00039306                0.03744758                0.00016400
              11.76430310                2.02061187               36.52247039                0.78992920                0.28805668                0.31898267               -1.06049194                0.00034898                0.01757538                0.00079969
               1.76445880                3.04257898               37.41701214                0.79740342               -0.24759104               -0.27814568                0.92533566               -0.00072321                0.01303844                0.00205233
               2.76198289                3.04075768               37.32680165                0.55923548               -0.21784035               -0.21822479                0.72634374               -0.00024401                0.04227874                0.00098250
               3.76010200                3.03892184               37.23710592                0.52416209               -0.15830324               -0.15828052                0.52748656               -0.00022503                0.08104528                0.00043439
               4.75881683                3.03707480               37.14761762                0.50910833               -0.09867209               -0.09850093                0.32854783               -0.00006534                0.09955164                0.00025355
               5.75812855                3.03521663               37.05825579                0.50099408               -0.03896060               -0.03880183                0.12956802                0.00000216                0.10948076                0.00002607
               6.75803762                3.03334662               36.96894682                0.49942070                0.02077315                0.02088805               -0.06943760               -0.00000805                0.11127222               -0.00031310
               7.75854402                3.03146412               36.87961855                0.50425828                0.08050636                0.08059173               -0.26846498               -0.00006888                0.10503056               -0.00077330
               8.75964774                3.02956862               36.79019945                0.51561480                0.14022231                0.14033344               -0.46751310               -0.00017090                0.09075401               -0.00136151
               9.76134846                3.02765989               36.70061734                0.53383864                0.19989507                0.20017083               -0.66657661               -0.00028245                0.06830920               -0.00207262
              10.76364564                3.02573858               36.61079800                0.55953653                0.25952589                0.26012061               -0.86563794               -0.00024786                0.03742338               -0.00289513
              11.76653898                3.02380648               36.52066377                0.79015899                0.28933366                0.32001883               -1.06466032                0.00048176                0.01755178               -0.00384110
               1.76597395                4.03980433               37.41521316                0.79704941               -0.24638461               -0.27683337                0.92129410               -0.00066039                0.01325347                0.00723913
               2.76351011                4.03858122               37.32499377                0.55874388               -0.21660112               -0.21704124                0.72230300               -0.00013298                0.04291345                0.00447557
               3.76164193                4.03734446               37.23529787                0.52390270               -0.15703202               -0.15715393                0.52344429               -0.00017312                0.08224363                0.00282131
               4.76036947                4.03609555               37.14581231                0.50895253               -0.09741805               -0.09733397                0.32449841               -0.00012764                0.10095151                0.00160910
               5.75969357                4.03483469               37.05645473                0.50093549               -0.03773481               -0.03758821                0.12550574               -0.00010062                0.11092091                0.00065594
               6.75961477                4.03356170               36.96714966                0.49945689                0.02198455                0.02212546               -0.07351706               -0.00010886                0.11261665               -0.00024167
               7.76013326                4.03227635               36.87782406                0.50438938                0.08170943                0.08185004               -0.27256367               -0.00013950                0.10620134               -0.00123358
               8.76124896                4.03097850               36.78840574                0.51584361                0.14141825                0.14162221               -0.47163063               -0.00017889                0.09169087               -0.00244673
               9.76296162                4.02966822               36.69882196                0.53417058                0.20110118                0.20146308               -0.67070979               -0.00019359                0.06896395               -0.00399303
              10.76527098                4.02834591               36.60899810                0.55997936                0.26076553                0.26134338               -0.86978063               -0.00013677                0.03775973               -0.00596499
              11.76817694                4.02701225               36.51885620                0.79041801                0.29059537                0.32116881               -1.06880442                0.00054936                0.01771231               -0.00842353
               1.76689181                5.03704231               37.41342305                0.79669663               -0.24517125               -0.27559575                0.91724304               -0.00062022                0.01361071                0.01160347
               2.76444010                5.03641685               37.32318769                0.55825563               -0.21538043               -0.21582682                0.71824921               -0.00003433                0.04390607                0.00729457
               3.76258420                5.03577877               37.23348889                0.52364894               -0.15580257               -0.15595541                0.51938925               -0.00008207                0.08415106                0.00462303
               4.76132405                5.03512812               37.14400601                0.50880485               -0.09619064               -0.09612819                0.32043882               -0.00013038                0.10328771                0.00266589
               5.76066039                5.03446487               37.05465444                0.50088737               -0.03651358               -0.03636827                0.12143779               -0.00017188                0.11346138                0.00115484
               6.76059378                5.03378913               36.96535649                0.49950417                0.02320193                0.02335604               -0.07759655               -0.00019199                0.11514386               -0.00018089
               7.76112443                5.03310112               36.87603700                0.50453084                0.08292630                0.08308942               -0.27665644               -0.00018501                0.10851590               -0.00159966
               8.76225230                5.03240106               36.78662190                0.51608017                0.14263790                0.14286839               -0.47573653               -0.00015100                0.09361421               -0.00334374
               9.76397719                5.03168915               36.69703676                0.53450749                0.20232864                0.20270592               -0.67482685               -0.00009795                0.07034057               -0.00564378
              10.76629888                5.03096545               36.60720553                0.56042448                0.26200470                0.26256955               -0.87390553               -0.00004321                0.03847367               -0.00870154
              11.76921728                5.03022986               36.51704936                0.79067784                0.29184058                0.32237886               -1.07293302                0.00060000                0.01806326               -0.01265026
               1.76721246                6.03429241               37.41163318                0.79634510               -0.24394959               -0.27441157                0.91318187               -0.00057683                0.01413183                0.01490753
               2.76477296                6.03426468               37.32137500                0.55777041               -0.21417181               -0.21460037                0.71418199                0.00006886                0.04537607                0.00909675
               3.76292902                6.03422536               37.23167271                0.52340191               -0.15461033               -0.15469615                0.51532267                0.00001044                0.08698692                0.00565940
               4.76168076                6.03417299               37.14219468                0.50866704               -0.09499516               -0.09487555                0.31637092               -0.00013409                0.10678400                0.00322927
               5.76102912                6.03410732               37.05285317                0.50085112               -0.03530401               -0.03513400                0.11736580               -0.00024081                0.11730358                0.00142051
               6.76097468                6.03402882               36.96356733                0.49956362                0.02442524                0.02457797               -0.08167524               -0.00026959                0.11902074               -0.00013575
               7.76151763                6.03393814               36.87425895                0.50468329                0.08416138                0.08430243               -0.28074335               -0.00022589                0.11212679               -0.00177939
               8.76265791                6.03383587               36.78485099                0.51632565                0.14388270                0.14407222               -0.47983209               -0.00012252                0.09666521               -0.00384948
               9.76439528                6.03372233               36.69526612                0.53484942                0.20357536                0.20391169               -0.67893029               -0.00000095                0.07255497               -0.00670509
              10.76672941                6.03359730               36.60542566                0.56087158                0.26324212                0.26380266               -0.87801570                0.00005527                0.03963229               -0.01069645
              11.76966012                6.03345983               36.51524900                0.79093790                0.29307096                0.32364543               -1.07704928                0.00065576                0.01864110               -0.01607870
               1.76693574                7.03155408               37.40983132                0.79599350               -0.24271987               -0.27331399                0.90910828               -0.00050647                0.01488242                0.01672031
               2.76450854                7.03212485               37.31954413                0.55728854               -0.21298128               -0.21333524                0.71009919                0.00018887                0.04749924                0.00950446
               3.76267611                7.03268484               37.22984063                0.52316301               -0.15345699               -0.15336447                0.51124367                0.00005767                0.09105547                0.00568085
               4.76143940                7.03323061               37.14037283                0.50854102               -0.09381853               -0.09359488                0.31229468               -0.00019971                0.11174876                0.00318041
               5.76079974                7.03376219               37.05104837                0.50082859               -0.03409137               -0.03390262                0.11329013               -0.00032929                0.12272371                0.00140125
               6.76075757                7.03428069               36.96178221                0.49963759                0.02565639                0.02579079               -0.08575260               -0.00034528                0.12449976               -0.00009911
               7.76131287                7.03478717               36.87249241                0.50484883                0.08540452                0.08550053               -0.28482397               -0.00027502                0.11728814               -0.00169344
               8.76246566                7.03528251               36.78309814                0.51658164                0.14514371                0.14524438               -0.48391666               -0.00012351                0.10110572               -0.00377314
               9.76421574                7.03576739               36.69351779                0.53519784                0.20484144                0.20507167               -0.68301941                0.00008209                0.07584175               -0.00682279
              10.76656249                7.03624150               36.60366831                0.56132096                0.26447980                0.26503044               -0.88211054                0.00017642                0.04137754               -0.01144000
              11.76950534                7.03670277               36.51346571                0.79119828                0.29428485                0.32499516               -1.08115259                0.00073830                0.01952303               -0.01813002
               1.76606080                8.02882613               37.40800021                0.79564128               -0.24148171               -0.27241545                0.90501670               -0.00037831                0.01599428                0.01643724
               2.76364598                8.02999798               37.31767912                0.55681021               -0.21181895               -0.21191598                0.70599576                0.00025814                0.05057963                0.00792850
               3.76182442                8.03115807               37.22798144                0.52293580               -0.15232790               -0.15198845                0.50714923               -0.00008039                0.09683733                0.00452991
               4.76059942                8.03230109               37.13853408                0.50843087               -0.09259811               -0.09236577                0.30820853               -0.00033638                0.11860397                0.00250736
               5.75997245                8.03342927               37.04923725                0.50082370               -0.03283145               -0.03269657                0.10921016               -0.00039830                0.13004808                0.00110326
               6.75994279                8.03454464               36.96000128                0.49972944                0.02689259                0.02699768               -0.08982840               -0.00037182                0.13187766               -0.00006173
               7.76051031                8.03564815               36.87074054                0.50503118                0.08662128                0.08670763               -0.28889708               -0.00030745                0.12433549               -0.00131257
               8.76167522                8.03674076               36.78137020                0.51685094                0.14638102                0.14643008               -0.48798812               -0.00016995                0.10735222               -0.00300850
               9.76343793                8.03782377               36.69180324                0.53555469                0.20611721                0.20618904               -0.68709054                0.00007762                0.08063759               -0.00566326
              10.76579756                8.03889790               36.60194905                0.56177203                0.26572186                0.26618928               -0.88618487                0.00030153                0.04400362               -0.01019069
              11.76875236                8.03995973               36.51171682                0.79145800                0.29548026                0.32651076               -1.08523714                0.00087634                0.02088626               -0.01792196
               1.76458448                9.02610577               37.40611550                0.79528791               -0.24027100               -0.27192621                0.90089835               -0.00043906                0.01757272                0.01212719
               2.76218177                9.02788653               37.31575662                0.55633951               -0.21065435               -0.21022883                0.70186261                0.00000432                0.05524755                0.00407966
               3.76037139                9.02964507               37.22608330                0.52272649               -0.15101531               -0.15087532                0.50303454               -0.00029296                0.10521654                0.00246940
               4.75916146                9.03138329               37.13667270                0.50834121               -0.09115840               -0.09121565                0.30410936               -0.00038451                0.12781907                0.00135644
               5.75854822                9.03310826               37.04741738                0.50084083               -0.03151042               -0.03151688                0.10512417               -0.00030527                0.13957216                0.00059697
               6.75853125                9.03482064               36.95822475                0.49984334                0.02811887                0.02821010               -0.09390280               -0.00026533                0.14142863               -0.00002589
               7.75911060                9.03652132               36.86900642                0.50523475                0.08776956                0.08794522               -0.29296096               -0.00023255                0.13361849               -0.00070134
               8.76028665                9.03821111               36.77967441                0.51713933                0.14747717                0.14767671               -0.49204256               -0.00019128                0.11596972               -0.00164812
               9.76206014                9.03989117               36.69013687                0.53592528                0.20729558                0.20741150               -0.69113707               -0.00001498                0.08781472               -0.00321306
              10.76443256                9.04156529               36.60029250                0.56222827                0.26695353                0.26719892               -0.89022788                0.00026558                0.04820649               -0.00613442
              11.76739922                9.04323298               36.51003058                0.79171665                0.29666583                0.32834813               -1.08928961                0.00087789                0.02309591               -0.01307957
               1.76249050               10.02338761               37.40412121                0.89752699               -0.23837388               -0.27181600                0.89673213                0.03118138                0.02306864                0.01049358
               2.76010676               10.02579340               37.31375495                0.77801672               -0.20843540               -0.20931244                0.69769228                0.03014665                0.06401631                0.00307942
               3.75832179               10.02814056               37.22414025                0.76129920               -0.14891060               -0.15045151                0.49889454                0.02920869                0.11709673                0.00234371
               4.75712855               10.03047678               37.13478520                0.75414713               -0.08963965               -0.09065160                0.29999216                0.02962743                0.13961741                0.00132089
               5.75652900               10.03279893               37.04558736                0.75043252               -0.03020646               -0.03093205                0.10102900                0.02968071                0.15147225                0.00051163
               6.75652442               10.03510884               36.95645273                0.74996598                0.02930945                0.02881984               -0.09797661                0.02972260                0.15331340               -0.00022764
               7.75711519               10.03740706               36.86729193                0.75269147                0.08885625                0.08857356               -0.29701392                0.02973112                0.14538104               -0.00099589
               8.75830154               10.03969429               36.77801579                0.75867167                0.14841300                0.14831801               -0.49607501                0.02973698                0.12744843               -0.00191375
               9.76008345               10.04197200               36.68853041                0.76809096                0.20797567                0.20808302               -0.69514985                0.02970997                0.09871079               -0.00319111
              10.76246106               10.04424188               36.59873050                0.78126842                0.26755449                0.26765942               -0.89422281                0.03058486                0.05665447               -0.00522683
              11.76543454               10.04652669               36.50847190                0.89594491                0.29734794                0.32937108               -1.09328044                0.03201308                0.02947720               -0.01139936
               1.84765888                0.05272706               38.43171036                0.90304797               -0.24708965               -0.27868274                0.92407779               -0.03170023                0.01891235               -0.00490096
               2.84518798                0.04909698               38.33956418                0.78778508               -0.21771745               -0.21745533                0.72792283               -0.02996844                0.04455233               -0.00482916
               3.84330453                0.04548897               38.24785949                0.76802152               -0.15909616               -0.15906370                0.53188036               -0.02915024                0.08109650               -0.00221780
               4.84200606                0.04187057               38.15638990                0.75719455               -0.10054445               -0.10016293                0.33582385               -0.02934255                0.10168102               -0.00130123
               5.84129364                0.03824164               38.06505956                0.75124043               -0.04189182               -0.04132287                0.13975082               -0.02936863                0.11265542               -0.00058146
               6.84116822                0.03460059               37.97378911                0.75001780                0.01682257                0.01753402               -0.05633763               -0.02939249                0.11503804                0.00002645
               7.84163009                0.03094697               37.88250309                0.75347903                0.07555584                0.07639219               -0.25244366               -0.02939445                0.10909446                0.00059341
               8.84267934                0.02728026               37.79112745                0.76166375                0.13428031                0.13524257               -0.44857004               -0.02940208                0.09485517                0.00116789
               9.84431570                0.02359903               37.69958734                0.77470065                0.19300367                0.19414022               -0.64471729               -0.02934342                0.07213855                0.00180552
              10.84653941                0.01990242               37.60780508                0.79281154                0.25165470                0.25275387               -0.84088109               -0.03011108                0.04030817                0.00253653
              11.84934879                0.01616885               37.51569310                0.90370194                0.28093796                0.31383938               -1.03706003               -0.03018104                0.01973592                0.00421488
               1.85097196                1.04994024               38.42991320                0.80125553               -0.24646199               -0.27757121                0.92013236               -0.00076315                0.01555194               -0.00391243
               2.84850734                1.04692242               38.33774829                0.56679308               -0.21728659               -0.21704928                0.72396895               -0.00016550                0.04246745               -0.00490622
               3.84662623                1.04389834               38.24605055                0.52986221               -0.15855219               -0.15832739                0.52792216                0.00005472                0.07943846               -0.00222074
               4.84533630                1.04086894               38.15457084                0.51167714               -0.09956445               -0.09952222                0.33184520                0.00017398                0.09905116               -0.00115444
               5.84463494                1.03782841               38.06322826                0.50173396               -0.04073323               -0.04070060                0.13575024                0.00012163                0.10983960               -0.00058887
               6.84452163                1.03477593               37.97194428                0.49969753                0.01806867                0.01813835               -0.06036056                0.00008605                0.11211056               -0.00025677
               7.84499631                1.03171089               37.88064413                0.50545535                0.07688269                0.07698334               -0.25648915                0.00005747                0.10611272               -0.00002452
               8.84605929                1.02863268               37.78925425                0.51909732                0.13574332                0.13582904               -0.45263854                0.00002492                0.09186797                0.00020780
               9.84771118                1.02554043               37.69770031                0.54092069                0.19470513                0.19469388               -0.64880903               -0.00016284                0.06918393                0.00054459
              10.84995339                1.02242996               37.60590493                0.57143931                0.25346862                0.25362448               -0.84499563               -0.00024297                0.03780676                0.00113789
              11.85278055                1.01930724               37.51378874                0.79803734                0.28271633                0.31389516               -1.04118234                0.00064419                0.01765424                0.00248700
               1.85367924                2.04717564               38.42805534                0.79631892               -0.24526683               -0.27566419                0.91617600               -0.00082556                0.01271086               -0.00282923
               2.85122657                2.04475599               38.33586811                0.55790081               -0.21600664               -0.21617239                0.72001265               -0.00032984                0.04199433               -0.00370494
               3.84935911                2.04232243               38.24419575                0.52364625               -0.15735552               -0.15708339                0.52398978               -0.00011941                0.08055855               -0.00211476
               4.84807946                2.03988013               38.15272598                0.50895194               -0.09850141               -0.09828142                0.32789398                0.00008030                0.09897325               -0.00108216
               5.84738908                2.03742763               38.06138513                0.50098680               -0.03959975               -0.03947108                0.13176831                0.00011888                0.10914937               -0.00058824
               6.84728747                2.03496336               37.97009916                0.49936874                0.01927062                0.01935315               -0.06437734                0.00008301                0.11112883               -0.00037772
               7.84777449                2.03248664               37.87879525                0.50397077                0.07814152                0.07819002               -0.26054235                0.00002421                0.10501093               -0.00031616
               8.84885030                2.02999684               37.78740134                0.51489443                0.13703362                0.13704464               -0.45672845               -0.00009262                0.09079653               -0.00030053
               9.85051516                2.02749291               37.69584463                0.53247098                0.19587214                0.19594973               -0.65293362               -0.00028062                0.06835021               -0.00021940
              10.85276774                2.02497491               37.60405035                0.55727930                0.25459734                0.25514584               -0.84914536               -0.00038757                0.03744226                0.00009492
              11.85560711                2.02244675               37.51194108                0.78867721                0.28393708                0.31442243               -1.04533134                0.00034390                0.01756227                0.00073981
               1.85579475                3.04442695               38.42620001                0.79596411               -0.24407871               -0.27419785                0.91220255               -0.00071270                0.01305687                0.00207701
               2.85335396                3.04259898               38.33401374                0.55740369               -0.21475191               -0.21513106                0.71604605               -0.00024072                0.04238334                0.00101497
               3.85149971                3.04075667               38.24234357                0.52337970               -0.15606297               -0.15604115                0.52002257               -0.00022222                0.08119089                0.00046989
               4.85023270                3.03890331               38.15088001                0.50878985               -0.09728127               -0.09711342                0.32391815               -0.00006497                0.09964645                0.00028534
               5.84955408                3.03703899               38.05954253                0.50091949               -0.03842055               -0.03826483                0.12777333                0.00000129                0.10954819                0.00004611
               6.84946429                3.03516300               37.96825764                0.49939287                0.02046190                0.02057481               -0.06839677               -0.00000893                0.11131740               -0.00030961
               7.84996332                3.03327469               37.87695324                0.50408778                0.07934377                0.07942811               -0.26458835               -0.00006880                0.10505151               -0.00078835
               8.85105116                3.03137358               37.78555780                0.51510631                0.13820876                0.13831889               -0.46080053               -0.00016909                0.09074936               -0.00139463
               9.85272750                3.02945943               37.69399919                0.53277714                0.19703136                0.19730388               -0.65702806               -0.00027883                0.06828588               -0.00211999
              10.85499179                3.02753288               37.60220339                0.55767318                0.25581267                0.25639936               -0.85325328               -0.00024454                0.03740403               -0.00294940
              11.85784375                3.02559569               37.51009308                0.78890073                0.28519578                0.31544396               -1.04943979                0.00047474                0.01753081               -0.00389195
               1.85732094                4.04169168               38.42436090                0.79562063               -0.24288976               -0.27290464                0.90821958               -0.00065089                0.01327107                0.00727583
               2.85489204                4.04045337               38.33216574                0.55692679               -0.21353060               -0.21396468                0.71206385               -0.00013127                0.04301591                0.00451070
               3.85305033                4.03920160               38.24049539                0.52312818               -0.15481012               -0.15493078                0.51603867               -0.00017097                0.08238305                0.00285455
               4.85179584                4.03793786               38.14903451                0.50863852               -0.09604538               -0.09596324                0.31992722               -0.00012619                0.10103453                0.00163629
               5.85112942                4.03666233               38.05770113                0.50086266               -0.03721250               -0.03706870                0.12376979               -0.00009975                0.11097150                0.00067238
               6.85105159                4.03537486               37.96641998                0.49942802                0.02165584                0.02179437               -0.07241735               -0.00010794                0.11264164               -0.00023972
               7.85156254                4.03407520               37.87511806                0.50421501                0.08052957                0.08066825               -0.26862798               -0.00013806                0.10620118               -0.00124786
               8.85266218                4.03276322               37.78372321                0.51532847                0.13938750                0.13958896               -0.46485860               -0.00017671                0.09166695               -0.00247692
               9.85435029                4.03143898               37.69216279                0.53309958                0.19822007                0.19857727               -0.66110130               -0.00019108                0.06892581               -0.00403637
              10.85662658                4.03010290               37.60036236                0.55810281                0.25703453                0.25760443               -0.85733636               -0.00013505                0.03773223               -0.00601677
              11.85949098                4.02875563               37.50824435                0.78915207                0.28643949                0.31657752               -1.05352475                0.00054130                0.01768693               -0.00847773
               1.85825835                5.03896886               38.42253058                0.79527859               -0.24169388               -0.27168492                0.90422701               -0.00061133                0.01362818                0.01165182
               2.85584141                5.03831968               38.33031942                0.55645339               -0.21232752               -0.21276779                0.70806852               -0.00003401                0.04400913                0.00733346
               3.85401180                5.03765805               38.23864615                0.52288234               -0.15359845               -0.15374953                0.51204220               -0.00008116                0.08429028                0.00465674
               4.85276944                5.03698405               38.14718790                0.50849559               -0.09483575               -0.09477486                0.31592639               -0.00012878                0.10336696                0.00269192
               5.85211509                5.03629762               38.05586046                0.50081624               -0.03600894               -0.03586636                0.11976065               -0.00016969                0.11350451                0.00116988
               6.85204927                5.03559889               37.96458631                0.49947409                0.02285562                0.02300721               -0.07643799               -0.00018948                0.11515893               -0.00017958
               7.85257220                5.03488806               37.87329037                0.50435258                0.08172888                0.08188974               -0.27266169               -0.00018259                0.10850495               -0.00161352
               8.85368384                5.03416536               37.78189860                0.51555825                0.14058960                0.14081714               -0.46890533               -0.00014909                0.09358037               -0.00337291
               9.85538399                5.03343097               37.69033670                0.53342635                0.19942989                0.19980217               -0.66515918               -0.00009670                0.07029519               -0.00568694
              10.85767244                5.03268497               37.59852883                0.55853427                0.25825584                0.25881291               -0.86140176               -0.00004264                0.03844264               -0.00875610
              11.86054911                5.03192724               37.50639652                0.78940364                0.28766673                0.31777016               -1.05759382                0.00059131                0.01803628               -0.01271381
               1.85860707                6.03625798               38.42070039                0.79493735               -0.24048989               -0.27051781                0.90022455               -0.00056859                0.01415058                0.01496588
               2.85620217                6.03619801               38.32846635                0.55598281               -0.21113639               -0.21155904                0.70406011                0.00006771                0.04548368                0.00913806
               3.85438434                6.03612661               38.23678960                0.52264322               -0.15242347               -0.15250848                0.50803445                0.00001002                0.08713290                0.00569355
               4.85315370                6.03604236               38.14533618                0.50836232               -0.09365757               -0.09354033                0.31191724               -0.00013235                0.10686747                0.00325480
               5.85251119                6.03594501               38.05401877                0.50078143               -0.03481686               -0.03464993                0.11574744               -0.00023733                0.11734824                0.00143506
               6.85245736                6.03583500               37.96275666                0.49953257                0.02406126                0.02421149               -0.08045778               -0.00026556                0.11903530               -0.00013444
               7.85299241                6.03571299               37.87147174                0.50450108                0.08294610                0.08308526               -0.27668960               -0.00022251                0.11211426               -0.00179286
               8.85411628                6.03557956               37.78008704                0.51579700                0.14181642                0.14200366               -0.47294183               -0.00012074                0.09662977               -0.00387810
               9.85582874                6.03543503               37.68852533                0.53375869                0.20065865                0.20099064               -0.66920362               -0.00000097                0.07250891               -0.00674886
              10.85812946                6.03527916               37.59670816                0.55896804                0.25947544                0.26002827               -0.86545276                0.00005446                0.03960151               -0.01075523
              11.86101825                6.03511104               37.50455531                0.78965591                0.28887938                0.31901846               -1.06165078                0.00064631                0.01861470               -0.01615322
               1.85836692                7.03355850               38.41885809                0.79459651               -0.23927794               -0.26943606                0.89620973               -0.00049927                0.01490376                0.01678472
               2.85597414                7.03408850               38.32659495                0.55551573               -0.20996311               -0.21031210                0.70003620                0.00018600                0.04761575                0.00954445
               3.85416766                7.03460788               38.23491702                0.52241189               -0.15128685               -0.15119606                0.50401436                0.00005658                0.09121624                0.00571332
               4.85294840                7.03511324               38.14347386                0.50824078               -0.09249793               -0.09227823                0.30789989               -0.00019690                0.11184539                0.00320459
               5.85231770                7.03560462               38.05217351                0.50076068               -0.03362171               -0.03343637                0.11173061               -0.00032424                0.12277925                0.00141514
               6.85227597                7.03608311               37.96093106                0.49960555                0.02527462                0.02540678               -0.08447621               -0.00033976                0.12452311               -0.00009757
               7.85282319                7.03654976               37.86966469                0.50466299                0.08417125                0.08426610               -0.28071130               -0.00027054                0.11728326               -0.00170574
               8.85395939                7.03700543               37.77829363                0.51604605                0.14305917                0.14315901               -0.47696751               -0.00012140                0.10107726               -0.00380004
               9.85568437                7.03745078               37.68673640                0.53409717                0.20190638                0.20213400               -0.67323365                0.00008100                0.07580155               -0.00686508
              10.85799752                7.03788553               37.59491015                0.55940391                0.26069519                0.26123840               -0.86948846                0.00017391                0.04135077               -0.01150009
              11.86089828                7.03830761               37.50273128                0.78990847                0.29007569                0.32034870               -1.06569486                0.00072769                0.01949945               -0.01821254
               1.85753708                8.03086926               38.41698636                0.79425448               -0.23805771               -0.26855057                0.89217726               -0.00037295                0.01601998                0.01650038
               2.85515651                8.03199177               38.32468920                0.55505211               -0.20881767               -0.20891305                0.69599200                0.00025415                0.05071082                0.00796003
               3.85336073                8.03310269               38.23301718                0.52219282               -0.15017416               -0.14983999                0.49997903               -0.00007964                0.09702270                0.00455682
               4.85215302                8.03419680               38.14159455                0.50813511               -0.09129514               -0.09106699                0.30387279               -0.00033146                0.11872375                0.00252785
               5.85153483                8.03527628               38.05032188                0.50075758               -0.03238002               -0.03224776                0.10770958               -0.00039201                0.13012464                0.00111522
               6.85150542                8.03634314               37.95910966                0.49969620                0.02649292                0.02659626               -0.08849315               -0.00036568                0.13192019               -0.00006002
               7.85206469                8.03739831               37.86787238                0.50484149                0.08537041                0.08545579               -0.28472556               -0.00030221                0.12434839               -0.00132227
               8.85321283                8.03844274               37.77652527                0.51630889                0.14427856                0.14432767               -0.48098021               -0.00016688                0.10734038               -0.00303068
               9.85495026                8.03947771               37.68498144                0.53444409                0.20316365                0.20323546               -0.67724614                0.00007676                0.08061156               -0.00569917
              10.85727610                8.04050393               37.59315044                0.55984192                0.26191925                0.26238071               -0.87350403                0.00029723                0.04398551               -0.01024424
              11.86018864                8.04151801               37.50094183                0.79016018                0.29125379                0.32184239               -1.06972034                0.00086379                0.02086764               -0.01800313
               1.85611444                9.02818749               38.41506075                0.79391165               -0.23686457               -0.26806870                0.88811831               -0.00043291                0.01760456                0.01217418
               2.85374580                9.02991024               38.32272566                0.55459620               -0.20766996               -0.20724961                0.69191843                0.00000340                0.05540129                0.00409434
               3.85196104                9.03161108               38.23107819                0.52199100               -0.14888048               -0.14874328                0.49592373               -0.00028930                0.10543939                0.00248559
               4.85076819                9.03329190               38.13969247                0.50805035               -0.08987628               -0.08993346                0.29983279               -0.00037885                0.12797350                0.00136909
               5.85016352                9.03495966               38.04846144                0.50077636               -0.03107829               -0.03108502                0.10368257               -0.00030034                0.13968137                0.00060452
               6.85014662                9.03661504               37.95729268                0.49980893                0.02770138                0.02779123               -0.09250876               -0.00026086                0.14150246               -0.00002459
               7.85071754                9.03825888               37.86609792                0.50504117                0.08650217                0.08667549               -0.28873078               -0.00022850                0.13366153               -0.00070688
               8.85187666                9.03989198               37.77478923                0.51659049                0.14535903                0.14555623               -0.48497602               -0.00018786                0.11598653               -0.00166117
               9.85362472                9.04151549               37.68327489                0.53480499                0.20432500                0.20444029               -0.68123419               -0.00001435                0.08781432               -0.00323490
              10.85596316                9.04313315               37.59145376                0.56028437                0.26313307                0.26337616               -0.87748876                0.00026194                0.04820528               -0.00616783
              11.85888739                9.04474446               37.49921536                0.79041101                0.29242225                0.32365323               -1.07371452                0.00086530                0.02308762               -0.01313766
               1.85408293               10.02550789               38.41302510                0.89684232               -0.23499453               -0.26796031                0.88401189                0.03073790                0.02312171                0.01053790
               2.85173298               10.02784678               38.32068259                0.77714986               -0.20548220               -0.20634601                0.68780790                0.02971559                0.06420822                0.00309193
               3.84997328               10.03012782               38.22909404                0.76093430               -0.14680584               -0.14832586                0.49184332                0.02879154                0.11737098                0.00235915
               4.84879687               10.03239813               38.13776410                0.75400319               -0.08838013               -0.08937746                0.29577499                0.02920575                0.13981914                0.00133204
               5.84820568               10.03465458               38.04659076                0.75040095               -0.02979363               -0.03050855                0.09964648                0.02925835                0.15162783                0.00051768
               6.84820099               10.03689896               37.95548021                0.74994863                0.02887458                0.02839221               -0.09652380                0.02929966                0.15343297               -0.00022750
               7.84878317               10.03913182               37.86434319                0.75259345                0.08757323                0.08729474               -0.29272521                0.02930809                0.14546938               -0.00100194
               8.84995246               10.04135387               37.77309058                0.75839506                0.14628169                0.14618820               -0.48895020                0.02931395                0.12750973               -0.00192625
               9.85170881               10.04356651               37.68162859                0.76752763                0.20499587                0.20510200               -0.68518891                0.02928748                0.09875352               -0.00321114
              10.85405238               10.04577145               37.58985209                0.78029220                0.26372568                0.26383025               -0.88142595                0.03014934                0.05668892               -0.00525569
              11.85698332               10.04799107               37.49761706                0.89528937                0.29309448                0.32466141               -1.07764773                0.03155604                0.02949798               -0.01145031
               1.94097523                0.05449490               39.44088441                0.90219958               -0.24351376               -0.27464803                0.91069817               -0.03123970                0.01896360               -0.00490798
               2.93854009                0.05088436               39.34679091                0.78663032               -0.21456835               -0.21430940                0.71739339               -0.02953246                0.04467854               -0.00482724
               3.93668386                0.04729560               39.25313999                0.76745866               -0.15679907               -0.15676722                0.52419955               -0.02872649                0.08128627               -0.00220291
               4.93540411                0.04369657               39.15972404                0.75696065               -0.09909832               -0.09872210                0.33099179               -0.02891655                0.10186604               -0.00128928
               5.93470189                0.04008717               39.06644718                0.75118514               -0.04129779               -0.04073695                0.13776784               -0.02894229                0.11283060               -0.00057395
               6.93457815                0.03646582               38.97323006                0.74999896                0.01656369                0.01726482               -0.05547141               -0.02896579                0.11519838                0.00002925
               7.93503317                0.03283208               38.87999719                0.75335657                0.07444377                0.07526785               -0.24872800               -0.02896770                0.10923318                0.00059141
               8.93606703                0.02918544               38.78667450                0.76129636                0.13231520                0.13326321               -0.44200467               -0.02897524                0.09496614                0.00116066
               9.93767947                0.02552451               38.69318713                0.77394008                0.19018551                0.19130521               -0.63530193               -0.02891740                0.07221924                0.00179295
              10.93987074                0.02184843               38.59945745                0.79149769                0.24798424                0.24906721               -0.82861547               -0.02967355                0.04035718                0.00251915
              11.94263915                0.01813593               38.50539789                0.90282165                0.27684181                0.30926503               -1.02194393               -0.02974208                0.01975707                0.00420766
               1.94427337                1.05174842               39.43904809                0.79968936               -0.24289547               -0.27355247                0.90681087               -0.00075145                0.01557976               -0.00390331
               2.94184441                1.04874127               39.34493576                0.56472415               -0.21414412               -0.21390971                0.71349778               -0.00016276                0.04257232               -0.00488855
               3.93999049                1.04572793               39.25129176                0.52890813               -0.15626301               -0.15604182                0.52029986                0.00005382                0.07960100               -0.00218039
               4.93871915                1.04270935               39.15786549                0.51128305               -0.09813214               -0.09809108                0.32707192                0.00017097                0.09920003               -0.00112071
               5.93802784                1.03967980               39.06457617                0.50164094               -0.04015579               -0.04012402                0.13382622                0.00011907                0.10997752               -0.00056838
               6.93791604                1.03663847               38.97134529                0.49966540                0.01779164                0.01786019               -0.05943511                0.00008393                0.11223326               -0.00025158
               7.93838368                1.03358476               38.87809807                0.50525073                0.07575103                0.07585033               -0.25271394                0.00005579                0.10621335               -0.00003543
               8.93943106                1.03051808               38.78476091                0.51848239                0.13375637                0.13384121               -0.44601331                0.00002383                0.09194040                0.00018035
               9.94105880                1.02743756               38.69125948                0.53964090                0.19186138                0.19185098               -0.63933358               -0.00016105                0.06922615                0.00050178
              10.94326829                1.02433910               38.59751645                0.56921214                0.24977106                0.24992542               -0.83266960               -0.00023944                0.03782480                0.00108477
              11.94605423                1.02122858               38.50345261                0.79653962                0.27859387                0.30931972               -1.02600575                0.00063536                0.01765166                0.00244369
               1.94697451                2.04902385               39.43715096                0.79488661               -0.24171783               -0.27167323                0.90291298               -0.00081336                0.01272828               -0.00281256
               2.94455733                2.04660617               39.34301631                0.55607708               -0.21288285               -0.21304624                0.70959996               -0.00032514                0.04210061               -0.00367656
               3.94271685                2.04417476               39.24939793                0.52286601               -0.15508385               -0.15481620                0.51642576               -0.00011795                0.08071300               -0.00206641
               4.94145565                2.04173475               39.15598141                0.50863254               -0.09708470               -0.09686879                0.32317911                0.00007850                0.09908674               -0.00103900
               5.94077515                2.03928469               39.06269351                0.50091126               -0.03903886               -0.03891278                0.12990299                0.00011611                0.10924390               -0.00056131
               6.94067487                2.03682303               38.96946030                0.49934217                0.01897599                0.01905701               -0.06339273                0.00008057                0.11120526               -0.00037154
               7.94115467                2.03434908               38.87620896                0.50380592                0.07699135                0.07703929               -0.25670752                0.00002268                0.10506414               -0.00033251
               8.94221470                2.03186227               38.78286740                0.51439852                0.13502758                0.13503908               -0.45004318               -0.00009217                0.09082240               -0.00033929
               9.94385523                2.02936153               38.68936285                0.53143195                0.19301106                0.19308855               -0.64339765               -0.00027705                0.06835168               -0.00027754
              10.94607492                2.02684693               38.59562068                0.55545244                0.25088314                0.25142462               -0.83675868               -0.00038214                0.03743694                0.00002661
              11.94887289                2.02432233               38.50156376                0.78744289                0.27979678                0.30983927               -1.03009431                0.00033872                0.01754899                0.00068074
               1.94909247                3.04631496               39.43525619                0.79454298               -0.24054721               -0.27022864                0.89899824               -0.00070218                0.01307502                0.00210175
               2.94668700                3.04448034               39.34112257                0.55559578               -0.21164655               -0.21202039                0.70569194               -0.00023739                0.04248651                0.00104735
               3.94485954                3.04263160               39.24750637                0.52260773               -0.15381030               -0.15378929                0.51251696               -0.00021933                0.08133443                0.00050500
               4.94361080                3.04077198               39.15409598                0.50847521               -0.09588254               -0.09571790                0.31926185               -0.00006453                0.09973981                0.00031676
               5.94294189                3.03890154               39.06081126                0.50084558               -0.03787703               -0.03772427                0.12596688                0.00000047                0.10961470                0.00006591
               6.94285326                3.03701961               38.96757888                0.49936515                0.02014976                0.02026069               -0.06735299               -0.00000976                0.11136203               -0.00030619
               7.94334489                3.03512554               38.87432678                0.50391914                0.07817595                0.07825917               -0.26069407               -0.00006872                0.10507210               -0.00080324
               8.94441677                3.03321886               38.78098344                0.51460361                0.13618549                0.13629455               -0.45405545               -0.00016733                0.09074457               -0.00142707
               9.94606860                3.03129933               38.68747678                0.53172935                0.19415337                0.19442262               -0.64743187               -0.00027507                0.06826275               -0.00216663
              10.94829984                3.02936759               38.59373293                0.55583535                0.25208074                0.25265942               -0.84080630               -0.00024096                0.03738504               -0.00300313
              11.95111021                3.02742537               38.49967498                0.78766046                0.28103704                0.31084604               -1.03414252                0.00046774                0.01751041               -0.00394207
               1.95062969                4.04361928               39.43337755                0.79420982               -0.23937579               -0.26895460                0.89507411               -0.00064130                0.01328829                0.00731203
               2.94823593                4.04236576               39.33923505                0.55513339               -0.21044322               -0.21087125                0.70176849               -0.00012955                0.04311685                0.00454544
               3.94642083                4.04109898               39.24561865                0.52236416               -0.15257589               -0.15269523                0.50859179               -0.00016883                0.08252044                0.00288749
               4.94518442                4.03982039               39.15221086                0.50832868               -0.09466487               -0.09458458                0.31532975               -0.00012476                0.10111626                0.00166319
               5.94452753                4.03853020               39.05893012                0.50079053               -0.03668678               -0.03654571                0.12202231               -0.00009878                0.11102127                0.00068863
               6.94445068                4.03722824               38.96570131                0.49939933                0.02132612                0.02146231               -0.07131442               -0.00010693                0.11266629               -0.00023782
               7.94495405                4.03591427               38.87245150                0.50404251                0.07934430                0.07948104               -0.26467424               -0.00013659                0.10620111               -0.00126199
               8.94603757                4.03458816               38.77910857                0.51481889                0.13734698                0.13754587               -0.45805386               -0.00017457                0.09164331               -0.00250661
               9.94770099                4.03324998               38.68559994                0.53204175                0.19532479                0.19567718               -0.65144545               -0.00018851                0.06888791               -0.00407906
              10.94994406                4.03190012               38.59185137                0.55625187                0.25328470                0.25384663               -0.84482925               -0.00013310                0.03770499               -0.00606802
              11.95276669                4.03053925               38.49778570                0.78790379                0.28226238                0.31196285               -1.03816700                0.00053330                0.01766214               -0.00853158
               1.95158669                5.04093586               39.43150759                0.79387804               -0.23819757               -0.26775290                0.89114041               -0.00060236                0.01364560                0.01169938
               2.94920471                5.04026292               39.33734906                0.55467453               -0.20925791               -0.20969202                0.69783214               -0.00003371                0.04411098                0.00737184
               3.94740153                5.03957770               39.24372973                0.52212614               -0.15138209               -0.15153137                0.50465426               -0.00008031                0.08442757                0.00469005
               4.94617707                5.03888028               39.15032453                0.50819019               -0.09347305               -0.09341366                0.31138775               -0.00012721                0.10344486                0.00271754
               5.94553207                5.03817063               39.05704965                0.50074599               -0.03550095               -0.03536104                0.11807215               -0.00016746                0.11354689                0.00118473
               6.94546705                5.03744886               38.96382773                0.49944461                0.02250823                0.02265730               -0.07527582               -0.00018691                0.11517371               -0.00017829
               7.94598223                5.03671516               38.87058377                0.50417622                0.08052597                0.08068454               -0.26864859               -0.00018010                0.10849418               -0.00162732
               8.94707757                5.03596978               38.77724379                0.51504252                0.13853143                0.13875594               -0.46204110               -0.00014704                0.09354694               -0.00340188
               9.94875286                5.03521287               38.68373357                0.53235915                0.19651684                0.19688401               -0.65544361               -0.00009546                0.07025009               -0.00572972
              10.95100791                5.03444452               38.58997749                0.55667012                0.25448809                0.25503732               -0.84883496               -0.00004223                0.03841176               -0.00881024
              11.95384263                5.03366463               38.49589748                0.78814768                0.28347162                0.31313795               -1.04217637                0.00058252                0.01800969               -0.01277706
               1.95196354                6.03826422               39.42963767                0.79354709               -0.23701136               -0.26660300                0.88719706               -0.00056028                0.01416930                0.01502347
               2.94959343                6.03817192               39.33545620                0.55421853               -0.20808437               -0.20850108                0.69388287                0.00006655                0.04558995                0.00917885
               3.94780185                6.03806835               39.24183340                0.52189445               -0.15022445               -0.15030861                0.50070558                0.00000960                0.08727679                0.00572732
               4.94658894                6.03795212               39.14843302                0.50806131               -0.09231223               -0.09219735                0.30743774               -0.00013061                0.10694966                0.00328005
               5.94595561                6.03782298               39.05516812                0.50071265               -0.03432640               -0.03416255                0.11411806               -0.00023387                0.11739226                0.00144944
               6.94590241                6.03768138               38.96195818                0.49950174                0.02369614                0.02384385               -0.07923644               -0.00026154                0.11904954               -0.00013316
               7.94642953                6.03752796               38.86872516                0.50432107                0.08172528                0.08186250               -0.27261730               -0.00021908                0.11210186               -0.00180616
               8.94753692                6.03736328               38.77539216                0.51527462                0.13974015                0.13992504               -0.46601816               -0.00011891                0.09659473               -0.00390661
               9.94922433                6.03718766               38.68188205                0.53268150                0.19772743                0.19805502               -0.65942840               -0.00000109                0.07246307               -0.00679217
              10.95149146                6.03700087               38.58811661                0.55709060                0.25568976                0.25623490               -0.85282657                0.00005348                0.03957075               -0.01081330
              11.95433813                6.03680201               38.49401599                0.78839215                0.28466655                0.31436807               -1.04617419                0.00063676                0.01858844               -0.01622724
               1.95176009                7.03560380               39.42775552                0.79321653               -0.23581730               -0.26553715                0.88324138               -0.00049201                0.01492508                0.01684827
               2.94940192                7.03609289               39.33354486                0.55376577               -0.20692844               -0.20727243                0.68991826                0.00018313                0.04773099                0.00958391
               3.94762152                7.03657152               39.23992092                0.52167123               -0.14910463               -0.14901556                0.49674481                0.00005550                0.09137490                0.00574547
               4.94641982                7.03703634               39.14653082                0.50794442               -0.09116968               -0.09095394                0.30347963               -0.00019406                0.11194052                0.00322863
               5.94579813                7.03748738               39.05328299                0.50069331               -0.03314887               -0.03296691                0.11016043               -0.00031919                0.12283399                0.00142887
               6.94575685                7.03792573               38.96009269                0.49957357                0.02489163                0.02502155               -0.08319578               -0.00033427                0.12454620               -0.00009605
               7.94629596                7.03835241               38.86687819                0.50447925                0.08293237                0.08302598               -0.27657977               -0.00026605                0.11727831               -0.00171783
               8.94741549                7.03876828               38.77355879                0.51551706                0.14096453                0.14106349               -0.46998463               -0.00011933                0.10104908               -0.00382665
               9.94911525                7.03917397               38.68005312                0.53301015                0.19895673                0.19918175               -0.66339935                0.00007985                0.07576182               -0.00690701
              10.95139463                7.03956922               38.58627854                0.55751320                0.25689159                0.25742737               -0.85680311                0.00017133                0.04132381               -0.01155935
              11.95425308                7.03995199               38.49215181                0.78863666                0.28584535                0.31567885               -1.05015913                0.00071704                0.01947534               -0.01829385
               1.95097552                8.03295348               39.42584376                0.79288492               -0.23461507               -0.26466477                0.87926822               -0.00036757                0.01604566                0.01656295
               2.94862937                8.03402647               39.33159896                0.55331695               -0.20579996               -0.20589369                0.68593351                0.00025013                0.05084057                0.00799125
               3.94685952                8.03508804               39.23798102                0.52145961               -0.14800838               -0.14767951                0.49276883               -0.00007886                0.09720575                0.00458339
               4.94566920                8.03613304               39.14461153                0.50784352               -0.08998460               -0.08976064                0.29951178               -0.00032650                0.11884177                0.00254817
               5.94505983                8.03716365               39.05139144                0.50069196               -0.03192550               -0.03179580                0.10619857               -0.00038570                0.13020009                0.00112707
               6.94503069                8.03818182               38.95823142                0.49966318                0.02609195                0.02619355               -0.08715359               -0.00035953                0.13196226               -0.00005836
               7.94558167                8.03918848               38.86504603                0.50465376                0.08411386                0.08419818               -0.28053496               -0.00029699                0.12436114               -0.00133193
               8.94671297                8.04018455               38.77175059                0.51577334                0.14216592                0.14221500               -0.47393820               -0.00016380                0.10732843               -0.00305251
               9.94842499                8.04117129               38.67825832                0.53334757                0.20019539                0.20026720               -0.66735278                0.00007595                0.08058570               -0.00573473
              10.95071688                8.04214942               38.58447897                0.55793799                0.25809756                0.25855303               -0.86075958                0.00029292                0.04396764               -0.01029720
              11.95358694                8.04311559               38.49032241                0.78888087                0.28700608                0.31715047               -1.05412517                0.00085113                0.02084927               -0.01808296
               1.94960676                9.03031051               39.42387786                0.79255249               -0.23343960               -0.26419029                0.87526903               -0.00042671                0.01763598                0.01222081
               2.94727236                9.03197502               39.32959499                0.55287536               -0.20466921               -0.20425410                0.68191976                0.00000254                0.05555312                0.00410886
               3.94551337                9.03361793               39.23600177                0.52126587               -0.14673370               -0.14659929                0.48877315               -0.00028558                0.10565939                0.00250176
               4.94433769                9.03524112               39.14266935                0.50776322               -0.08858667               -0.08864375                0.29553126               -0.00037318                0.12812578                0.00138168
               5.94374164                9.03685146               39.04949103                0.50071265               -0.03064314               -0.03065008                0.10223080               -0.00029540                0.13978900                0.00061195
               6.94372482                9.03844960               38.95637458                0.49977491                0.02728250                0.02737099               -0.09111009               -0.00025636                0.14157532               -0.00002331
               7.94428729                9.04003638               38.86323181                0.50484985                0.08522899                0.08539995               -0.28448130               -0.00022448                0.13370408               -0.00071248
               8.94542940                9.04161258               38.76997489                0.51604800                0.14323063                0.14342546               -0.47787528               -0.00018446                0.11600309               -0.00167418
               9.94715190                9.04317932               38.67651219                0.53369871                0.20133965                0.20145427               -0.67128201               -0.00001366                0.08781375               -0.00325626
              10.94945620                9.04474028               38.58274273                0.55836726                0.25929337                0.25953412               -0.86468547                0.00025830                0.04820400               -0.00620098
              11.95233777                9.04629500               38.48855629                0.78912369                0.28815722                0.31893453               -1.05806052                0.00085259                0.02307942               -0.01319575
               1.94763796               10.02766967               39.42180145                0.89616607               -0.23159678               -0.26408371                0.87122268                0.03029209                0.02317408                0.01058157
               2.94532199               10.02994139               39.32751111                0.77629441               -0.20251282               -0.20336339                0.67786944                0.02928239                0.06439798                0.00310409
               3.94358770               10.03215605               39.23397712                0.76057421               -0.14468929               -0.14618831                0.48475283                0.02837232                0.11764195                0.00237482
               4.94242821               10.03436017               39.14070070                0.75386112               -0.08711322               -0.08809585                0.29153312                0.02878187                0.14001792                0.00134325
               5.94184544               10.03655064               39.04758029                0.75036974               -0.02937784               -0.03008202                0.09825408                0.02883375                0.15178121                0.00052357
               6.94184065               10.03872924               38.95452225                0.74993135                0.02843825                0.02796316               -0.09506605                0.02887453                0.15355099               -0.00022736
               7.94241421               10.04089648               38.86143743                0.75249656                0.08628435                0.08601008               -0.28841687                0.02888285                0.14555654               -0.00100800
               8.94356634               10.04305306               38.76823679                0.75812173                0.14414004                0.14404812               -0.48179107                0.02888864                0.12757043               -0.00193885
               9.94529701               10.04520038               38.67482663                0.76697118                0.20200120                0.20210615               -0.67517858                0.02886270                0.09879557               -0.00323065
              10.94760636               10.04734010               38.58110198                0.77932924                0.25987758                0.25998170               -0.86856467                0.02971151                0.05672204               -0.00528447
              11.95049456               10.04949428               38.48691894                0.89464313                0.28881957                0.31992786               -1.06193622                0.03109671                0.02951718               -0.01150222
               2.03622516                0.05630154               40.44992432                0.90136102               -0.23991883               -0.27059195                0.89724763               -0.03077680                0.01901407               -0.00491485
               3.03382598                0.05271072               40.35391205                0.78548921               -0.21140240               -0.21114667                0.70680760               -0.02909434                0.04480307               -0.00482518
               4.03199712                0.04914137               40.25834348                0.76690261               -0.15448947               -0.15445822                0.51647705               -0.02830061                0.08147357               -0.00218795
               5.03073619                0.04556189               40.16300973                0.75672938               -0.09764404               -0.09727314                0.32613269               -0.02848831                0.10204861               -0.00127738
               6.03004424                0.04197219               40.06781491                0.75113057               -0.04070000               -0.04014730                0.13577235               -0.02851370                0.11300345               -0.00056654
               7.02992219                0.03837071               39.97267968                0.74998019                0.01630419                0.01699494               -0.05460306               -0.02853690                0.11535658                0.00003200
               8.03037032                0.03475703               39.87752853                0.75323559                0.07332671                0.07413846               -0.24499559               -0.02853878                0.10936996                0.00058944
               9.03138872                0.03113065               39.78228735                0.76093332                0.13034067                0.13127442               -0.43540794               -0.02854616                0.09507560                0.00115369
              10.03297713                0.02749018               39.68688130                0.77318833                0.18735354                0.18845636               -0.62584064               -0.02848917                0.07229891                0.00178063
              11.03513579                0.02383480               39.59123277                0.79019992                0.24429568                0.24536241               -0.81628949               -0.02923382                0.04040540                0.00250210
              12.03786305                0.02014357               39.49525422                0.90195238                0.27272546                0.30466803               -1.00675290               -0.02930094                0.01977766                0.00420091
               2.03950822                1.05359562               40.44804942                0.79814220               -0.23931001               -0.26951247                0.89341892               -0.00073968                0.01560727               -0.00389415
               3.03711512                1.05059925               40.35201824                0.56268129               -0.21098483               -0.21075337                0.70297067               -0.00016006                0.04267590               -0.00487086
               4.03528852                1.04759679               40.25645655                0.52796674               -0.15396134               -0.15374375                0.51263602                0.00005287                0.07976138               -0.00214032
               5.03403589                1.04458916               40.16111228                0.51089391               -0.09669176               -0.09665184                0.32227174                0.00016799                0.09934677               -0.00108735
               6.03335469                1.04157072               40.06590478                0.50154897               -0.03957472               -0.03954373                0.13188995                0.00011656                0.11011352               -0.00054813
               7.03324440                1.03854066               39.97075558                0.49963354                0.01751388                0.01758131               -0.05850726                0.00008185                0.11235431               -0.00024649
               8.03370497                1.03549841               39.87558985                0.50504814                0.07461430                0.07471226               -0.24892182                0.00005417                0.10631263               -0.00004625
               9.03473668                1.03244339               39.78033398                0.51787454                0.13175993                0.13184391               -0.43935653                0.00002277                0.09201188                0.00015347
              10.03634016                1.02937474               39.68491364                0.53837676                0.18900373                0.18899417               -0.62981179               -0.00015922                0.06926783                0.00045959
              11.03851676                1.02628842               39.58925154                0.56701373                0.24605527                0.24620810               -0.82028282               -0.00023588                0.03784265                0.00103212
              12.04126127                1.02319025               39.49326862                0.79506212                0.27445106                0.30472157               -1.01075384                0.00062645                0.01764922                0.00240080
               2.04220311                2.05091129               40.44611360                0.79347254               -0.23815004               -0.26766117                0.88957987               -0.00080107                0.01274562               -0.00279607
               3.03982161                2.04849565               40.35006010                0.55427763               -0.20974238               -0.20990339                0.69913176               -0.00032040                0.04220560               -0.00364851
               4.03800826                2.04606649               40.25452427                0.52209631               -0.15279979               -0.15253664                0.50882049               -0.00011647                0.08086530               -0.00201865
               5.03676562                2.04362886               40.15918956                0.50831719               -0.09565999               -0.09544812                0.31843759                0.00007667                0.09919846               -0.00099636
               6.03609507                2.04118131               40.06398319                0.50083670               -0.03847440               -0.03835087                0.12802574                0.00011337                0.10933705               -0.00053469
               7.03599613                2.03872234               39.96883130                0.49931605                0.01868056                0.01876010               -0.06240549                0.00007825                0.11128061               -0.00036549
               8.03646868                2.03625127               39.87366110                0.50364309                0.07583599                0.07588342               -0.25285554                0.00002126                0.10511681               -0.00034874
               9.03751285                2.03376752               39.77840047                0.51390834                0.13301194                0.13302394               -0.44332597               -0.00009173                0.09084799               -0.00037754
              10.03912892                2.03127006               39.68297667                0.53040634                0.19013604                0.19021337               -0.63381506               -0.00027348                0.06835274               -0.00033484
              11.04131557                2.02875896               39.58731518                0.55365143                0.24715067                0.24768498               -0.82431096               -0.00037664                0.03743138               -0.00004103
              12.04407193                2.02623800               39.49133919                0.78622668                0.27563599                0.30523324               -1.01478153                0.00033353                0.01753586                0.00062179
               2.04432348                3.04824240               40.44417997                0.79313966               -0.23699700               -0.26623842                0.88572411               -0.00069162                0.01309305                0.00212607
               3.04195351                3.04640118               40.34812758                0.55381166               -0.20852461               -0.20889308                0.69528252               -0.00023399                0.04258844                0.00107916
               4.04015299                3.04454605               40.25259391                0.52184639               -0.15154533               -0.15152518                0.50497057               -0.00021636                0.08147611                0.00053960
               5.03892261                3.04268020               40.15726525                0.50816465               -0.09447589               -0.09431450                0.31457938               -0.00006410                0.09983183                0.00034775
               6.03826347                3.04080370               40.06206187                0.50077284               -0.03732996               -0.03718021                0.12414876               -0.00000034                0.10968019                0.00008542
               7.03817601                3.03891587               39.96691058                0.49933814                0.01983677                0.01994569               -0.06630631               -0.00001050                0.11140594               -0.00030283
               8.03866021                3.03701608               39.87173936                0.50375270                0.07700280                0.07708495               -0.25678215               -0.00006858                0.10509240               -0.00081796
               9.03971606                3.03510387               39.77647669                0.51410704                0.13415251                0.13426054               -0.44727808               -0.00016552                0.09073996               -0.00145942
              10.04134326                3.03317901               39.68105056                0.53069482                0.19126137                0.19152732               -0.63778899               -0.00027127                0.06823974               -0.00221298
              11.04354129                3.03124212               39.58538726                0.55402319                0.24833046                0.24890098               -0.82829794               -0.00023746                0.03736566               -0.00305605
              12.04630987                3.02929491               39.48941023                0.78643805                0.27685773                0.30622519               -1.01876924                0.00046064                0.01748953               -0.00399149
               2.04587171                4.04558652               40.44226239                0.79281697               -0.23584314               -0.26498356                0.88185885               -0.00063167                0.01330539                0.00734802
               3.04351328                4.04431779               40.34620111                0.55336366               -0.20733933               -0.20776120                0.69141796               -0.00012777                0.04321664                0.00457988
               4.04172492                4.04303599               40.25066723                0.52161039               -0.15032950               -0.15044749                0.50110441               -0.00016663                0.08265607                0.00292001
               5.04050669                4.04174257               40.15534110                0.50802229               -0.09327657               -0.09319814                0.31070639               -0.00012330                0.10119676                0.00168966
               6.03985939                4.04043771               40.06014158                0.50071938               -0.03615759               -0.03601930                0.12026340               -0.00009783                0.11107027                0.00070460
               7.03978354                4.03912125               39.96499369                0.49937118                0.02099548                0.02112928               -0.07020825               -0.00010592                0.11269052               -0.00023592
               8.04027930                4.03779297               39.86982457                0.50387225                0.07815366                0.07828846               -0.26070261               -0.00013511                0.10620086               -0.00127592
               9.04134661                4.03645273               39.77456213                0.51431597                0.13529669                0.13549303               -0.45121671               -0.00017237                0.09161977               -0.00253611
              10.04298524                4.03510061               39.67913388                0.53099773                0.19241532                0.19276294               -0.64174253               -0.00018594                0.06885059               -0.00412150
              11.04519492                4.03373698               39.58346577                0.55442646                0.24951642                0.25007031               -0.83226060               -0.00013127                0.03767823               -0.00611853
              12.04797556                4.03236250               39.48748101                0.78667358                0.27806477                0.30732532               -1.02273351                0.00052524                0.01763771               -0.00858424
               2.04684832                5.04294273               40.44035339                0.79249546               -0.23468264               -0.26379993                0.87798430               -0.00059336                0.01366274                0.01174673
               3.04450149                5.04224596               40.34427606                0.55291928               -0.20617185               -0.20659969                0.68754085               -0.00003340                0.04421138                0.00740996
               4.04272488                5.04153710               40.24873923                0.52138025               -0.14915366               -0.14930107                0.49722603               -0.00007945                0.08456285                0.00472299
               5.04151842                5.04081624               40.15341565                0.50788860               -0.09210266               -0.09204473                0.30682349               -0.00012558                0.10352159                0.00274293
               6.04088283                5.04008331               40.05822191                0.50067629               -0.03498959               -0.03485238                0.11637255               -0.00016518                0.11358873                0.00119938
               7.04081863                5.03933845               39.96308079                0.49941514                0.02215986                0.02230634               -0.07411021               -0.00018434                0.11518829               -0.00017699
               8.04132602                5.03858185               39.86791739                0.50400230                0.07931764                0.07947389               -0.26461734               -0.00017759                0.10848335               -0.00164093
               9.04240498                5.03781373               39.77265778                0.51453297                0.13646339                0.13668490               -0.45514404               -0.00014504                0.09351378               -0.00343034
              10.04405529                5.03703427               39.67722783                0.53130533                0.19358951                0.19395162               -0.64568066               -0.00009426                0.07020570               -0.00577168
              11.04627677                5.03624353               39.58155213                0.55483163                0.25070186                0.25124318               -0.83620653               -0.00004172                0.03838148               -0.00886367
              12.04906933                5.03544142               39.48555300                0.78690991                0.27925602                0.30848290               -1.02668317                0.00057377                0.01798366               -0.01283956
               2.04725338                6.04031053               40.43844433                0.79217477               -0.23351429               -0.26266734                0.87410034               -0.00055196                0.01418752                0.01508055
               3.04491824                6.04018580               40.34234401                0.55247760               -0.20501597               -0.20542668                0.68365095                0.00006533                0.04569469                0.00921928
               4.04315306                6.04004997               40.24680371                0.52115614               -0.14801341               -0.14809670                0.49333670                0.00000915                0.08741871                0.00576075
               5.04195797                6.03990167               40.15148494                0.50776437               -0.09095926               -0.09084671                0.30293281               -0.00012880                0.10703054                0.00330509
               6.04133387                6.03974066               40.05630113                0.50064467               -0.03383268               -0.03367189                0.11247782               -0.00023030                0.11743554                0.00146370
               7.04128131                6.03956738               39.96117193                0.49947155                0.02332991                0.02347509               -0.07801139               -0.00025743                0.11906356               -0.00013196
               8.04180047                6.03938245               39.86601940                0.50414318                0.08049891                0.08063419               -0.26852647               -0.00021562                0.11208954               -0.00181934
               9.04289129                6.03918643               39.77076668                0.51475834                0.13765393                0.13783650               -0.45906144               -0.00011709                0.09656023               -0.00393454
              10.04455355                6.03897964               39.67533676                0.53161800                0.19478196                0.19510513               -0.64960578               -0.00000113                0.07241787               -0.00683495
              11.04678693                6.03876184               39.57965163                0.55523920                0.25188555                0.25242286               -0.84013838                0.00005269                0.03954022               -0.01087095
              12.04959126                6.03853216               39.48363182                0.78714669                0.28043304                0.30969463               -1.03062112                0.00062727                0.01856235               -0.01630060
               2.04708674                7.03768938               40.43652292                0.79185427               -0.23233827               -0.26161754                0.87020430               -0.00048474                0.01494590                0.01691113
               3.04476336                7.03813743               40.34039331                0.55203926               -0.20387749               -0.20421644                0.67974605                0.00018020                0.04784454                0.00962299
               4.04300919                7.03857517               40.24485192                0.52094060               -0.14691041               -0.14682310                0.48943540                0.00005439                0.09153126                0.00577724
               5.04182515                7.03899930               40.14954346                0.50765210               -0.08983381               -0.08962205                0.29903409               -0.00019119                0.11203418                0.00325230
               6.04121251                7.03940988               40.05437671                0.50062734               -0.03267280               -0.03249425                0.10857960               -0.00031407                0.12288778                0.00144247
               7.04117169                7.03980795               39.95926714                0.49954226                0.02450742                0.02463513               -0.08191131               -0.00032873                0.12456884               -0.00009459
               8.04170266                7.04019453               39.86413309                0.50429761                0.08168780                0.08178028               -0.27242955               -0.00026151                0.11727352               -0.00172985
               9.04280545                7.04057046               39.76889394                0.51499442                0.13885986                0.13895796               -0.46296839               -0.00011716                0.10102117               -0.00385292
              10.04447986                7.04093637               39.67346841                0.53193720                0.19599278                0.19621510               -0.65351726                0.00007876                0.07572224               -0.00694851
              11.04672530                7.04129199               39.57777409                0.55564895                0.25306932                0.25359752               -0.84405536                0.00016883                0.04129714               -0.01161820
              12.04954124                7.04163531               39.48172809                0.78738359                0.28159411                0.31098572               -1.03454605                0.00070636                0.01945167               -0.01837455
               2.04634759                8.03507818               40.43457172                0.79153312               -0.23115410               -0.26075827                0.86629067               -0.00036218                0.01607075                0.01662466
               3.04403605                8.03610147               40.33840787                0.55160485               -0.20276603               -0.20285807                0.67582092                0.00024616                0.05096843                0.00802201
               4.04229227                8.03711351               40.24287256                0.52073656               -0.14583070               -0.14550716                0.48551903               -0.00007803                0.09738614                0.00460967
               5.04111944                8.03810923               40.14758478                0.50755553               -0.08866652               -0.08844676                0.29512575               -0.00032153                0.11895801                0.00256822
               6.04051894                8.03909078               40.05244585                0.50062725               -0.03146783               -0.03134072                0.10467719               -0.00037940                0.13027440                0.00113873
               7.04049008                8.04006008               39.95736659                0.49963078                0.02568968                0.02578955               -0.08580974               -0.00035340                0.13200363               -0.00005669
               8.04103274                8.04101805               39.86226168                0.50446853                0.08285156                0.08293492               -0.27632541               -0.00029177                0.12437374               -0.00134151
               9.04214711                8.04196559               39.76704651                0.51524389                0.14004316                0.14009226               -0.46686260               -0.00016072                0.10731675               -0.00307425
              10.04383360                8.04290394               39.67163438                0.53226494                0.19721273                0.19728442               -0.65741119                0.00007516                0.08055989               -0.00576978
              11.04609137                8.04383379               39.57593525                0.55606073                0.25425707                0.25470645               -0.84795230                0.00028862                0.04394957               -0.01034943
              12.04891874                8.04475187               39.47985933                0.78761984                0.28273732                0.31243521               -1.03845243                0.00083839                0.02083087               -0.01816208
               2.04503291                9.03247422               40.43256614                0.79121070               -0.22999629               -0.26029117                0.86235123               -0.00042045                0.01766684                0.01226666
               3.04273295                9.03408027               40.33636406                0.55117752               -0.20165229               -0.20124245                0.67186715                0.00000168                0.05570294                0.00412316
               4.04099986                9.03566503               40.24085365                0.52055062               -0.14457514               -0.14444346                0.48158328               -0.00028184                0.10587641                0.00251775
               5.03984144                9.03723037               40.14560310                0.50747981               -0.08728966               -0.08734660                0.29120498               -0.00036745                0.12827582                0.00139410
               6.03925407                9.03878306               40.05050605                0.50064974               -0.03020493               -0.03021211                0.10076896               -0.00029045                0.13989512                0.00061931
               7.03923735                9.04032374               39.95547048                0.49974154                0.02686227                0.02694936               -0.08970684               -0.00025190                0.14164714               -0.00002204
               8.03979132                9.04185323               39.86040829                0.50466070                0.08395001                0.08411862               -0.28021249               -0.00022048                0.13374598               -0.00071794
               9.04091635                9.04337230               39.76523172                0.51551246                0.14109204                0.14128453               -0.47074065               -0.00018106                0.11601950               -0.00168715
              10.04261316                9.04488206               39.66984925                0.53260650                0.19833981                0.19845370               -0.66128152               -0.00001296                0.08781313               -0.00327768
              11.04488314                9.04638612               39.57416005                0.55647690                0.25543478                0.25567309               -0.85181914                0.00025471                0.04820237               -0.00623358
              12.04772185                9.04788401               39.47805415                0.78785510                0.28387107                0.31419239               -1.04232867                0.00083987                0.02307092               -0.01325285
               2.04312708               10.02987235               40.43044956                0.89549878               -0.22818097               -0.26018643                0.85836560                0.02984404                0.02322588                0.01062461
               3.04084527               10.03207662               40.33423998                0.77545030               -0.19952753               -0.20036473                0.66787757                0.02884698                0.06458537                0.00311625
               4.03913653               10.03422464               40.23878909                0.76021911               -0.14256106               -0.14403891                0.47762310                0.02795092                0.11790919                0.00239029
               5.03799405               10.03636230               40.14359476                0.75372085               -0.08583893               -0.08680682                0.28726672                0.02835580                0.14021395                0.00135423
               6.03741976               10.03848654               40.04855584                0.75033887               -0.02895907               -0.02965252                0.09685190                0.02840697                0.15193253                0.00052948
               7.03741487               10.04059907               39.95357889                0.74991420                0.02800049                0.02753266               -0.09360339                0.02844716                0.15366739               -0.00022725
               8.03797976               10.04270043               39.85857485                0.75240096                0.08498962                0.08471957               -0.28408899                0.02845539                0.14564248               -0.00101387
               9.03911466               10.04479128               39.76345476                0.75785163                0.14198817                0.14189779               -0.47459755                0.02846118                0.12763005               -0.00195141
              10.04081953               10.04687302               39.66812502                0.76642199                0.19899199                0.19909573               -0.66511948                0.02843577                0.09883707               -0.00325046
              11.04309450               10.04894726               39.57248080                0.77837986                0.25601049                0.25611414               -0.85563993                0.02927145                0.05675492               -0.00531277
              12.04593974               10.05103572               39.47637834                0.89400637                0.28452339                0.31517071               -1.04614593                0.03063499                0.02953611               -0.01155295
               2.13338004                0.05814640               41.45882937                0.90053259               -0.23630507               -0.26651474                0.88372704               -0.03031153                0.01906392               -0.00492162
               3.13101699                0.05457547               41.36092706                0.78436212               -0.20821980               -0.20796737                0.69616618               -0.02865406                0.04492594               -0.00482324
               4.12921565                0.05102570               41.26346953                0.76635327               -0.15216757               -0.15213695                0.50871346               -0.02787267                0.08165830               -0.00217350
               5.12797364                0.04746594               41.16624670                0.75650079               -0.09618175               -0.09581624                0.32124694               -0.02805794                0.10222867               -0.00126578
               6.12729201                0.04389611               41.06916263                0.75107653               -0.04009846               -0.03955400                0.13376453               -0.02808294                0.11317393               -0.00055925
               7.12717167                0.04031468               40.97213800                0.74996172                0.01604411                0.01672439               -0.05373266               -0.02810580                0.11551263                0.00003473
               8.12761289                0.03672122               40.87509727                0.75311617                0.07220470                0.07300403               -0.24124664               -0.02810764                0.10950495                0.00058738
               9.12861577                0.03311526               40.77796634                0.76057441                0.12835688                0.12927626               -0.42878021               -0.02811494                0.09518351                0.00114658
              10.13018003                0.02949544               40.68067031                0.77244595                0.18450798                0.18559379               -0.61633384               -0.02805881                0.07237726                0.00176858
              11.13230592                0.02586094               40.58313166                0.78891864                0.24058916                0.24163957               -0.80390348               -0.02879190                0.04045295                0.00248540
              12.13499181                0.02219114               40.48526283                0.90109436                0.26858896                0.30004852               -0.99148749               -0.02885755                0.01979816                0.00419404
               2.13664786                1.05548126               41.45691647                0.79661438               -0.23570581               -0.26545145                0.87995726               -0.00072790                0.01563423               -0.00388507
               3.13429080                1.05249579               41.35899518                0.56066438               -0.20780895               -0.20758048                0.69238833               -0.00015743                0.04277789               -0.00485337
               4.13249168                1.04950433               41.26154448                0.52703707               -0.15164741               -0.15143343                0.50493139                0.00005188                0.07991949               -0.00210084
               5.13125786                1.04650778               41.16431093                0.51050954               -0.09524344               -0.09520465                0.31744511                0.00016501                0.09949158               -0.00105445
               6.13058681                1.04350057               41.06721397                0.50145792               -0.03898998               -0.03895983                0.12994160                0.00011411                0.11024771               -0.00052814
               7.13047806                1.04048192               40.97017515                0.49960228                0.01723546                0.01730172               -0.05757708                0.00007983                0.11247363               -0.00024146
               8.13093152                1.03745126               40.87311963                0.50484870                0.07347252                0.07356911               -0.24511281                0.00005256                0.10641049               -0.00005696
               9.13194751                1.03440803               40.77597378                0.51727388                0.12975411                0.12983722               -0.43266848                0.00002170                0.09208245                0.00012675
              10.13352661                1.03135138               40.67866325                0.53712834                0.18613240                0.18612367               -0.62024446               -0.00015738                0.06930883                0.00041795
              11.13567015                1.02827733               40.58111079                0.56484460                0.24232149                0.24247272               -0.80783601               -0.00023233                0.03786004                0.00098025
              12.13837304                1.02519163               40.48323753                0.79360460                0.27028811                0.30010101               -0.99542758                0.00061750                0.01764662                0.00235841
               2.13933641                2.05283737               41.45494256                0.79207716               -0.23456361               -0.26362825                0.87617742               -0.00078873                0.01276252               -0.00277950
               3.13699077                2.05042386               41.35699894                0.55250301               -0.20658539               -0.20674399                0.68860845               -0.00031562                0.04230903               -0.00362058
               4.13520470                2.04799703               41.25957434                0.52133756               -0.15050352               -0.15024483                0.50117452               -0.00011495                0.08101541               -0.00197125
               5.13398070                2.04556185               41.16235016                0.50800613               -0.09422739               -0.09401957                0.31366987                0.00007490                0.09930865               -0.00095415
               6.13332015                2.04311691               41.06525403                0.50076318               -0.03790636               -0.03778539                0.12613662                0.00011072                0.10942889               -0.00050845
               7.13322257                2.04066071               40.96821219                0.49929023                0.01838436                0.01846240               -0.06141562                0.00007597                0.11135483               -0.00035952
               8.13368784                2.03819260               40.87115184                0.50348214                0.07467548                0.07472241               -0.24898639                0.00001984                0.10516859               -0.00036460
               9.13471608                2.03571201               40.77400088                0.51342441                0.13098685                0.13099939               -0.43657740               -0.00009126                0.09087322               -0.00041524
              10.13630758                2.03321791               40.67668655                0.52939450                0.18724725                0.18732447               -0.62418677               -0.00026989                0.06835384               -0.00039164
              11.13846103                2.03071039               40.57913446                0.55187597                0.24340014                0.24392724               -0.81180297               -0.00037111                0.03742581               -0.00010779
              12.14117558                2.02819316               40.48126813                0.78502845                0.27145503                0.30060484               -0.99939431                0.00032835                0.01752275                0.00056381
               2.14145912                3.05020869               41.45297067                0.79175517               -0.23342818               -0.26222738                0.87238069               -0.00068093                0.01311049                0.00215031
               3.13912484                3.04836091               41.35502822                0.55205157               -0.20538624               -0.20574929                0.68481831               -0.00023047                0.04268880                0.00111073
               4.13735139                3.04649943               41.25760578                0.52109591               -0.14926827               -0.14924892                0.49738384               -0.00021337                0.08161570                0.00057393
               5.13613947                3.04462739               41.16038757                0.50785831               -0.09306144               -0.09290325                0.30987082               -0.00006365                0.09992235                0.00037850
               6.13549017                3.04274486               41.06329423                0.50070056               -0.03677944               -0.03663264                0.12231904               -0.00000109                0.10974464                0.00010466
               7.13540388                3.04085117               40.96625276                0.49931134                0.01952288                0.01962983               -0.06525670               -0.00001124                0.11144930               -0.00029952
               8.13588062                3.03894571               40.86919114                0.50358798                0.07582445                0.07590553               -0.25285288               -0.00006835                0.10511242               -0.00083239
               9.13692037                3.03702801               40.77203788                0.51361683                0.13211003                0.13221699               -0.44046899               -0.00016361                0.09073510               -0.00149118
              10.13852282                3.03509787               40.67472100                0.52967389                0.18835554                0.18861817               -0.62810001               -0.00026750                0.06821689               -0.00225865
              11.14068748                3.03315588               40.57716697                0.55223684                0.24456204                0.24512440               -0.81572917               -0.00023394                0.03734680               -0.00310842
              12.14341407                3.03120372               40.47929959                0.78523375                0.27265816                0.30158185               -1.00332110                0.00045357                0.01746924               -0.00404063
               2.14301834                4.04759283               41.45101473                0.79144242               -0.23229198               -0.26099180                0.86857458               -0.00062202                0.01332203                0.00738332
               3.14069542                4.04630887               41.35306341                0.55161820               -0.20421912               -0.20463479                0.68101308               -0.00012598                0.04331492                0.00461381
               4.13893396                4.04501205               41.25564074                0.52086738               -0.14807110               -0.14818774                0.49357713               -0.00016437                0.08278977                0.00295215
               5.13773400                4.04370378               41.15842499                0.50772061               -0.09188052               -0.09180394                0.30605717               -0.00012179                0.10127592                0.00171584
               6.13709635                4.04238426               41.06133539                0.50064894               -0.03562504               -0.03548947                0.11849317               -0.00009686                0.11111841                0.00072041
               7.13702150                4.04105331               40.96429714                0.49934309                0.02066387                0.02079532               -0.06909892               -0.00010488                0.11271447               -0.00023410
               8.13750963                4.03971071               40.86723745                0.50370398                0.07695777                0.07709059               -0.25671338               -0.00013353                0.10620062               -0.00128974
               9.13856065                4.03835635               40.77008423                0.51381931                0.13323677                0.13343051               -0.44434724               -0.00017007                0.09159647               -0.00256515
              10.14017436                4.03699027               40.67276509                0.52996742                0.18949192                0.18983468               -0.63199294               -0.00018329                0.06881350               -0.00416316
              11.14235049                4.03561288               40.57520616                0.55262750                0.24572996                0.24627571               -0.81963125               -0.00012938                0.03765135               -0.00616869
              12.14508896                4.03422480               40.47733103                0.78546188                0.27384681                0.30266517               -1.00722481                0.00051714                0.01761297               -0.00863711
               2.14401459                5.04498886               41.44906727                0.79113095               -0.23114928               -0.25982638                0.86475958               -0.00058439                0.01367969                0.01179328
               3.14170309                5.04426822               41.35109988                0.55118788               -0.20306950               -0.20349109                0.67719532               -0.00003313                0.04431053                0.00744753
               4.13995320                5.04353568               41.25367425                0.52064484               -0.14691326               -0.14705882                0.48975801               -0.00007849                0.08469629                0.00475554
               5.13876483                5.04279131               41.15646100                0.50759076               -0.09072465               -0.09066819                0.30223393               -0.00012389                0.10359707                0.00276786
               6.13813870                5.04203507               41.05937711                0.50060757               -0.03447495               -0.03434041                0.11466195               -0.00016291                0.11362979                0.00121385
               7.13807533                5.04126707               40.96234553                0.49938611                0.02181043                0.02195438               -0.07294120               -0.00018172                0.11520269               -0.00017577
               8.13857491                5.04048752               40.86529142                0.50382999                0.07810396                0.07825790               -0.26056831               -0.00017506                0.10847283               -0.00165439
               9.13963741                5.03969662               40.76814091                0.51402968                0.13438567                0.13460413               -0.44821461               -0.00014300                0.09348105               -0.00345853
              10.14126263                5.03889456               40.67081996                0.53026557                0.19064820                0.19100513               -0.63587087               -0.00009291                0.07016137               -0.00581342
              11.14345037                5.03808139               40.57325336                0.55301999                0.24689729                0.24743061               -0.82351676               -0.00004107                0.03835074               -0.00891675
              12.14620057                5.03725703               40.47536382                0.78569046                0.27501987                0.30380508               -1.01111410                0.00056505                0.01795683               -0.01290155
               2.14444793                6.04239630               41.44711967                0.79082041               -0.22999883               -0.25871113                0.86093515               -0.00054363                0.01420561                0.01513706
               3.14214794                6.04223905               41.34912922                0.55076059               -0.20193134               -0.20233602                0.67336498                0.00006416                0.04579810                0.00925928
               4.14040930                6.04207087               41.25170013                0.52042828               -0.14579049               -0.14587286                0.48592813                0.00000876                0.08755854                0.00579376
               5.13923213                6.04189042               41.15449168                0.50747124               -0.08959876               -0.08948851                0.29840271               -0.00012698                0.10711010                0.00332971
               6.13861733                6.04169745               41.05741768                0.50057782               -0.03333574               -0.03317800                0.11082685               -0.00022673                0.11747814                0.00147772
               7.13856541                6.04149239               40.96039795                0.49944144                0.02296256                0.02310525               -0.07678267               -0.00025333                0.11907742               -0.00013072
               8.13907658                6.04127587               40.86335463                0.50396746                0.07926711                0.07940046               -0.26441759               -0.00021218                0.11207743               -0.00183236
               9.14015076                6.04104843               40.76621093                0.51424902                0.13555799                0.13573816               -0.45207209               -0.00011527                0.09652587               -0.00396235
              10.14178774                6.04081038               40.66888993                0.53056872                0.19182245                0.19214110               -0.63973622               -0.00000111                0.07237279               -0.00687737
              11.14398721                6.04056149               40.57131384                0.55341462                0.24806291                0.24859229               -0.82738871                0.00005195                0.03950963               -0.01092781
              12.14674899                6.04030090               40.47340356                0.78591955                0.27617889                0.30499824               -1.01499165                0.00061772                0.01853587               -0.01637271
               2.14431821                7.03981463               41.44515960                0.79051012               -0.22884080               -0.25767738                0.85709876               -0.00047742                0.01496637                0.01697328
               3.14202980                7.04022150               41.34713978                0.55033624               -0.20081034               -0.20114424                0.66951979                0.00017733                0.04795651                0.00966155
               4.14030200                7.04061822               41.24970963                0.52022019               -0.14470445               -0.14461879                0.48208661                0.00005333                0.09168531                0.00580863
               5.13913571                7.04100154               41.15251151                0.50736321               -0.08849054               -0.08828266                0.29456367               -0.00018831                0.11212633                0.00327573
               6.13853219                7.04137151               41.05545458                0.50056195               -0.03219361               -0.03201842                0.10698824               -0.00030896                0.12294076                0.00145589
               7.13849184                7.04172918               40.95845446                0.49951118                0.02412203                0.02424752               -0.08062286               -0.00032320                0.12459117               -0.00009312
               8.13901463                7.04207553               40.86142960                0.50411822                0.08043778                0.08052903               -0.26826087               -0.00025708                0.11726865               -0.00174172
               9.14010060                7.04241139               40.76429942                0.51447794                0.13674541                0.13684258               -0.45591929               -0.00011510                0.10099347               -0.00387888
              10.14174954                7.04273738               40.66698277                0.53087849                0.19301468                0.19323422               -0.64358778                0.00007766                0.07568299               -0.00698943
              11.14396089                7.04305324               40.56939743                0.55381132                0.24922847                0.24974904               -0.83124558                0.00016619                0.04127049               -0.01167608
              12.14673411                7.04335699               40.47146089                0.78614917                0.27732209                0.30626959               -1.01885641                0.00069549                0.01942800               -0.01845367
               2.14362465                8.03724275               41.44316957                0.79019886               -0.22767480               -0.25683132                0.85324498               -0.00035670                0.01609541                0.01668550
               3.14134790                8.03821617               41.34511538                0.54991581               -0.19971600               -0.19980641                0.66565474                0.00024218                0.05109463                0.00805227
               4.13963033                8.03917850               41.24769140                0.52002390               -0.14364133               -0.14332308                0.47823021               -0.00007720                0.09756407                0.00463565
               5.13847507                8.04012477               41.15051405                0.50727112               -0.08734111               -0.08712548                0.29071518               -0.00031650                0.11907249                0.00258813
               6.13788351                8.04105708               41.05348499                0.50056379               -0.03100712               -0.03088257                0.10314563               -0.00037304                0.13034758                0.00115033
               7.13785493                8.04197735               40.95651522                0.49959860                0.02528613                0.02538428               -0.08446161               -0.00034726                0.13204442               -0.00005506
               8.13838923                8.04288645               40.85951952                0.50428519                0.08158366                0.08166603               -0.27209709               -0.00028658                0.12438617               -0.00135097
               9.13948660                8.04378528               40.76241334                0.51472113                0.13791057                0.13795965               -0.45975416               -0.00015771                0.10730503               -0.00309564
              10.14114744                8.04467506               40.66511010                0.53119671                0.19421584                0.19428742               -0.64742231                0.00007421                0.08053425               -0.00580451
              11.14337092                8.04555647               40.56751992                0.55420991                0.25039798                0.25084124               -0.83508300                0.00028417                0.04393180               -0.01040103
              12.14615540                8.04642629               40.46955336                0.78637754                0.27844782                0.30769706               -1.02270357                0.00082562                0.02081292               -0.01824000
               2.14236425                9.03467801               41.44112489                0.78988684               -0.22653478               -0.25637160                0.84936560               -0.00041415                0.01769725                0.01231217
               3.14009890                9.03622537               41.34303233                0.54950265               -0.19861938               -0.19821490                0.66176132                0.00000092                0.05585086                0.00413739
               4.13839186                9.03775176               41.24563344                0.51984550               -0.14240496               -0.14227597                0.47435464               -0.00027803                0.10609054                0.00253355
               5.13725080                9.03925903               41.14849345                0.50720012               -0.08598536               -0.08604212                0.28685433               -0.00036170                0.12842365                0.00140644
               6.13667215                9.04075386               41.05150641                0.50058763               -0.02976376               -0.02977117                0.09929723               -0.00028548                0.13999964                0.00062660
               7.13665553                9.04223687               40.95458044                0.49970851                0.02644066                0.02652637               -0.08829905               -0.00024742                0.14171796               -0.00002075
               8.13720097                9.04370885               40.85762756                0.50447392                0.08266534                0.08283160               -0.27592470               -0.00021638                0.13378733               -0.00072347
               9.13830883                9.04517058               40.76056007                0.51498349                0.13894346                0.13913357               -0.46357262               -0.00017760                0.11603543               -0.00169995
              10.13997984                9.04662313               40.66328656                0.53152868                0.19532564                0.19543880               -0.65123324               -0.00001243                0.08781226               -0.00329867
              11.14221535                9.04807006               40.56570634                0.55461354                0.25155759                0.25179346               -0.83889083                0.00025104                0.04820085               -0.00626594
              12.14501099                9.04951093               40.46770971                0.78660538                0.27956419                0.30942726               -1.02652047                0.00082716                0.02306283               -0.01330961
               2.14052164               10.03211532               41.43896876                0.89484002               -0.22474697               -0.25626864                0.84544065                0.02939360                0.02327657                0.01066765
               3.13827417               10.03425187               41.34086866                0.77461772               -0.19652638               -0.19735020                0.65783252                0.02840949                0.06477009                0.00312848
               4.13659111               10.03633298               41.24352958                0.75986917               -0.14042143               -0.14187788                0.47045498                0.02752750                0.11817285                0.00240548
               5.13546574               10.03840392               41.14644603                0.75358260               -0.08455747               -0.08551050                0.28297628                0.02792754                0.14040718                0.00136510
               6.13489996               10.04046166               41.04951732                0.75030831               -0.02853741               -0.02922007                0.09544006                0.02797798                0.15208170                0.00053526
               7.13489499               10.04250787               40.95265018                0.74989728                0.02756132                0.02710077               -0.09213594                0.02801760                0.15378220               -0.00022705
               8.13545119               10.04454308               40.85575565                0.75230628                0.08368913                0.08342332               -0.27974186                0.02802585                0.14572731               -0.00101990
               9.13656877               10.04656795               40.75874484                0.75758484                0.13982612                0.13973730               -0.46737009                0.02803160                0.12768896               -0.00196367
              10.13824771               10.04858384               40.66152424                0.76588001                0.19596834                0.19607085               -0.65501203                0.02800660                0.09887764               -0.00326956
              11.14048814               10.05059234               40.56398918                0.77744382                0.25212476                0.25222793               -0.84265285                0.02882918                0.05678696               -0.00534082
              12.14329020               10.05261484               40.46599602                0.89337886                0.28020640                0.31039044               -1.03027864                0.03017093                0.02955491               -0.01160331
               2.23241106                0.06002890               42.46759886                0.89971425               -0.23267281               -0.26241671                0.87013754               -0.02984402                0.01911305               -0.00492812
               3.23008433                0.05647802               42.36783537                0.78324915               -0.20502078               -0.20477170                0.68547000               -0.02821154                0.04504723               -0.00482094
               4.22831064                0.05294799               42.26851775                0.76581127               -0.14983343               -0.14980347                0.50090912               -0.02744250                0.08184063               -0.00215894
               5.22708766                0.04940812               42.16943467                0.75627516               -0.09471151               -0.09435142                0.31633466               -0.02762542                0.10240614               -0.00125437
               6.22641641                0.04585833               42.07049021                0.75102313               -0.03949330               -0.03895707                0.13174452               -0.02765003                0.11334192               -0.00055205
               7.22629780                0.04229711               41.97160503                0.74994325                0.01578339                0.01645321               -0.05286024               -0.02767251                0.11566654                0.00003739
               8.22673208                0.03872406               41.87270359                0.75299803                0.07107782                0.07186468               -0.23748149               -0.02767434                0.10963806                0.00058542
               9.22771935                0.03513869               41.77371175                0.76021982                0.12636395                0.12726892               -0.42212210               -0.02768157                0.09529002                0.00113971
              10.22925936                0.03153968               41.67455462                0.77171248                0.18164903                0.18271781               -0.60678254               -0.02762628                0.07245473                0.00175634
              11.23135233                0.02792623               41.57515470                0.78765379                0.23686501                0.23789900               -0.79145862               -0.02834772                0.04049980                0.00246854
              12.23399666                0.02427805               41.47542447                0.90024750                0.26443272                0.29540687               -0.97614907               -0.02841200                0.01981818                0.00418717
               2.23566350                1.05740473               42.46564856                0.79510640               -0.23208303               -0.26136962                0.86642667               -0.00071611                0.01566098               -0.00387581
               3.23334267                1.05443030               42.36586601                0.55867473               -0.20461661               -0.20439119                0.68175121               -0.00015468                0.04287866               -0.00483591
               4.23157117                1.05144996               42.26655517                0.52612018               -0.14932133               -0.14911098                0.49718631                0.00005100                0.08007540               -0.00206175
               5.23035624                1.04846461               42.16746118                0.51013005               -0.09378731               -0.09374962                0.31259234                0.00016206                0.09963416               -0.00102197
               6.22969542                1.04546876               42.06850361                0.50136820               -0.03840170               -0.03837234                0.12798133                0.00011168                0.11037991               -0.00050845
               7.22958821                1.04246164               41.96960403                0.49957144                0.01695631                0.01702145               -0.05664461                0.00007789                0.11259136               -0.00023651
               8.23003455                1.03944270               41.87068759                0.50465123                0.07232577                0.07242097               -0.24128724                0.00005105                0.10650704               -0.00006751
               9.23103472                1.03641138               41.77168061                0.51668102                0.12773910                0.12782126               -0.42594960                0.00002072                0.09215186                0.00010045
              10.23258933                1.03336686               41.67250875                0.53589629                0.18324761                0.18323963               -0.61063215               -0.00015549                0.06934923                0.00037669
              11.23469967                1.03030522               41.57309482                0.56270528                0.23856994                0.23871951               -0.79532990               -0.00022870                0.03787722                0.00092870
              12.23736073                1.02723212               41.47336007                0.79216779                0.26610521                0.29545820               -0.98002768                0.00060851                0.01764398                0.00231613
               2.23834559                2.05480150               42.46363715                0.79070073               -0.23095857               -0.25957456                0.86270594               -0.00077638                0.01277898               -0.00276326
               3.23603601                2.05239019               42.36383227                0.55075268               -0.20341199               -0.20356820                0.67803046               -0.00031087                0.04241098               -0.00359309
               4.23427735                2.04996577               42.26454776                0.52059007               -0.14819519               -0.14794100                0.49348839               -0.00011344                0.08116341               -0.00192452
               5.23307210                2.04753313               42.16546296                0.50769928               -0.09278706               -0.09258324                0.30887622                0.00007320                0.09941706               -0.00091256
               6.23242161                2.04509088               42.06650592                0.50069043               -0.03733486               -0.03721640                0.12423582                0.00010813                0.10951930               -0.00048255
               7.23232541                2.04263754               41.96760299                0.49926470                0.01808737                0.01816393               -0.06042318                0.00007374                0.11142805               -0.00035363
               8.23278336                2.04017247               41.86868137                0.50332340                0.07350994                0.07355632               -0.24510036                0.00001852                0.10521966               -0.00038039
               9.23379561                2.03769512               41.76966893                0.51294661                0.12895247                0.12896543               -0.42979757               -0.00009064                0.09089791               -0.00045251
              10.23536241                2.03520448               41.67049294                0.52839617                0.18434494                0.18442186               -0.61451312               -0.00026620                0.06835464               -0.00044755
              11.23748251                2.03270062               41.57107912                0.55012685                0.23963176                0.24015150               -0.79923530               -0.00036560                0.03741992               -0.00017394
              12.24015505                2.03018721               41.47135131                0.78384829                0.26725399                0.29595411               -0.98393279                0.00032311                0.01750924                0.00050605
               2.24047059                3.05221324               42.46162759                0.79038880               -0.22984094               -0.25819576                0.85896883               -0.00067026                0.01312793                0.00217388
               3.23817218                3.05035894               42.36182395                0.55031676               -0.20223155               -0.20258920                0.67429976               -0.00022712                0.04278801                0.00114188
               4.23642596                3.04849114               42.26254158                0.52035635               -0.14697917               -0.14696060                0.48975686               -0.00021042                0.08175331                0.00060793
               5.23523260                3.04661294               42.16346267                0.50755571               -0.09163930               -0.09148428                0.30513652               -0.00006311                0.10001140                0.00040866
               6.23459317                3.04472443               42.06450825                0.50062980               -0.03622554               -0.03608165                0.12047794               -0.00000178                0.10980811                0.00012364
               7.23450809                3.04282492               41.96560545                0.49928470                0.01920813                0.01931314               -0.06420430               -0.00001192                0.11149199               -0.00029627
               8.23497734                3.04091383               41.86668230                0.50342527                0.07464101                0.07472098               -0.24890665               -0.00006811                0.10513213               -0.00084674
               9.23600091                3.03899069               41.76766731                0.51313287                0.13005817                0.13016401               -0.43362860               -0.00016168                0.09073040               -0.00152252
              10.23757850                3.03705530               41.66848856                0.52866700                0.18543603                0.18569525               -0.61836526               -0.00026366                0.06819409               -0.00230371
              11.23970963                3.03510825               41.56907268                0.55047669                0.24077568                0.24132981               -0.80310041               -0.00023041                0.03732752               -0.00316008
              12.24239401                3.03315120               41.46934381                0.78404751                0.26843851                0.29691633               -0.98779891                0.00044646                0.01744844               -0.00408879
               2.24204079                4.04963759               42.45963388                0.79008627               -0.22872256               -0.25697965                0.85522250               -0.00061227                0.01333892                0.00741853
               3.23975357                4.04833841               42.35982138                0.54989703               -0.20108269               -0.20149220                0.67055421               -0.00012417                0.04341227                0.00464744
               4.23801914                4.04702656               42.26053877                0.52013548               -0.14580071               -0.14591598                0.48600969               -0.00016213                0.08292140                0.00298386
               5.23683755                4.04570345               42.16146225                0.50742247               -0.09047686               -0.09040207                0.30138243               -0.00012030                0.10135359                0.00174174
               6.23620960                4.04436925               42.06251144                0.50057938               -0.03508917               -0.03495629                0.11671186               -0.00009584                0.11116588                0.00073597
               7.23613577                4.04302380               41.96361171                0.49931582                0.02033132                0.02046043               -0.06798653               -0.00010377                0.11273804               -0.00023232
               8.23661623                4.04166689               41.86469030                0.50353784                0.07575664                0.07588753               -0.25270686               -0.00013197                0.10620046               -0.00130345
               9.23765090                4.04029840               41.76567519                0.51332873                0.13116739                0.13135854               -0.43744633               -0.00016781                0.09157349               -0.00259390
              10.23923958                4.03891838               41.66649402                0.52895070                0.18655483                0.18689273               -0.62219771               -0.00018053                0.06877669               -0.00420445
              11.24138200                4.03752722               41.56707315                0.55085446                0.24192549                0.24246313               -0.80694196               -0.00012723                0.03762475               -0.00621791
              12.24407809                4.03612554               41.46733652                0.78426822                0.26960868                0.29798282               -0.99164187                0.00050913                0.01758868               -0.00868859
               2.24305670                5.04707365               42.45764858                0.78978491               -0.22759771               -0.25583246                0.85146705               -0.00057526                0.01369619                0.01183968
               3.24078073                5.04632909               42.35781997                0.54948059               -0.19995107               -0.20036638                0.66679616               -0.00003271                0.04440820                0.00748467
               4.23905768                5.04557282               42.25853439                0.51991997               -0.14466101               -0.14480475                0.48225047               -0.00007753                0.08482779                0.00478747
               5.23788751                5.04480490               42.15946033                0.50729762               -0.08933906               -0.08928406                0.29761899               -0.00012226                0.10367126                0.00279266
               6.23727090                5.04402530               42.06051514                0.50053967               -0.03395705               -0.03382514                0.11294042               -0.00016063                0.11367012                0.00122814
               7.23720836                5.04323413               41.96162197                0.49935760                0.02145997                0.02160141               -0.07176879               -0.00017913                0.11521676               -0.00017456
               8.23770010                5.04243158               41.86270603                0.50366007                0.07688496                0.07703661               -0.25650164               -0.00017252                0.10846234               -0.00166774
               9.23874606                5.04161786               41.76369349                0.51353291                0.13229846                0.13251384               -0.44125355               -0.00014084                0.09344879               -0.00348642
              10.24034607                5.04079315               41.66451041                0.52923983                0.18769319                0.18804488               -0.62601537               -0.00009142                0.07011782               -0.00585460
              11.24249993                5.03995752               41.56508180                0.55123468                0.24307453                0.24359986               -0.81076648               -0.00004037                0.03832067               -0.00896904
              12.24520756                5.03911085               41.46533071                0.78448938                0.27076319                0.29910467               -0.99546955                0.00055617                0.01793081               -0.01296245
               2.24351839                6.04452094               42.45566303                0.78948429               -0.22646529               -0.25473460                0.84770241               -0.00053519                0.01422316                0.01519276
               3.24125374                6.04433108               42.35581131                0.54906705               -0.19883075               -0.19922934                0.66302574                0.00006302                0.04589991                0.00929868
               4.23954178                6.04413047               42.25652227                0.51971112               -0.14355582               -0.14363732                0.47848052                0.00000841                0.08769641                0.00582637
               5.23838262                6.04391776               42.15745299                0.50718185               -0.08823077               -0.08812284                0.29384773               -0.00012514                0.10718844                0.00335407
               6.23777716                6.04369274               42.05851767                0.50051140               -0.03283567               -0.03268090                0.10916524               -0.00022321                0.11751997                0.00149157
               7.23772591                6.04345583               41.95963628                0.49941159                0.02259411                0.02273432               -0.07555031               -0.00024928                0.11909099               -0.00012953
               8.23822904                6.04320763               41.86073104                0.50379377                0.07803001                0.07816138               -0.26029096               -0.00020872                0.11206553               -0.00184515
               9.23928651                6.04294868               41.76172523                0.51374557                0.13345249                0.13363020               -0.44505081               -0.00011338                0.09649207               -0.00398964
              10.24089809                6.04267928               41.66254203                0.52953389                0.18884904                0.18916306               -0.62981998               -0.00000121                0.07232823               -0.00691925
              11.24306349                6.04239922               41.56310386                0.55161631                0.24422189                0.24474336               -0.81457769                0.00005094                0.03947965               -0.01098411
              12.24578253                6.04210763               41.46333199                0.78471110                0.27190410                0.30027918               -0.99928657                0.00060803                0.01851053               -0.01644405
               2.24342571                7.04197895               42.45366489                0.78918390               -0.22532538               -0.25371697                0.84392591               -0.00047006                0.01498644                0.01703456
               3.24117246                7.04234451               42.35378371                0.54865690               -0.19772730               -0.19805609                0.65924054                0.00017445                0.04806699                0.00969968
               4.23947117                7.04270007               42.25449365                0.51951045               -0.14248677               -0.14240281                0.47469888                0.00005230                0.09183731                0.00583974
               5.23832272                7.04304245               42.15543473                0.50707860               -0.08713988               -0.08693587                0.29006860               -0.00018541                0.11221701                0.00329887
               6.23772837                7.04337168               42.05651648                0.50049731               -0.03171138               -0.03153947                0.10538661               -0.00030387                0.12299288                0.00146915
               7.23768850                7.04368882               41.95765469                0.49948048                0.02373546                0.02385876               -0.07933055               -0.00031768                0.12461326               -0.00009169
               8.23820308                7.04399481               41.85876788                0.50394085                0.07918234                0.07927236               -0.26407420               -0.00025257                0.11726402               -0.00175340
               9.23927214                7.04429047               41.75977555                0.51396845                0.13462125                0.13471743               -0.44883784               -0.00011305                0.10096610               -0.00390476
              10.24089550                7.04457642               41.66059666                0.52983385                0.19002255                0.19023929               -0.63361156                0.00007635                0.07564410               -0.00703001
              11.24307259                7.04485238               41.56114918                0.55200033                0.24536936                0.24588228               -0.81837494                0.00016344                0.04124432               -0.01173343
              12.24580289                7.04511644               41.46135097                0.78493291                0.27302968                0.30153091               -1.00309186                0.00068467                0.01940507               -0.01853272
               2.24277789                8.03944660               42.45163662                0.78888264               -0.22417762               -0.25288421                0.84013231               -0.00035120                0.01611977                0.01674557
               3.24053611                8.04036996               42.35172096                0.54825032               -0.19665015               -0.19673889                0.65543582                0.00023820                0.05121913                0.00808233
               4.23884488                8.04128241               42.25243716                0.51932127               -0.14144037               -0.14112743                0.47090282               -0.00007634                0.09773950                0.00466139
               5.23770730                8.04217905               42.15339908                0.50699053               -0.08600842               -0.08579690                0.28628032               -0.00031154                0.11918521                0.00260770
               6.23712471                8.04306195               42.05450876                0.50050062               -0.03054344               -0.03042138                0.10160399               -0.00036674                0.13041963                0.00116178
               7.23709643                8.04393301               41.95567736                0.49956663                0.02488136                0.02497777               -0.08310934               -0.00034113                0.13208467               -0.00005344
               8.23762234                8.04479307               41.85681974                0.50410472                0.08031032                0.08039160               -0.26785048               -0.00028139                0.12439825               -0.00136037
               9.23870264                8.04564303               41.75785142                0.51420540                0.13576812                0.13581710               -0.45261273               -0.00015471                0.10729330               -0.00311694
              10.24033770                8.04648407               41.65868594                0.53014292                0.19120482                0.19127628               -0.63738631                0.00007323                0.08050892               -0.00583880
              11.24252674                8.04731686               41.55923359                0.55238659                0.24652056                0.24695768               -0.82215261                0.00027963                0.04391376               -0.01045227
              12.24526812                8.04813825               41.45940526                0.78515404                0.27413787                0.30293617               -1.00687914                0.00081270                0.02079430               -0.01831759
               2.24157197                9.03692127               42.44955345                0.78858039               -0.22305546               -0.25243195                0.83631343               -0.00040783                0.01772745                0.01235669
               3.23934141                9.03840973               42.34959928                0.54785129               -0.19557073               -0.19517168                0.65160313                0.00000017                0.05599688                0.00415129
               4.23766055                9.03987752               42.25034075                0.51915046               -0.14022330               -0.14009701                0.46708779               -0.00027419                0.10630162                0.00254927
               5.23653695                9.04132651               42.15134018                0.50692400               -0.08467390               -0.08473044                0.28247976               -0.00035596                0.12856928                0.00141857
               6.23596708                9.04276326               42.05249200                0.50052635               -0.02931966               -0.02932728                0.09781571               -0.00028052                0.14010271                0.00063380
               7.23595055                9.04418837               41.95370450                0.49967595                0.02601778                0.02610205               -0.08688685               -0.00024294                0.14178777               -0.00001950
               8.23648743                9.04560264               41.85488980                0.50428943                0.08137513                0.08153894               -0.27161825               -0.00021245                0.13382806               -0.00072889
               9.23757806                9.04700681               41.75596027                0.51446085                0.13678499                0.13697266               -0.45637156               -0.00017433                0.11605116               -0.00171226
              10.23922313                9.04840194               41.65682459                0.53046559                0.19229726                0.19240965               -0.64113755               -0.00001187                0.08781114               -0.00331931
              11.24142400                9.04979154               41.55738223                0.55277703                0.24766198                0.24789531               -0.82590093                0.00024721                0.04819882               -0.00629788
              12.24417637                9.05117516               41.45752374                0.78537435                0.27523683                0.30463939               -1.01063684                0.00081421                0.02305428               -0.01336496
               2.23979281               10.03439796               42.44735837                0.89419014               -0.22129526               -0.25233079                0.83244937                0.02894087                0.02332726                0.01070930
               3.23757986               10.03646653               42.34739663                0.77379652               -0.19350964               -0.19432009                0.64773534                0.02796992                0.06495282                0.00314018
               4.23592262               10.03848047               42.24819819                0.75952410               -0.13827045               -0.13970537                0.46324882                0.02710203                0.11843296                0.00242069
               5.23481445               10.04048444               42.14925428                0.75344608               -0.08326889               -0.08420702                0.27866209                0.02749718                0.14059752                0.00137586
               6.23425724               10.04247541               42.05046464                0.75027840               -0.02811286               -0.02878472                0.09401873                0.02754691                0.15222880                0.00054101
               7.23425219               10.04445505               41.95173617                0.74988064                0.02712073                0.02666751               -0.09066381                0.02758596                0.15389544               -0.00022690
               8.23479966               10.04642385               41.85298001                0.75221267                0.08238292                0.08212141               -0.27537569                0.02759398                0.14581115               -0.00102569
               9.23589985               10.04838248               41.75410736                0.75732163                0.13765417                0.13756695               -0.46010990                0.02759965                0.12774709               -0.00197533
              10.23755274               10.05033226               41.65502478                0.76534524                0.19293045                0.19303172               -0.64485739                0.02757527                0.09891746               -0.00328838
              11.23975846               10.05227477               41.55562774                0.77652129                0.24822057                0.24832318               -0.82960419                0.02838472                0.05681876               -0.00536828
              12.24251715               10.05423104               41.45577277                0.89276098                0.27586900                0.30558759               -1.01433656                0.02970481                0.02957395               -0.01165195
               2.33328927                0.06194843               43.47623212                0.89890644               -0.22902228               -0.25829810                0.85647982               -0.02937427                0.01916133               -0.00493479
               3.33099905                0.05841778               43.37463646                0.78215045               -0.20180562               -0.20155989                0.67471983               -0.02776700                0.04516658               -0.00481907
               4.32925316                0.05490766               43.27348771                0.76527599               -0.14748735               -0.14745795                0.49306485               -0.02701027                0.08202015               -0.00214465
               5.32804930                0.05138784               43.17257339                0.75605224               -0.09323342               -0.09287880                0.31139633               -0.02719069                0.10258109               -0.00124297
               6.32738849                0.04785825               43.07179752                0.75097038               -0.03888447               -0.03835657                0.12971247               -0.02721499                0.11350753               -0.00054496
               7.32727161                0.04431742               42.97108080                0.74992536                0.01552211                0.01618137               -0.05198580               -0.02723715                0.11581818                0.00004005
               8.32769893                0.04076493               42.87034764                0.75288119                0.06994614                0.07072054               -0.23370038               -0.02723894                0.10976926                0.00058349
               9.32867054                0.03720033               42.76952390                0.75986990                0.12436200                0.12525253               -0.41543391               -0.02724602                0.09539485                0.00113295
              10.33018617                0.03362231               42.66853466                0.77098850                0.17877686                0.17982853               -0.59718718               -0.02719160                0.07253089                0.00174469
              11.33224607                0.03003008               42.56730248                0.78640585                0.23312353                0.23414106               -0.77895598               -0.02790144                0.04054596                0.00245221
              12.33484865                0.02640367               42.46573985                0.89941215                0.26025710                0.29074342               -0.96073859               -0.02796439                0.01983786                0.00418066
               2.33652619                1.05936545               43.47424501                0.79361804               -0.22844205               -0.25726734                0.85282829               -0.00070432                0.01568715               -0.00386699
               3.33424177                1.05640218               43.37263020                0.55671160               -0.20140813               -0.20118577                0.67106026               -0.00015200                0.04297786               -0.00481889
               4.33249802                1.05343308               43.27148821                0.52521605               -0.14698327               -0.14677652                0.48940126                0.00005012                0.08022912               -0.00202310
               5.33130210                1.05045906               43.17056277                0.50975538               -0.09232341               -0.09228680                0.30771370                0.00015917                0.09977478               -0.00098986
               6.33065156                1.04747468               43.06977360                0.50127979               -0.03780989               -0.03778130                0.12600928                0.00010930                0.11051021               -0.00048902
               7.33054590                1.04447923               42.96904226                0.49954079                0.01667650                0.01674050               -0.05570987                0.00007596                0.11270734               -0.00023162
               8.33098509                1.04147213               42.86829389                0.50445638                0.07117417                0.07126798               -0.23744550                0.00004955                0.10660223               -0.00007790
               9.33196939                1.03845286               42.76745479                0.51609528                0.12571499                0.12579620               -0.41920051                0.00001980                0.09222034                0.00007454
              10.33349939                1.03542059               42.66645060                0.53468058                0.18034948                0.18034224               -0.60097539               -0.00015345                0.06938895                0.00033613
              11.33557638                1.03237149               42.56520420                0.56059568                0.23480089                0.23494877               -0.78276543               -0.00022504                0.03789408                0.00087803
              12.33819540                1.02931111               42.46363698                0.79075124                0.26190275                0.29079363               -0.96455545                0.00059932                0.01764144                0.00227485
               2.33920174                2.05680309               43.47219668                0.78934317               -0.22733543               -0.25550057                0.84916690               -0.00076396                0.01279547               -0.00274689
               3.33692838                2.05439406               43.37055955                0.54902728               -0.20022254               -0.20037632                0.66739895               -0.00030604                0.04251175               -0.00356576
               4.33519728                2.05197213               43.26944411                0.51985329               -0.14587496               -0.14562526                0.48576258               -0.00011185                0.08130939               -0.00187836
               5.33401088                2.04954211               43.16852769                0.50739660               -0.09133904               -0.09113920                0.30405694                0.00007152                0.09952385               -0.00087147
               6.33337050                2.04710262               43.06773874                0.50061862               -0.03675991               -0.03664394                0.12232352                0.00010556                0.10960836               -0.00045700
               7.33327568                2.04465223               42.96700373                0.49923966                0.01778961                0.01786471               -0.05942822                0.00007159                0.11150018               -0.00034785
               8.33372630                2.04219029               42.86624984                0.50316654                0.07233946                0.07238526               -0.24119785                0.00001728                0.10527004               -0.00039594
               9.33472247                2.03971626               42.76540493                0.51247536                0.12690896                0.12692228               -0.42298725               -0.00008999                0.09092223               -0.00048929
              10.33626448                2.03722915               42.66439629                0.52741194                0.18142923                0.18150579               -0.60479466               -0.00026241                0.06835534               -0.00050280
              11.33835106                2.03472905               42.56314975                0.54840362                0.23584572                0.23635804               -0.78660873               -0.00035988                0.03741439               -0.00023912
              12.34098139                2.03221955               42.46158947                0.78268669                0.26303322                0.29128146               -0.96839856                0.00031792                0.01749659                0.00044910
               2.34132896                3.05425544               43.47015005                0.78904184               -0.22623561               -0.25414389                0.84548953               -0.00065960                0.01314474                0.00219794
               3.33906660                3.05239465               43.36851422                0.54860618               -0.19906087               -0.19941307                0.66372782               -0.00022370                0.04288548                0.00117291
               4.33734774                3.05052058               43.26740092                0.51962743               -0.14467828               -0.14466052                0.48209066               -0.00020735                0.08188888                0.00064127
               5.33617304                3.04863627               43.16649030                0.50725755               -0.09020958               -0.09005772                0.30037700               -0.00006253                0.10009921                0.00043851
               6.33554355                3.04674181               43.06570379                0.50055973               -0.03566824               -0.03552726                0.11862555               -0.00000245                0.10987056                0.00014240
               7.33545967                3.04483652               42.96496867                0.49925849                0.01889257                0.01899561               -0.06314911               -0.00001255                0.11153399               -0.00029309
               8.33592140                3.04291984               42.86421301                0.50326465                0.07345254                0.07353137               -0.24494357               -0.00006781                0.10515154               -0.00086085
               9.33692872                3.04099130               42.76336531                0.51265525                0.12799709                0.12810173               -0.42675728               -0.00015971                0.09072564               -0.00155353
              10.33848134                3.03905071               42.66235369                0.52767379                0.18250311                0.18275879               -0.60858564               -0.00025979                0.06817157               -0.00234828
              11.34057878                3.03709865               42.56110497                0.54874305                0.23697158                0.23751733               -0.79041245               -0.00022683                0.03730856               -0.00321137
              12.34322077                3.03513674               42.45954362                0.78287995                0.26419893                0.29222852               -0.97220294                0.00043935                0.01742795               -0.00413713
               2.34291012                4.05172021               43.46811918                0.78874904               -0.22513506               -0.25294729                0.84180315               -0.00060253                0.01335475                0.00745307
               3.34065877                4.05040580               43.36647449                0.54820033               -0.19793029               -0.19833361                0.66004201               -0.00012236                0.04350751                0.00468068
               4.33895152                4.04907892               43.26536093                0.51941397               -0.14351859               -0.14363249                0.47840311               -0.00015984                0.08305104                0.00301535
               5.33778840                4.04774095               43.16445263                0.50712845               -0.08906570               -0.08899272                0.29668287               -0.00011872                0.10143037                0.00176721
               6.33717020                4.04639208               43.06366963                0.50051111               -0.03455003               -0.03441980                0.11491954               -0.00009474                0.11121250                0.00075130
               7.33709740                4.04503214               42.96293741                0.49928835                0.01999785                0.02012464               -0.06687111               -0.00010262                0.11276118               -0.00023054
               8.33757016                4.04366092               42.86218331                0.50337366                0.07455044                0.07467933               -0.24868329               -0.00013036                0.10620023               -0.00131688
               9.33858841                4.04227829               42.76133531                0.51284498                0.12908874                0.12927718               -0.43051435               -0.00016554                0.09155061               -0.00262230
              10.34015193                4.04088433               42.66032113                0.52794873                0.18360418                0.18393712               -0.61235716               -0.00017797                0.06874006               -0.00424541
              11.34226049                4.03947940               42.55906732                0.54910812                0.23810320                0.23863262               -0.79419302               -0.00012544                0.03759808               -0.00626681
              12.34491400                4.03806412               42.45749819                0.78309304                0.26535062                0.29327824               -0.97598521                0.00050097                0.01756415               -0.00873954
               2.34394573                5.04919649               43.46609662                0.78845732               -0.22402814               -0.25181843                0.83810757               -0.00056608                0.01371255                0.01188498
               3.34170544                5.04842798               43.36443580                0.54779785               -0.19681675               -0.19722577                0.65634403               -0.00003227                0.04450453                0.00752139
               4.34000939                5.04764793               43.26331926                0.51920607               -0.14239711               -0.14253895                0.47470396               -0.00007656                0.08495719                0.00481941
               5.33885750                5.04685642               43.16241338                0.50700815               -0.08794605               -0.08789246                0.29297923               -0.00012059                0.10374418                0.00281703
               6.33825047                5.04605341               43.06163591                0.50047286               -0.03343594               -0.03330665                0.11120817               -0.00015825                0.11370983                0.00124218
               7.33818878                5.04523902               42.96091015                0.49932937                0.02110851                0.02124745               -0.07059310               -0.00017642                0.11523066               -0.00017339
               8.33867264                5.04441343               42.86016139                0.50349258                0.07566079                0.07581010               -0.25241757               -0.00016994                0.10845192               -0.00168098
               9.33970200                5.04357685               42.75931584                0.51304287                0.13020177                0.13041406               -0.43426083               -0.00013880                0.09341654               -0.00351404
              10.34127668                5.04272945               42.65829965                0.52822808                0.18472442                0.18507095               -0.61611415               -0.00009015                0.07007455               -0.00589516
              11.34339649                5.04187130               42.55703803                0.54947533                0.23923409                0.23975136               -0.79795722               -0.00003987                0.03829117               -0.00902030
              12.34606136                5.04100230               42.45545442                0.78330712                0.26648698                0.29438241               -0.97975266                0.00054726                0.01790560               -0.01302225
               2.34443583                6.04668384               43.46407372                0.78816686               -0.22291375               -0.25073804                0.83440281               -0.00052670                0.01424070                0.01524784
               3.34220670                6.04646128               43.36238974                0.54739809               -0.19571431               -0.19610684                0.65263371                0.00006196                0.04600045                0.00933769
               4.34052155                6.04622814               43.26126974                0.51900418               -0.14130960               -0.14139016                0.47099424                0.00000807                0.08783208                0.00585850
               5.33938050                6.04598310               43.16036863                0.50689680               -0.08685544               -0.08674976                0.28926808               -0.00012332                0.10726531                0.00337809
               6.33878444                6.04572595               43.05960098                0.50044619               -0.03233240               -0.03218064                0.10749310               -0.00021963                0.11756110                0.00150525
               7.33873386                6.04545709               42.95888694                0.49938263                0.02222458                0.02236231               -0.07431435               -0.00024516                0.11910428               -0.00012839
               8.33922893                6.04517712               42.85814881                0.50362244                0.07678754                0.07691697               -0.25614652               -0.00020527                0.11205361               -0.00185797
               9.34026961                6.04488657               42.75730991                0.51324874                0.13133739                0.13151273               -0.43799781               -0.00011151                0.09645869               -0.00401669
              10.34185568                6.04458575               42.65629353                0.52851322                0.18586185                0.18617139               -0.61985829               -0.00000116                0.07228449               -0.00696041
              11.34398684                6.04427443               42.55502229                0.54984495                0.24036313                0.24087665               -0.80170754                0.00005007                0.03944998               -0.01103970
              12.34666294                6.04395177               42.45341783                0.78352128                0.26760965                0.29553821               -0.98350880                0.00059826                0.01848524               -0.01651496
               2.34438030                7.04418173               43.46203812                0.78787618               -0.22179205               -0.24973657                0.83068647               -0.00046265                0.01500625                0.01709512
               3.34216238                7.04450584               43.36032459                0.54700152               -0.19462854               -0.19495218                0.64890880                0.00017157                0.04817576                0.00973724
               4.34048773                7.04482012               43.25920361                0.51881084               -0.14025767               -0.14017535                0.46727295                0.00005127                0.09198684                0.00587037
               5.33935723                7.04512142               43.15831288                0.50679763               -0.08578193               -0.08558180                0.28554927               -0.00018248                0.11230629                0.00332176
               6.33877209                7.04540980               43.05756231                0.50043342               -0.03122602               -0.03105745                0.10377471               -0.00029878                0.12304421                0.00148223
               7.33873271                7.04568626               42.95686785                0.49945025                0.02334773                0.02346884               -0.07803437               -0.00031219                0.12463485               -0.00009029
               8.33923905                7.04595177               42.85614811                0.50376587                0.07792150                0.07801030               -0.25986955               -0.00024809                0.11725929               -0.00176495
               9.34029114                7.04620710               42.75532266                0.51346545                0.13248750                0.13258274               -0.44172466               -0.00011094                0.10093910               -0.00392991
              10.34188880                7.04645288               42.65431054                0.52880415                0.18701659                0.18723054               -0.62358938                0.00007518                0.07560555               -0.00707004
              11.34403147                7.04668883               42.55302993                0.55021634                0.24149226                0.24199747               -0.80544424                0.00016084                0.04121803               -0.01179032
              12.34671864                7.04691307               42.45139905                0.78373566                0.26871729                0.29677003               -0.98725375                0.00067381                0.01938184               -0.01861046
               2.34377837                8.04168911               43.45997221                0.78758476               -0.22066262               -0.24891712                0.82695330               -0.00034569                0.01614366                0.01680485
               3.34157174                8.04256224               43.35822409                0.54660864               -0.19356863               -0.19365570                0.64516466                0.00023414                0.05134184                0.00811188
               4.33990699                8.04342463               43.25710946                0.51862949               -0.13922798               -0.13892033                0.46353729               -0.00007548                0.09791235                0.00468692
               5.33878718                8.04427147               43.15623965                0.50671423               -0.08466852               -0.08446107                0.28182131               -0.00030646                0.11929610                0.00262725
               6.33821362                8.04510480               43.05551707                0.50043841               -0.03007675               -0.02995719                0.10005237               -0.00036041                0.13049055                0.00117309
               7.33818564                8.04592646               42.95485304                0.49953566                0.02447533                0.02457004               -0.08175297               -0.00033503                0.13212432               -0.00005186
               8.33870313                8.04673732               42.85416251                0.50392570                0.07903147                0.07911175               -0.26358571               -0.00027624                0.12441043               -0.00136953
               9.33976627                8.04753823               42.75336109                0.51369591                0.13361603                0.13366488               -0.44543912               -0.00015179                0.10728176               -0.00313771
              10.34137545                8.04833036               42.65236237                0.52910355                0.18817998                0.18825115               -0.62730391                0.00007232                0.08048345               -0.00587255
              11.34352987                8.04911438               42.55107687                0.55059004                0.24262509                0.24305592               -0.80916191                0.00027539                0.04389611               -0.01050258
              12.34622795                8.04988717               42.44941578                0.78394941                0.26980778                0.29815286               -0.99098050                0.00079993                0.02077665               -0.01839386
               2.34262712                9.03920339               43.45785116                0.78729216               -0.21955848               -0.24847240                0.82319535               -0.00040148                0.01775694                0.01240085
               3.34043154                9.04063273               43.35606439                0.54622346               -0.19250648               -0.19211295                0.64139305               -0.00000068                0.05614082                0.00416509
               4.33877700                9.04204172               43.25497519                0.51846575               -0.13803023               -0.13790663                0.45978299               -0.00027037                0.10650976                0.00256472
               5.33767094                9.04343220               43.15414305                0.50665185               -0.08335529               -0.08341157                0.27808134               -0.00035019                0.12871263                0.00143059
               6.33710989                9.04481065               43.05346272                0.50046596               -0.02887268               -0.02888044                0.09632446               -0.00027559                0.14020409                0.00064095
               7.33709348                9.04617766               42.95284270                0.49964370                0.02559350                0.02567646               -0.08547029               -0.00023852                0.14185663               -0.00001822
               8.33762176                9.04753400               42.85219519                0.50410721                0.08007931                0.08024079               -0.26729341               -0.00020853                0.13386839               -0.00073415
               9.33869507                9.04888040               42.75143264                0.51394524                0.13461686                0.13480204               -0.44913822               -0.00017104                0.11606669               -0.00172492
              10.34031410                9.05021790               42.65046381                0.52941683                0.18925511                0.18936658               -0.63099573               -0.00001121                0.08780990               -0.00333976
              11.34248017                9.05154995               42.54918833                0.55096854                0.24374823                0.24397890               -0.81285041                0.00024364                0.04819657               -0.00632949
              12.34518906                9.05287612               42.44749698                0.78416235                0.27088908                0.29982878               -0.99467790                0.00080141                0.02304541               -0.01342085
               2.34091166               10.03671966               43.45561775                0.89354929               -0.21782623               -0.24837314                0.81939305                0.02848600                0.02337668                0.01075084
               3.33873340               10.03871998               43.35382337                0.77298732               -0.19047757               -0.19127462                0.63758681                0.02752816                0.06513269                0.00315191
               4.33710211               10.04066650               43.25279455                0.75918417               -0.13610818               -0.13752149                0.45600503                0.02667445                0.11868935                0.00243545
               5.33601124               10.04260324               43.15201928                0.75331155               -0.08197323               -0.08289643                0.27432447                0.02706464                0.14078513                0.00138637
               6.33546265               10.04452719               43.05139770                0.75024844               -0.02768551               -0.02834647                0.09258793                0.02711365                0.15237370                0.00054670
               7.33545753               10.04643999               42.95083691                0.74986441                0.02667872                0.02623293               -0.08918706                0.02715210                0.15400711               -0.00022665
               8.33599622               10.04834214               42.85024813                0.75212042                0.08107115                0.08081394               -0.27099092                0.02716005                0.14589360               -0.00103137
               9.33707895               10.05023427               42.74954264                0.75706175                0.13547252                0.13538687               -0.45281711                0.02716576                0.12780433               -0.00198770
              10.33870567               10.05211769               42.64862709                0.76481803                0.18987872                0.18997874               -0.63465639                0.02714187                0.09895675               -0.00330722
              11.34087652               10.05399395               42.54739710                0.77561292                0.24429821                0.24440012               -0.81649461                0.02793805                0.05684911               -0.00539590
              12.34359164               10.05588374               42.44570929                0.89215256                0.27151118                0.30076179               -0.99831867                0.02923637                0.02959074               -0.01170200
               2.43598560                0.06390442               44.48472846                0.89810905               -0.22535366               -0.25415924                0.84275483               -0.02890219                0.01920921               -0.00494081
               3.43373207                0.06039415               44.38132977                0.78106650               -0.19857446               -0.19833219                0.66391616               -0.02732031                0.04528453               -0.00481703
               4.43201411                0.05690411               44.27837904                0.76474802               -0.14512944               -0.14510069                0.48518111               -0.02657604                0.08219719               -0.00213078
               5.43082948                0.05340450               44.17566260                0.75583233               -0.09174765               -0.09139854                0.30643237               -0.02675399                0.10275332               -0.00123183
               6.43017916                0.04989528               44.07308445                0.75091842               -0.03827207               -0.03775253                0.12766851               -0.02677790                0.11367062               -0.00053797
               7.43006404                0.04637499               43.97056531                0.74990747                0.01526025                0.01590892               -0.05110943               -0.02679970                0.11596753                0.00004262
               8.43048437                0.04284324               43.86802959                0.75276606                0.06880975                0.06957155               -0.22990339               -0.02680146                0.10989851                0.00058162
               9.43144023                0.03929957               43.76540307                0.75952419                0.12235121                0.12322721               -0.40871614               -0.02680844                0.09549824                0.00112618
              10.43293139                0.03574270               43.66261088                0.77027415                0.17589167                0.17692614               -0.58754815               -0.02675488                0.07260581                0.00173301
              11.43495806                0.03217185               43.55957558                0.78517500                0.22936479                0.23036579               -0.76639562               -0.02745301                0.04059127                0.00243630
              12.43751869                0.02856740               43.45620970                0.89858859                0.25606211                0.28605836               -0.94525670               -0.02751454                0.01985730                0.00417404
               2.43920685                1.06136283               44.48270513                0.79215026               -0.22478305               -0.25314489                0.83916290               -0.00069245                0.01571289               -0.00385775
               3.43695902                1.05841083               44.37928722                0.55477561               -0.19818373               -0.19796447                0.66031629               -0.00014930                0.04307562               -0.00480185
               4.43524318                1.05545310               44.27634320                0.52432449               -0.14463347               -0.14443032                0.48157719                0.00004919                0.08038058               -0.00198500
               5.43406635                1.05249052               44.17361545                0.50938586               -0.09085191               -0.09081636                0.30280969                0.00015624                0.09991327               -0.00095820
               6.43342614                1.04951775               44.07102380                0.50119211               -0.03721458               -0.03718676                0.12402558                0.00010690                0.11063853               -0.00046986
               7.43332206                1.04653408               43.96848984                0.49951065                0.01639604                0.01645890               -0.05477292                0.00007402                0.11282160               -0.00022682
               8.43375406                1.04353895               43.86593868                0.50426388                0.07001777                0.07011016               -0.23358767                0.00004808                0.10669597               -0.00008812
               9.43472242                1.04053184               43.76329660                0.51551761                0.12368194                0.12376218               -0.41242156                0.00001887                0.09228782                0.00004891
              10.43622770                1.03751196               43.66048924                0.53348103                0.17743826                0.17743172               -0.59127498               -0.00015149                0.06942810                0.00029607
              11.43827118                1.03447551               43.55743951                0.55851639                0.23101458                0.23116074               -0.77014343               -0.00022140                0.03791056                0.00082809
              12.44084799                1.03142799               43.45406896                0.78935569                0.25768095                0.28610752               -0.94901172                0.00059020                0.01763866                0.00223362
               2.44187575                2.05884152               44.48062049                0.78800488               -0.22369435               -0.25140656                0.83556118               -0.00075147                0.01281150               -0.00273089
               3.43963881                2.05643486               44.37718025                0.54732729               -0.19701727               -0.19716859                0.65671468               -0.00030113                0.04261085               -0.00353883
               4.43793541                2.05401550               44.27426301                0.51912790               -0.14354309               -0.14329779                0.47799784               -0.00011026                0.08145308               -0.00183261
               5.43676795                2.05158818               44.17154410                0.50709822               -0.08988350               -0.08968759                0.29921252                0.00006983                0.09962890               -0.00083089
               6.43613774                2.04915154               44.06895239                0.50054780               -0.03618156               -0.03606806                0.12039985                0.00010304                0.10969601               -0.00043182
               7.43604432                2.04670417               43.96641443                0.49921466                0.01749115                0.01756476               -0.05843083                0.00006946                0.11157124               -0.00034214
               8.43648756                2.04424544               43.86385741                0.50301203                0.07116412                0.07120931               -0.23727906                0.00001606                0.10531959               -0.00041129
               9.43746760                2.04177481               43.76120918                0.51201034                0.12485638                0.12487006               -0.41614669               -0.00008932                0.09094616               -0.00052552
              10.43898469                2.03929133               43.65839704                0.52644168                0.17850033                0.17857655               -0.59503227               -0.00025860                0.06835602               -0.00055730
              11.44103761                2.03679507               43.55534695                0.54670701                0.23204244                0.23254727               -0.77392456               -0.00035416                0.03740838               -0.00030355
              12.44362554                2.03428956               43.45198334                0.78154297                0.25879315                0.28658739               -0.95279280                0.00031270                0.01748312                0.00039299
               2.44400515                3.05633470               44.47853738                0.78771358               -0.22261237               -0.25007203                0.83194355               -0.00064880                0.01316167                0.00222117
               3.44177902                3.05446746               44.37509850                0.54692029               -0.19587446               -0.19622112                0.65310339               -0.00022017                0.04298193                0.00120327
               4.44008766                3.05258714               44.27218340                0.51890976               -0.14236588               -0.14234879                0.47438594               -0.00020430                0.08202252                0.00067431
               5.43893171                3.05069677               44.16947021                0.50696371               -0.08877240               -0.08862367                0.29559246               -0.00006197                0.10018535                0.00046802
               6.43831221                3.04879639               44.06688076                0.50049063               -0.03510761               -0.03496952                0.11676201               -0.00000303                0.10993192                0.00016088
               7.43822955                3.04688537               43.96434246                0.49923265                0.01857618                0.01867727               -0.06209120               -0.00001310                0.11157533               -0.00028997
               8.43868373                3.04496314               43.86178343                0.50310613                0.07225910                0.07233679               -0.24096391               -0.00006746                0.10517063               -0.00087487
               9.43967474                3.04302924               43.75913217                0.51218379                0.12592689                0.12603033               -0.41985557               -0.00015769                0.09072093               -0.00158405
              10.44120227                3.04108349               43.65631684                0.52669472                0.17955695                0.17980907               -0.59876190               -0.00025580                0.06814921               -0.00239224
              11.44326587                3.03912646               43.55326443                0.54703552                0.23315011                0.23368740               -0.77766645               -0.00022311                0.03728984               -0.00326182
              12.44586527                3.03715974               43.44989975                0.78173022                0.25993989                0.28751916               -0.95653516                0.00043220                0.01740807               -0.00418415
               2.44559726                4.05384008               44.47646994                0.78743049               -0.22152977               -0.24889501                0.82831730               -0.00059274                0.01337077                0.00748749
               3.44338196                4.05251044               44.37302222                0.54652813               -0.19476229               -0.19515931                0.64947770               -0.00012060                0.04360189                0.00471351
               4.44170201                4.05116852               44.27010683                0.51870375               -0.14122504               -0.14133749                0.47075847               -0.00015757                0.08317897                0.00304616
               5.44055746                4.04981570               44.16739590                0.50683896               -0.08764713               -0.08757593                0.29195841               -0.00011708                0.10150561                0.00179234
               6.43994907                4.04845215               44.06480983                0.50044352               -0.03400759               -0.03388003                0.11311627               -0.00009360                0.11125820                0.00076644
               7.43987731                4.04707771               43.96227429                0.49926174                0.01966349                0.01978795               -0.06575267               -0.00010141                0.11278388               -0.00022884
               8.44034234                4.04569217               43.85971664                0.50321179                0.07333918                0.07346608               -0.24464291               -0.00012866                0.10619997               -0.00133019
               9.44134409                4.04429542               43.75706490                0.51236769                0.12700088                0.12718662               -0.42355170               -0.00016319                0.09152815               -0.00265023
              10.44288236                4.04288751               43.65424688                0.52696068                0.18064024                0.18096810               -0.60247217               -0.00017537                0.06870405               -0.00428565
              11.44495690                4.04146882               43.55118929                0.54738868                0.23426336                0.23478443               -0.78138547               -0.00012362                0.03757191               -0.00631519
              12.44756763                4.04003994               43.44781681                0.78193645                0.26107280                0.28855174               -0.96025553                0.00049274                0.01754024               -0.00879050
               2.44665258                5.05135680               44.47441073                0.78714861               -0.22044094               -0.24778460                0.82468209               -0.00055696                0.01372844                0.01193002
               3.44444817                5.05056427               44.37094685                0.54613920               -0.19366689               -0.19406951                0.64583995               -0.00003196                0.04459929                0.00755768
               4.44277924                5.04976039               44.26802847                0.51850271               -0.14012178               -0.14026166                0.46711929               -0.00007556                0.08508471                0.00485066
               5.44164574                5.04894525               44.16531992                0.50672277               -0.08654569               -0.08649351                0.28831497               -0.00011880                0.10381593                0.00284101
               6.44104833                5.04811879               44.06273931                0.50040689               -0.03291164               -0.03278496                0.10946530               -0.00015587                0.11374874                0.00125601
               7.44098750                5.04728113               43.96021011                0.49930174                0.02075611                0.02089251               -0.06941416               -0.00017373                0.11524420               -0.00017221
               8.44146345                5.04643246               43.85765768                0.50332714                0.07443148                0.07457844               -0.24831638               -0.00016737                0.10844172               -0.00169390
               9.44247613                5.04557298               43.75500827                0.51255907                0.12809579                0.12830495               -0.42723705               -0.00013676                0.09338494               -0.00354120
              10.44402537                5.04470285               43.65218813                0.52723109                0.18174225                0.18208345               -0.60616786               -0.00008898                0.07003147               -0.00593536
              11.44611098                5.04382215               43.54912265                0.54774326                0.23537601                0.23588516               -0.78508897               -0.00003950                0.03826116               -0.00907140
              12.44873289                5.04293077               43.44573566                0.78214269                0.26219095                0.28963828               -0.96396284                0.00053831                0.01787958               -0.01308193
               2.44717117                6.04888439               44.47235109                0.78686775               -0.21934465               -0.24672173                0.82103757               -0.00051823                0.01425782                0.01530191
               3.44497773                6.04862905               44.36886398                0.54575327               -0.19258238               -0.19296873                0.64218988                0.00006084                0.04609940                0.00937605
               4.44331953                6.04836329               44.26594216                0.51830840               -0.13905197               -0.13913152                0.46346984                0.00000781                0.08796580                0.00589042
               5.44219669                6.04808583               44.16323835                0.50661559               -0.08547285               -0.08536941                0.28466423               -0.00012139                0.10734095                0.00340186
               6.44161007                6.04779645               44.06066753                0.50038164               -0.03182607               -0.03167728                0.10581065               -0.00021604                0.11760151                0.00151871
               7.44156017                6.04749556               43.95814999                0.49935353                0.02185399                0.02198925               -0.07307490               -0.00024107                0.11911740               -0.00012723
               8.44204715                6.04718374               43.85560811                0.50345318                0.07553989                0.07566734               -0.25198472               -0.00020188                0.11204187               -0.00187044
               9.44307096                6.04686152               43.75296528                0.51275898                0.12921295                0.12938582               -0.43091349               -0.00010970                0.09642554               -0.00404353
              10.44463141                6.04652918               43.65014487                0.52750680                0.18286121                0.18316617               -0.60985158               -0.00000111                0.07224086               -0.00700119
              11.44672819                6.04618652               43.54706971                0.54810047                0.23648678                0.23699234               -0.78877887                0.00004931                0.03942035               -0.01109424
              12.44936114                6.04583270               43.44366181                0.78234984                0.26329552                0.29077550               -0.96765862                0.00058854                0.01845988               -0.01658449
               2.44715290                7.04642236               44.47027862                0.78658684               -0.21824117               -0.24573650                0.81738152               -0.00045520                0.01502583                0.01715470
               3.44497049                7.04670490               44.36676189                0.54536999               -0.19151427               -0.19183276                0.63852546                0.00016867                0.04828325                0.00977432
               4.44332262                7.04697776               44.26383911                0.51812231               -0.13801718               -0.13793651                0.45980913                0.00005025                0.09213441                0.00590067
               5.44221015                7.04723786               44.16114572                0.50652053               -0.08441683               -0.08422052                0.28100596               -0.00017953                0.11239395                0.00334432
               6.44163428                7.04748524               44.05859197                0.50037066               -0.03073771               -0.03057238                0.10215278               -0.00029361                0.12309458                0.00149517
               7.44159539                7.04772092               43.95609400                0.49942017                0.02295884                0.02307781               -0.07673448               -0.00030664                0.12465620               -0.00008892
               8.44209346                7.04794581               43.85357049                0.50359302                0.07665539                0.07674296               -0.25564730               -0.00024362                0.11725455               -0.00177643
               9.44312850                7.04816069               43.75094106                0.51296916                0.13034439                0.13043860               -0.43457998               -0.00010879                0.10091239               -0.00395501
              10.44470034                7.04836618               43.64812487                0.52778869                0.18399716                0.18420826               -0.61352210                0.00007421                0.07556765               -0.00710944
              11.44680844                7.04856199               43.54504030                0.54845999                0.23759740                0.23809491               -0.79245431                0.00015832                0.04119184               -0.01184625
              12.44945229                7.04874628               43.44160589                0.78255728                0.26438492                0.29198716               -0.97134191                0.00066286                0.01935827               -0.01868744
               2.44659700                8.04396966               44.46817569                0.78630490               -0.21713020               -0.24493047                0.81370921               -0.00034016                0.01616738                0.01686336
               3.44442570                8.04479239               44.36462425                0.54499107               -0.19047172               -0.19055715                0.63484225                0.00023011                0.05146295                0.00814119
               4.44278757                8.04560456               44.26170791                0.51794764               -0.13700430               -0.13670196                0.45613417               -0.00007459                0.09808271                0.00471193
               5.44168562                8.04640142               44.15903551                0.50644187               -0.08332146               -0.08311809                0.27733853               -0.00030143                0.11940523                0.00264633
               6.44112114                8.04718500               44.05650981                0.50037738               -0.02960712               -0.02949002                0.09849092               -0.00035406                0.13056031                0.00118428
               7.44109347                8.04795712               43.95404230                0.49950490                0.02406805                0.02416112               -0.08039258               -0.00032890                0.13216327               -0.00005027
               8.44160250                8.04871860               43.85154803                0.50374945                0.07774729                0.07782653               -0.25930304               -0.00027102                0.12442219               -0.00137871
               9.44264842                8.04947029               43.74894264                0.51319361                0.13145452                0.13150325               -0.43823416               -0.00014869                0.10727041               -0.00315837
              10.44423159                8.05021335               43.64613986                0.52807907                0.18514150                0.18521241               -0.61717616                0.00007146                0.08045839               -0.00590621
              11.44635125                8.05094842               43.54305035                0.54882110                0.23871176                0.23913627               -0.79611156                0.00027100                0.04387796               -0.01055260
              12.44900583                8.05167245               43.43958565                0.78276387                0.26545774                0.29334753               -0.97500842                0.00078706                0.02075799               -0.01846889
               2.44550063                9.04152375               44.46601735                0.78602230               -0.21604404               -0.24449324                0.81001225               -0.00039511                0.01778623                0.01244457
               3.44334019                9.04289375               44.36242714                0.54461955               -0.18942688               -0.18903890                0.63113171               -0.00000131                0.05628278                0.00417879
               4.44171209                9.04424372               44.25953641                0.51779123               -0.13582602               -0.13570501                0.45244084               -0.00026638                0.10671479                0.00258003
               5.44062367                9.04557550               44.15690181                0.50638349               -0.08202967               -0.08208563                0.27365942               -0.00034440                0.12885378                0.00144251
               6.44007150                9.04689544               44.05441849                0.50040614               -0.02842281               -0.02843069                0.09482356               -0.00027071                0.14030399                0.00064798
               7.44005522                9.04820414               43.95199509                0.49961180                0.02516799                0.02524957               -0.08404943               -0.00023411                0.14192440               -0.00001699
               8.44057486                9.04950234               43.84954393                0.50392743                0.07877818                0.07893720               -0.26295051               -0.00020447                0.13390793               -0.00073936
               9.44163078                9.05079076               43.74697750                0.51343688                0.13243918                0.13262180               -0.44187294               -0.00016764                0.11608171               -0.00173717
              10.44322364                9.05207042               43.64420467                0.52838340                0.18619915                0.18630967               -0.62080788               -0.00001063                0.08780854               -0.00336031
              11.44535476                9.05334472               43.54112522                0.54918726                0.23981655                0.24004454               -0.79974017                0.00024007                0.04819459               -0.00636065
              12.44801998                9.05461323               43.43763018                0.78296948                0.26652135                0.29499605               -0.97864533                0.00078861                0.02303719               -0.01347452
               2.44384910               10.03907980               44.46374623                0.89291771               -0.21433962               -0.24439573                0.80627130                0.02802886                0.02342533                0.01079216
               3.44170571               10.04101162               44.36014836                0.77218988               -0.18743020               -0.18821380                0.62738701                0.02708454                0.06531008                0.00316356
               4.44010050               10.04289046               44.25731829                0.75884950               -0.13393495               -0.13532636                0.44872429                0.02624502                0.11894207                0.00245022
               5.43902701               10.04475971               44.15474077                0.75317862               -0.08067070               -0.08157879                0.26996368                0.02663006                0.14096985                0.00139696
               6.43848708               10.04661639               44.05231640                0.75021943               -0.02725536               -0.02790534                0.09114781                0.02667826                0.15251642                0.00055231
               7.43848190               10.04846211               43.94995243                0.74984817                0.02623545                0.02579702               -0.08770583                0.02671616                0.15411720               -0.00022648
               8.43901179               10.05029735               43.84756019                0.75202962                0.07975396                0.07950101               -0.26658787                0.02672410                0.14597496               -0.00103694
               9.44007698               10.05212273               43.74505102                0.75680538                0.13328121                0.13319700               -0.44549163                0.02672973                0.12786037               -0.00199940
              10.44167742               10.05393954               43.64233165                0.76429809                0.18681317                0.18691176               -0.62440884                0.02670635                0.09899525               -0.00332598
              11.44381324               10.05574931               43.53929785                0.77471831                0.24035782                0.24045905               -0.80332480                0.02748937                0.05688003               -0.00542285
              12.44648457               10.05757237               43.43580639                0.89155358                0.26713313                0.29591364               -0.98222586                0.02876564                0.02960913               -0.01174955
               2.54047083                0.06589627               45.49308721                0.89732260               -0.22166722               -0.25000024                0.82896343               -0.02842789                0.01925608               -0.00494724
               3.53825415                0.06240655               45.38791478                0.77999744               -0.19532751               -0.19508866                0.65305965               -0.02687151                0.04540054               -0.00481514
               4.53656428                0.05893673               45.28319134                0.76422762               -0.14275983               -0.14273159                0.47725797               -0.02613978                0.08237148               -0.00211702
               5.53539896                0.05545750               45.17870204                0.75561500               -0.09025431               -0.08991063                0.30144295               -0.02631526                0.10292294               -0.00122082
               6.53475919                0.05196880               45.07435089                0.75086712               -0.03765620               -0.03714500                0.12561288               -0.02633876                0.11383128               -0.00053109
               7.53464583                0.04846922               44.97005861                0.74988936                0.01499783                0.01563587               -0.05023118               -0.02636019                0.11611478                0.00004521
               8.53505915                0.04495837               44.86574958                0.75265234                0.06766876                0.06841790               -0.22609097               -0.02636190                0.11002585                0.00057965
               9.53599921                0.04143580               44.76134957                0.75918318                0.12033171                0.12119306               -0.40196916               -0.02636878                0.09559998                0.00111961
              10.53746578                0.03790024               44.65678370                0.76956942                0.17299361                0.17401083               -0.57786634               -0.02631608                0.07267973                0.00172146
              11.53945908                0.03435095               44.55197457                0.78396141                0.22558910                0.22657350               -0.75377871               -0.02700246                0.04063593                0.00242012
              12.54197756                0.03076862               44.44683472                0.89777651                0.25184815                0.28135207               -0.92970461               -0.02706268                0.01987624                0.00416756
               2.54367627                1.06339627               45.49102826                0.79070268               -0.22110625               -0.24900245                0.82543128               -0.00068049                0.01573824               -0.00384911
               3.54146521                1.06045566               45.38583653                0.55286701               -0.19494355               -0.19472741                0.64951982               -0.00014658                0.04317200               -0.00478523
               4.53977740                1.05750941               45.28111975                0.52344577               -0.14227204               -0.14207244                0.47371431                0.00004819                0.08052978               -0.00194746
               5.53861977                1.05455840               45.17661897                0.50902131               -0.08937292               -0.08933836                0.29788059                0.00015316                0.10004957               -0.00092704
               6.53798994                1.05159735               45.07225411                0.50110560               -0.03661587               -0.03658877                0.12203044                0.00010448                0.11076491               -0.00045100
               7.53788745                1.04862558               44.96794680                0.49948069                0.01611493                0.01617666               -0.05383385                0.00007213                0.11293419               -0.00022209
               8.53831224                1.04564254               44.86362214                0.50407429                0.06885666                0.06894759               -0.22971410                0.00004661                0.10678833               -0.00009825
               9.53926458                1.04264773               44.75920636                0.51494736                0.12164009                0.12171929               -0.40561314                0.00001793                0.09235422                0.00002386
              10.54074504                1.03964035               44.65462510                0.53229897                0.17451411                0.17450824               -0.58153143               -0.00014947                0.06946654                0.00025660
              11.54275487                1.03661669               44.54980133                0.55646774                0.22721119                0.22735557               -0.75746444               -0.00021771                0.03792681                0.00077857
              12.54528927                1.03358214               44.44465674                0.78798107                0.25344002                0.28140011               -0.93339746                0.00058098                0.01763613                0.00219315
               2.54633843                2.06091622               45.48890790                0.78668549               -0.22003571               -0.24729283                0.82188995               -0.00073888                0.01282751               -0.00271502
               3.54413808                2.05851200               45.38369385                0.54565241               -0.19379644               -0.19394527                0.64597853               -0.00029629                0.04270873               -0.00351215
               4.54246250                2.05609528               45.27900407                0.51841314               -0.14119972               -0.14095887                0.47019500               -0.00010878                0.08159476               -0.00178758
               5.54131408                2.05367073               45.17451194                0.50680385               -0.08842049               -0.08822856                0.29434340                0.00006806                0.09973238               -0.00079099
               6.54069409                2.05123703               45.07014674                0.50047799               -0.03559979               -0.03548879                0.11846494                0.00010048                0.10978234               -0.00040703
               7.54060209                2.04879276               44.96583511                0.49919036                0.01719196                0.01726409               -0.05743100                0.00006736                0.11164122               -0.00033656
               8.54103793                2.04633732               44.86150426                0.50285872                0.06998394                0.07002855               -0.23334424                0.00001483                0.10536854               -0.00042641
               9.54200176                2.04387018               44.75708199                0.51155162                0.12279496                0.12280893               -0.40927662               -0.00008863                0.09096969               -0.00056122
              10.54349383                2.04139040               44.65249564                0.52548556                0.17555849                0.17563423               -0.58522659               -0.00025478                0.06835631               -0.00061115
              11.54551293                2.03889806               44.54767126                0.54503676                0.22822199                0.22871925               -0.76118308               -0.00034849                0.03740261               -0.00036701
              12.54805827                2.03639662               44.44253362                0.78041787                0.25453379                0.28187192               -0.93711599                0.00030745                0.01747050                0.00033752
               2.54846994                3.05845041               45.48678892                0.78640472               -0.21897178               -0.24598062                0.81833266               -0.00063796                0.01317833                0.00224462
               3.54628022                3.05657675               45.38157629                0.54525977               -0.19267263               -0.19301369                0.64242749               -0.00021665                0.04307687                0.00123363
               4.54461649                3.05469024               45.27688864                0.51820280               -0.14004202               -0.14002563                0.46664312               -0.00020121                0.08215402                0.00070695
               5.54347938                3.05279382               45.17240215                0.50667362               -0.08732784               -0.08718222                0.29078346               -0.00006134                0.10027019                0.00049699
               6.54286993                3.05088758               45.06803903                0.50042212               -0.03454366               -0.03440848                0.11488757               -0.00000362                0.10999244                0.00017906
               7.54278851                3.04897086               44.96372685                0.49920744                0.01825901                0.01835812               -0.06103060               -0.00001365                0.11161607               -0.00028688
               8.54323511                3.04704312               44.85939373                0.50294971                0.07106079                0.07113732               -0.23696799               -0.00006708                0.10518945               -0.00088865
               9.54420972                3.04510391               44.75496820                0.51171943                0.12384777                0.12394992               -0.41292413               -0.00015566                0.09071609               -0.00161435
              10.54571207                3.04315303               44.65037845                0.52573020                0.17659769                0.17684622               -0.58889441               -0.00025193                0.06812708               -0.00243574
              11.54774168                3.04119107               44.54555164                0.54535458                0.22931144                0.22984033               -0.76486320               -0.00021957                0.03727139               -0.00331152
              12.55029829                3.03921958               44.44041291                0.78059919                0.25566166                0.28278857               -0.94079663                0.00042502                0.01738824               -0.00423062
               2.55007299                4.05599661               45.48468552                0.78613118               -0.21790709               -0.24482313                0.81476638               -0.00058295                0.01338650                0.00752144
               3.54789392                4.05465172               45.37946404                0.54488120               -0.19157890               -0.19196947                0.63886193               -0.00011872                0.04369464                0.00474604
               4.54624141                4.05329477               45.27477610                0.51800384               -0.13892015               -0.13903102                0.46307587               -0.00015513                0.08330459                0.00307673
               5.54511551                4.05192709               45.17029180                0.50655310               -0.08622130               -0.08615179                0.28720973               -0.00011540                0.10157963                0.00181708
               6.54451698                4.05054886               45.06593195                0.50037719               -0.03346192               -0.03333704                0.11130234               -0.00009247                0.11130335                0.00078137
               7.54444627                4.04915992               44.96162236                0.49923495                0.01932828                0.01945038               -0.06463131               -0.00010021                0.11280627               -0.00022712
               8.54490355                4.04776006               44.85729045                0.50305203                0.07212297                0.07224783               -0.24058587               -0.00012700                0.10619961               -0.00134322
               9.54588873                4.04634918               44.75286427                0.51189666                0.12490398                0.12508696               -0.41655883               -0.00016086                0.09150575               -0.00267773
              10.54740163                4.04492733               44.64827169                0.52598721                0.17766310                0.17798595               -0.59254332               -0.00017264                0.06866844               -0.00432524
              11.54944200                4.04349487               44.54343961                0.54569537                0.23040636                0.23091915               -0.76852093               -0.00012164                0.03754640               -0.00636288
              12.55200976                4.04205239               44.43829308                0.78079829                0.25677593                0.28380413               -0.94445574                0.00048446                0.01751727               -0.00884037
               2.55114805                5.05355395               45.48259026                0.78585881               -0.21683629               -0.24373114                0.81119161               -0.00054782                0.01374441                0.01197432
               3.54897969                5.05273736               45.37735260                0.54450598               -0.19050162               -0.19089773                0.63528441               -0.00003163                0.04469278                0.00759339
               4.54733802                5.05190962               45.27266165                0.51780976               -0.13783520               -0.13797302                0.45949700               -0.00007448                0.08521000                0.00488156
               5.54622298                5.05107079               45.16817968                0.50644082               -0.08513821               -0.08508734                0.28362693               -0.00011696                0.10388643                0.00286476
               6.54563525                5.05022084               45.06382522                0.50034159               -0.03238421               -0.03226014                0.10771203               -0.00015346                0.11378724                0.00126972
               7.54557530                5.04935987               44.95952187                0.49927389                0.02040274                0.02053662               -0.06823207               -0.00017101                0.11525768               -0.00017106
               8.54604331                5.04848807               44.85519506                0.50316360                0.07319716                0.07334171               -0.24419842               -0.00016471                0.10843170               -0.00170670
               9.54703924                5.04760564               44.75077110                0.51208176                0.12598082                0.12618672               -0.42018325               -0.00013458                0.09335364               -0.00356798
              10.54856292                5.04671275               44.64617629                0.52624891                0.17874690                0.17908274               -0.59617775               -0.00008757                0.06998895               -0.00597483
              11.55061418                5.04580945               44.54133625                0.54603836                0.23150046                0.23200150               -0.77216248               -0.00003892                0.03823191               -0.00912186
              12.55319293                5.04489566               44.43617517                0.78099763                0.25787536                0.28487258               -0.94810121                0.00052928                0.01785466               -0.01314126
               2.55169520                6.05112198               45.48049447                0.78558748               -0.21575827               -0.24268597                0.80760783               -0.00050970                0.01427484                0.01535538
               3.54953761                6.05083377               45.37523354                0.54413318               -0.18943513               -0.18981526                0.63169500                0.00005964                0.04619698                0.00941388
               4.54790649                6.05053531               45.27053914                0.51762286               -0.13678311               -0.13686165                0.45590807                0.00000745                0.08809732                0.00592172
               5.54680195                6.05022534               45.16606192                0.50633859               -0.08408316               -0.08398192                0.28003676               -0.00011941                0.10741537                0.00342537
               6.54622483                6.04990366               45.06171720                0.50031832               -0.03131668               -0.03117086                0.10411807               -0.00021233                0.11764136                0.00153209
               7.54617562                6.04957065               44.95742545                0.49932509                0.02148241                0.02161516               -0.07183207               -0.00023688                0.11913032               -0.00012614
               8.54665448                6.04922690               44.85310912                0.50328664                0.07428718                0.07441258               -0.24780593               -0.00019827                0.11203031               -0.00188294
               9.54766136                6.04887291               44.74869164                0.51227623                0.12707937                0.12724968               -0.42379854               -0.00010775                0.09639286               -0.00407010
              10.54919607                6.04850898               44.64409650                0.52651509                0.17984723                0.18014751               -0.59980022               -0.00000120                0.07219764               -0.00704154
              11.55125831                6.04813490               44.53924671                0.54638316                0.23259286                0.23309039               -0.77579149                0.00004845                0.03939073               -0.01114825
              12.55384792                6.04774985               44.43406466                0.78119769                0.25896172                0.28599105               -0.95173614                0.00057892                0.01843446               -0.01665330
               2.55171429                7.04870023               45.47838575                0.78531618               -0.21467317               -0.24171710                0.80401250               -0.00044774                0.01504524                0.01721368
               3.54956756                7.04894106               45.37309510                0.54376330               -0.18838483               -0.18869810                0.62809149                0.00016578                0.04838903                0.00981094
               4.54794659                7.04917238               45.26839979                0.51744364               -0.13576551               -0.13568647                0.45230800                0.00004926                0.09227950                0.00593056
               5.54685225                7.04939115               45.16393300                0.50624737               -0.08304461               -0.08285213                0.27643912               -0.00017651                0.11248035                0.00336664
               6.54628570                7.04959742               45.05960537                0.50030871               -0.03024638               -0.03008433                0.10052089               -0.00028843                0.12314421                0.00150793
               7.54624732                7.04979217               44.95533316                0.49939015                0.02256891                0.02268566               -0.07543093               -0.00030112                0.12467712               -0.00008754
               8.54673708                7.04997632               44.85103517                0.50342241                0.07538412                0.07547042               -0.25140786               -0.00023912                0.11724991               -0.00178771
               9.54775500                7.05015064               44.74663106                0.51247995                0.12819191                0.12828508               -0.42740405               -0.00010668                0.10088591               -0.00397975
              10.54930092                7.05031570               44.64204010                0.52678817                0.18096429                0.18117251               -0.60341009                0.00007309                0.07553007               -0.00714842
              11.55137429                7.05047126               44.53718085                0.54673067                0.23368513                0.23417486               -0.77940643                0.00015584                0.04116624               -0.01190127
              12.55397462                7.05061548               44.43197221                0.78139788                0.26003315                0.28718268               -0.95535832                0.00065203                0.01933562               -0.01876278
               2.55120458                8.04628764               45.47624640                0.78504410               -0.21358056               -0.24092445                0.80040086               -0.00033463                0.01619060                0.01692121
               3.54906878                8.04705981               45.37092094                0.54339770               -0.18735960               -0.18744336                0.62446911                0.00022616                0.05158215                0.00816996
               4.54745739                8.04782158               45.26623214                0.51727665               -0.13476951               -0.13447245                0.44869402               -0.00007357                0.09825033                0.00473680
               5.54637339                8.04856830               45.16178642                0.50617307               -0.08196749               -0.08176809                0.27283258               -0.00029631                0.11951260                0.00266537
               6.54581804                8.04930197               45.05748689                0.50031680               -0.02913463               -0.02901992                0.09691979               -0.00034770                0.13062904                0.00119522
               7.54579069                8.05002436               44.95324519                0.49947429                0.02365966                0.02375101               -0.07902831               -0.00032275                0.13220172               -0.00004868
               8.54629123                8.05073631               44.84897645                0.50357542                0.07645790                0.07653603               -0.25500296               -0.00026586                0.12443384               -0.00138770
               9.54731985                8.05143862               44.74459640                0.51269805                0.12928364                0.12933214               -0.43099780               -0.00014569                0.10725901               -0.00317864
              10.54887691                8.05213243               44.64001885                0.52706934                0.18208960                0.18216017               -0.60700357                0.00007061                0.08043359               -0.00593907
              11.55096164                8.05281840               44.53515464                0.54707988                0.23478084                0.23519900               -0.78300251                0.00026655                0.04386038               -0.01060184
              12.55357252                8.05349350               44.42991561                0.78159709                0.26108794                0.28852028               -0.95896326                0.00077396                0.02074009               -0.01854329
               2.55016327                9.04388174               45.47405140                0.78477069               -0.21251242               -0.24049466                0.79676499               -0.00038867                0.01781473                0.01248731
               3.54803814                9.04519219               45.36868703                0.54303942               -0.18633211               -0.18594974                0.62081990               -0.00000193                0.05642262                0.00419200
               4.54643663                9.04648293               45.26402401                0.51712741               -0.13361075               -0.13349234                0.44506197               -0.00026239                0.10691689                0.00259512
               5.54536593                9.04775579               45.15961624                0.50611902               -0.08069718               -0.08075274                0.26921444               -0.00033856                0.12899268                0.00145436
               6.54482268                9.04901702               45.05535919                0.50034729               -0.02797014               -0.02797811                0.09331326               -0.00026571                0.14040230                0.00065494
               7.54480653                9.05026719               44.95116172                0.49958025                0.02474125                0.02482143               -0.08262445               -0.00022959                0.14199123               -0.00001580
               8.54531751                9.05150704               44.84693618                0.50375010                0.07747167                0.07762822               -0.25858973               -0.00020047                0.13394699               -0.00074460
               9.54635596                9.05273728               44.74259518                0.51293487                0.13025203                0.13043209               -0.43457608               -0.00016428                0.11609663               -0.00174921
              10.54792255                9.05395891               44.63804765                0.52736519                0.18312963                0.18323912               -0.61057467               -0.00001008                0.08780694               -0.00338026
              11.55001855                9.05517524               44.53319352                0.54743374                0.23586717                0.23609233               -0.78657072                0.00023612                0.04819209               -0.00639157
              12.55263989                9.05638589               44.42792407                0.78179563                0.26213388                0.29014138               -0.96254023                0.00077540                0.02302867               -0.01352814
               2.54857590               10.04147775               45.47174317                0.89229508               -0.21083605               -0.24039896                0.79308586                0.02756958                0.02347352                0.01083203
               3.54646754               10.04334081               45.36637111                0.77140437               -0.18436788               -0.18513800                0.61713719                0.02663884                0.06548517                0.00317468
               4.54488854               10.04515173               45.26176904                0.75852006               -0.13175078               -0.13312024                0.44140701                0.02581352                0.11919133                0.00246474
               5.54383253               10.04695325               45.15741855                0.75304821               -0.07936128               -0.08025424                0.26557997                0.02619344                0.14115178                0.00140738
               6.54330132               10.04874241               45.05322065                0.75019056               -0.02682243               -0.02746142                0.08969850                0.02624095                0.15265698                0.00055792
               7.54329608               10.05052079               44.94908279                0.74983226                0.02579081                0.02535983               -0.08622019                0.02627825                0.15422566               -0.00022635
               8.54381714               10.05228887               44.84491638                0.75193982                0.07843131                0.07818264               -0.26216667                0.02628607                0.14605526               -0.00104253
               9.54486470               10.05404726               44.74063281                0.75655268                0.13108037                0.13099769               -0.43813468                0.02629162                0.12791587               -0.00201092
              10.54643874               10.05579722               44.63613892                0.76378595                0.18373388                0.18383108               -0.61411561                0.02626868                0.09903285               -0.00334429
              11.54853938               10.05754024               44.53133060                0.77383747                0.23639966                0.23650010               -0.79009565                0.02703837                0.05690978               -0.00544950
              12.55116674               10.05929633               44.42606478                0.89096430                0.26273544                0.29104379               -0.96606162                0.02829281                0.02962701               -0.01179647
               2.64671559                0.06792338               46.50130772                0.89654676               -0.21796330               -0.24582155                0.81510681               -0.02795140                0.01930241               -0.00495320
               3.64453596                0.06445436               46.39439096                0.77894307               -0.19206511               -0.19182973                0.64215153               -0.02642070                0.04551484               -0.00481299
               4.64287429                0.06100493               46.28792420                0.76371423               -0.14037870               -0.14035106                0.46929666               -0.02570150                0.08254328               -0.00210311
               5.64172838                0.05754623               46.18169146                0.75540096               -0.08875338               -0.08841532                0.29642864               -0.02587439                0.10309016               -0.00120993
               6.64109922                0.05407822               46.07559671                0.75081616               -0.03703679               -0.03653407                0.12354568               -0.02589756                0.11398949               -0.00052438
               7.64098765                0.05059951               45.96956069                0.74987241                0.01473488                0.01536219               -0.04935096               -0.02591867                0.11625960                0.00004774
               8.64139392                0.04710971               45.86350777                0.75254026                0.06652309                0.06725960               -0.22226315               -0.02592036                0.11015125                0.00057794
               9.64231811                0.04360840               45.75736369                0.75884673                0.11830348                0.11915022               -0.39519334               -0.02592706                0.09570028                0.00111309
              10.64375999                0.04009432               45.65105355                0.76887443                0.17008293                0.17108278               -0.56814240               -0.02587519                0.07275237                0.00171010
              11.64571977                0.03656675               45.54450001                0.78276538                0.22179679                0.22276447               -0.74110630               -0.02654991                0.04067979                0.00240463
              12.64819592                0.03300670               45.43761560                0.89697670                0.24761554                0.27662477               -0.91408325               -0.02660882                0.01989497                0.00416109
               2.64990509                1.06546516               46.49921376                0.78927609               -0.21741199               -0.24484037                0.81163459               -0.00066857                0.01576324               -0.00383993
               3.64773097                1.06253606               46.39227761                0.55098661               -0.19168790               -0.19147492                0.63867180               -0.00014391                0.04326695               -0.00476836
               4.64607133                1.05960142               46.28581749                0.52258102               -0.13989907               -0.13970310                0.46581313                0.00004731                0.08067672               -0.00190998
               5.64493299                1.05666208               46.17957306                0.50866204               -0.08788645               -0.08785289                0.29292661                0.00015030                0.10018374               -0.00089620
               6.64431360                1.05371288               46.07346441                0.50102008               -0.03601375               -0.03598738                0.12002402                0.00010217                0.11088929               -0.00043246
               7.64421272                1.05075313               45.96741316                0.49945143                0.01583318                0.01589377               -0.05289261                0.00007024                0.11304499               -0.00021740
               8.64463027                1.04778231               45.86134440                0.50388682                0.06769083                0.06778036               -0.22582490                0.00004512                0.10687925               -0.00010809
               9.64556653                1.04479990               45.75518434                0.51438562                0.11958950                0.11966767               -0.39877565                0.00001705                0.09241962               -0.00000105
              10.64702206                1.04180515               45.64885861                0.53113338                0.17157720                0.17157195               -0.57174532               -0.00014736                0.06950446                0.00021765
              11.64899808                1.03879439               45.54229022                0.55445000                0.22339104                0.22353357               -0.74472948               -0.00021407                0.03794268                0.00073004
              12.65148988                1.03577295               45.43540101                0.78662775                0.24918032                0.27667174               -0.91771376                0.00057158                0.01763324                0.00215311
               2.65256042                2.06302657               46.49705829                0.78538657               -0.21635960               -0.24315951                0.80815365               -0.00072636                0.01284277               -0.00269900
               3.65039682                2.06062486               46.39009982                0.54400372               -0.19056009               -0.19070644                0.63519081               -0.00029142                0.04280500               -0.00348553
               4.64874921                2.05821087               46.28366691                0.51771075               -0.13884479               -0.13860842                0.46235371               -0.00010708                0.08173403               -0.00174286
               5.64761992                2.05578918               46.17743096                0.50651392               -0.08695013               -0.08676203                0.28944945                0.00006649                0.09983381               -0.00075156
               6.64701021                2.05335848               46.07132169                0.50040941               -0.03501483               -0.03490617                0.11651905                0.00009803                0.10986720               -0.00038260
               7.64691963                2.05091738               45.96526581                0.49916582                0.01689198                0.01696272               -0.05642881                0.00006529                0.11171015               -0.00033100
               8.64734805                2.04846532               45.85919053                0.50270833                0.06879902                0.06884303               -0.22939361                0.00001366                0.10541655               -0.00044131
               9.64829561                2.04600175               45.75302365                0.51109933                0.12072476                0.12073903               -0.40237739               -0.00008792                0.09099282               -0.00059654
              10.64976255                2.04352576               45.64669251                0.52454353                0.17260380                0.17267909               -0.57537823               -0.00025100                0.06835691               -0.00066407
              11.65174768                2.04103742               45.54012328                0.54339316                0.22438467                0.22487432               -0.74838543               -0.00034280                0.03739669               -0.00042976
              12.65425024                2.03854014               45.43324102                0.77931102                0.25025560                0.27713552               -0.92136965                0.00030217                0.01745736                0.00028283
               2.65469398                3.06060197               46.49490403                0.78511534               -0.21531363               -0.24186968                0.80465686               -0.00062719                0.01319444                0.00226723
               3.65254085                3.05872193               46.38794705                0.54362536               -0.18945523               -0.18979076                0.63169991               -0.00021310                0.04317034                0.00126327
               4.65090488                3.05682925               46.28151626                0.51750772               -0.13770668               -0.13769099                0.45886198               -0.00019799                0.08228331                0.00073903
               5.64978671                3.05492684               46.17528588                0.50638821               -0.08587603               -0.08573340                0.28595008               -0.00006070                0.10035335                0.00052558
               6.64918736                3.05301476               46.06917851                0.50035514               -0.03397660               -0.03384416                0.11300232               -0.00000421                0.11005185                0.00019701
               7.64910718                3.05109239               45.96312185                0.49918186                0.01794097                0.01803821               -0.05996742               -0.00001415                0.11165612               -0.00028386
               8.64954618                3.04915917               45.85704407                0.50279622                0.06985763                0.06993298               -0.23295592               -0.00006663                0.10520780               -0.00090222
               9.65050433                3.04721468               45.75087368                0.51126125                0.12175972                0.12186062               -0.40596304               -0.00015358                0.09071147               -0.00164396
              10.65198137                3.04525873               45.64453896                0.52478021                0.17362552                0.17387046               -0.57898408               -0.00024806                0.06810526               -0.00247851
              11.65397684                3.04329188               45.53796716                0.54370039                0.22545588                0.22597629               -0.75200364               -0.00021606                0.03725291               -0.00336095
              12.65649049                3.04131566               45.43108382                0.77948685                0.25136452                0.27803697               -0.92498840                0.00041775                0.01736872               -0.00427683
               2.65630795                4.05818917               46.49276527                0.78485116               -0.21426694               -0.24073189                0.80115105               -0.00057306                0.01340213                0.00755486
               3.65416528                4.05682904               46.38579945                0.54325946               -0.18838001               -0.18876429                0.62819481               -0.00011678                0.04378627                0.00477780
               4.65254035                4.05545705               46.27936835                0.51731540               -0.13660387               -0.13671326                0.45535540               -0.00015273                0.08342837                0.00310661
               5.65143320                4.05407451               46.17314010                0.50627189               -0.08478831               -0.08472045                0.28243709               -0.00011380                0.10165224                0.00184160
               6.65084458                4.05268159               46.06703588                0.50031140               -0.03291320               -0.03279086                0.10947786               -0.00009135                0.11134760                0.00079609
               7.65077494                4.05127815               45.96098166                0.49920871                0.01899215                0.01911196               -0.06350711               -0.00009899                0.11282835               -0.00022551
               8.65122442                4.04986398               45.85490492                0.50289405                0.07090185                0.07102468               -0.23651255               -0.00012528                0.10619933               -0.00135609
               9.65219297                4.04843896               45.74873372                0.51143258                0.12279811                0.12297834               -0.40953615               -0.00015844                0.09148370               -0.00270489
              10.65368039                4.04700317               45.64239601                0.52502830                0.17467294                0.17499077               -0.58257102               -0.00016988                0.06863299               -0.00436449
              11.65568643                4.04555694               45.53581887                0.54402957                0.22653234                0.22703681               -0.75559951               -0.00011966                0.03752048               -0.00640976
              12.65821103                4.04410088               45.42892770                0.77967884                0.25246006                0.27903550               -0.92858611                0.00047625                0.01749367               -0.00888999
               2.65740278                5.05578733               46.49063456                0.78458852               -0.21321433               -0.23965846                0.79763693               -0.00053854                0.01375960                0.01201841
               3.65527064                5.05494665               46.38365254                0.54289707               -0.18732105               -0.18771076                0.62467811               -0.00003117                0.04478470                0.00762861
               4.65365636                5.05409498               46.27721841                0.51712849               -0.13553735               -0.13567323                0.45183747               -0.00007342                0.08533368                0.00491188
               5.65255989                5.05323243               46.17099246                0.50616369               -0.08372359               -0.08367403                0.27891513               -0.00011518                0.10395578                0.00288820
               6.65198189                5.05235894               46.06489355                0.50027785               -0.03185375               -0.03173220                0.10594840               -0.00015103                0.11382475                0.00128322
               7.65192282                5.05147462               45.95884547                0.49924673                0.02004839                0.02017981               -0.06704684               -0.00016825                0.11527088               -0.00016996
               8.65238286                5.05057966               45.85277371                0.50300253                0.07195785                0.07210007               -0.24006411               -0.00016202                0.10842177               -0.00171930
               9.65336197                5.04967425               45.74660461                0.51161187                0.12385675                0.12405951               -0.41309941               -0.00013241                0.09332280               -0.00359441
              10.65485999                5.04875854               45.64026458                0.52528048                0.17573846                0.17606901               -0.58614429               -0.00008616                0.06994725               -0.00601380
              11.65687674                5.04783261               45.53367940                0.54436039                0.22760796                0.22810081               -0.75917957               -0.00003819                0.03820260               -0.00917133
              12.65941215                5.04689637               45.42677364                0.77987124                0.25354087                0.28008578               -0.93216948                0.00052039                0.01782899               -0.01319934
               2.65797855                6.05339601               46.48850324                0.78432665               -0.21215456               -0.23863099                0.79411375               -0.00050113                0.01429100                0.01540818
               3.65585700                6.05307483               46.38149788                0.54253792               -0.18627265               -0.18664660                0.62114942                0.00005855                0.04629283                0.00945134
               4.65425309                6.05274358               46.27506032                0.51694850               -0.13450314               -0.13458065                0.44830923                0.00000718                0.08822694                0.00595268
               5.65316694                6.05240103               46.16883909                0.50606559               -0.08268643               -0.08258734                0.27538572               -0.00011750                0.10748849                0.00344843
               6.65259937                6.05204695               46.06274989                0.50025558               -0.03080431               -0.03066139                0.10241536               -0.00020867                0.11768033                0.00154520
               7.65255085                6.05168174               45.95671335                0.49929677                0.02110978                0.02124007               -0.07058585               -0.00023264                0.11914305               -0.00012503
               8.65302156                6.05130598               45.85065199                0.50312200                0.07302938                0.07315277               -0.24361037               -0.00019466                0.11201898               -0.00189524
               9.65401144                6.05092015               45.74448931                0.51180003                0.12493665                0.12510442               -0.41665317               -0.00010580                0.09636064               -0.00409597
              10.65552029                6.05052455               45.63814886                0.52553839                0.17682014                0.17711572               -0.58970523               -0.00000120                0.07215503               -0.00708123
              11.65754784                6.05011896               45.53155388                0.54469374                0.22868184                0.22917122               -0.76274699                0.00004759                0.03936130               -0.01120189
              12.66009393                6.04970259               45.42462709                0.78006417                0.25460879                0.28118523               -0.93574254                0.00056909                0.01840906               -0.01672121
               2.65803511                7.05101471               46.48635887                0.78406466               -0.21108787               -0.23767851                0.79057941               -0.00044020                0.01506392                0.01727150
               3.65592423                7.05121371               46.37932372                0.54218103               -0.18524020               -0.18554829                0.61760695                0.00016291                0.04849310                0.00984695
               4.65433031                7.05140337               46.27288527                0.51677587               -0.13350285               -0.13342541                0.44477025                0.00004823                0.09242244                0.00596001
               5.65325417                7.05158068               46.16667450                0.50597881               -0.08166549               -0.08147678                0.27184911               -0.00017358                0.11256519                0.00338859
               6.65269700                7.05174571               46.06060239                0.50024766               -0.02975210               -0.02959331                0.09887906               -0.00028327                0.12319286                0.00152052
               7.65265913                7.05189943               45.95458538                0.49936172                0.02217790                0.02229240               -0.07412366               -0.00029552                0.12469768               -0.00008621
               8.65314055                7.05204272               45.84854233                0.50325447                0.07410769                0.07419266               -0.24715116               -0.00023459                0.11724542               -0.00179902
               9.65414129                7.05217633               45.74239298                0.51199792                0.12603024                0.12612228               -0.42019744               -0.00010455                0.10085983               -0.00400424
              10.65566116                7.05230086               45.63605667                0.52580261                0.17791818                0.17812337               -0.59325363                0.00007198                0.07549250               -0.00718701
              11.65769965                7.05241604               45.52945217                0.54502901                0.22975557                0.23023733               -0.76630065                0.00015321                0.04114031               -0.01195573
              12.66025627                7.05252007               45.42249872                0.78025707                0.25566207                0.28235668               -0.93930364                0.00064097                0.01931269               -0.01883709
               2.65757174                8.04864244               46.48418370                0.78380176               -0.21001380               -0.23689930                0.78702879               -0.00032901                0.01621339                0.01697788
               3.65547160                8.04936386               46.37711364                0.54182834               -0.18423246               -0.18431458                0.61404598                0.00022209                0.05169963                0.00819824
               4.65388709                8.05007507               46.27068179                0.51661596               -0.13252382               -0.13223208                0.44121766               -0.00007273                0.09841565                0.00476124
               5.65282112                8.05077149               46.16449216                0.50590800               -0.08060659               -0.08041123                0.26830374               -0.00029120                0.11961834                0.00268399
               6.65227496                8.05145508               46.05844820                0.50025705               -0.02865918               -0.02854698                0.09533907               -0.00034131                0.13069657                0.00120613
               7.65224794                8.05212759               45.95246173                0.49944414                0.02325013                0.02333971               -0.07766011               -0.00031667                0.13223943               -0.00004713
               8.65273996                8.05278983               45.84644797                0.50340397                0.07516325                0.07524027               -0.25068540               -0.00026076                0.12444525               -0.00139656
               9.65375121                8.05344260               45.74032268                0.51220958                0.12710344                0.12715175               -0.42373054               -0.00014274                0.10724781               -0.00319893
              10.65528203                8.05408702               45.63399979                0.52607487                0.17902434                0.17909453               -0.59678648                0.00006966                0.08040902               -0.00597176
              11.65733169                8.05472371               45.52739030                0.54536625                0.23083258                0.23124428               -0.76983574                0.00026206                0.04384294               -0.01065011
              12.65989868                8.05534972               45.42040638                0.78044973                0.25669885                0.28367157               -0.94284721                0.00076086                0.02072267               -0.01861612
               2.65658567                9.04627673               46.48195265                0.78353776               -0.20896389               -0.23647707                0.78345457               -0.00038227                0.01784304                0.01252968
               3.65449603                9.04752742               46.37484354                0.54148374               -0.18322246               -0.18284578                0.61045856               -0.00000274                0.05656055                0.00420532
               4.65292122                9.04875873               46.26843764                0.51647416               -0.13138461               -0.13126879                0.43764687               -0.00025848                0.10711594                0.00261015
               5.65186834                9.04997246               46.16228610                0.50585882               -0.07935780               -0.07941300                0.26474663               -0.00033264                0.12912941                0.00146598
               6.65133407                9.05117477               46.05628475                0.50028950               -0.02751463               -0.02752274                0.09179367               -0.00026066                0.14049910                0.00066183
               7.65131805                9.05236622               45.95034261                0.49954942                0.02431324                0.02439206               -0.08119535               -0.00022514                0.14205701               -0.00001461
               8.65182033                9.05354752               45.84437213                0.50357505                0.07615987                0.07631398               -0.25421139               -0.00019653                0.13398537               -0.00074962
               9.65284125                9.05471937               45.73828598                0.51244072                0.12805553                0.12823308               -0.42724823               -0.00016100                0.11611115               -0.00176124
              10.65438144                9.05588275               45.63199318                0.52636179                0.18004671                0.18015529               -0.60029713               -0.00000966                0.08780551               -0.00340002
              11.65644218                9.05704092               45.52539381                0.54570784                0.23190044                0.23212284               -0.77334363                0.00023208                0.04818988               -0.00642173
              12.65901945                9.05819351               45.41837938                0.78064124                0.25772711                0.28526529               -0.94636407                0.00076223                0.02302041               -0.01358105
               2.65506270               10.04391289               46.47960795                0.89168178               -0.20731581               -0.23638323                0.77983799                0.02710813                0.02352089                0.01087205
               3.65298954               10.04570695               46.37249111                0.77063047               -0.18129085               -0.18204747                0.60683806                0.02619102                0.06565761                0.00318608
               4.65143688               10.04744970               46.26614643                0.75819572               -0.12955580               -0.13090314                0.43405344                0.02538009                0.11943662                0.00247922
               5.65039843               10.04918323               46.16005237                0.75291876               -0.07804502               -0.07892281                0.26117346                0.02575488                0.14133072                0.00141777
               6.64987598               10.05090463               46.05411037                0.75016238               -0.02638676               -0.02701473                0.08824000                0.02580166                0.15279523                0.00056345
               7.64987069               10.05261543               45.94822803                0.74981623                0.02534484                0.02492137               -0.08473011                0.02583835                0.15433246               -0.00022626
               8.65038288               10.05431611               45.84231686                0.75185106                0.07710328                0.07685900               -0.25772765                0.02584602                0.14613420               -0.00104802
               9.65141276               10.05600726               45.73628832                0.75630329                0.12887004                0.12878904               -0.43074632                0.02585149                0.12797032               -0.00202250
              10.65296028               10.05769012               45.63004934                0.76328130                0.18064107                0.18073715               -0.60377777                0.02582892                0.09907022               -0.00336225
              11.65502558               10.05936616               45.52349594                0.77297068                0.23242419                0.23252393               -0.77680894                0.02658518                0.05693907               -0.00547539
              12.65760877               10.06105503               45.41648516                0.89038491                0.25831864                0.28615255               -0.94982667                0.02781789                0.02964368               -0.01184339
               2.75469040                0.06998514               47.50938935                0.89578215               -0.21424216               -0.24162361                0.80118618               -0.02747292                0.01934796               -0.00495942
               3.75254797                0.06653699               47.40075781                0.77790438               -0.18878740               -0.18855561                0.63119247               -0.02596790                0.04562735               -0.00481114
               4.75091465                0.06310810               47.29257727                0.76320855               -0.13798616               -0.13795923                0.46129762               -0.02526124                0.08271220               -0.00208983
               5.74978825                0.05967009               47.18463061                0.75519037               -0.08724500               -0.08691259                0.29138952               -0.02543152                0.10325439               -0.00119945
               6.74916975                0.05622293               47.07682180                0.75076627               -0.03641394               -0.03591969                0.12146699               -0.02545429                0.11414505               -0.00051765
               7.74905997                0.05276524               46.96907159                0.74985538                0.01447128                0.01508792               -0.04846885               -0.02547509                0.11640218                0.00005020
               8.74945917                0.04929665               46.86130431                0.75242973                0.06537286                0.06609669               -0.21842004               -0.02547676                0.11027454                0.00057612
               9.75036743                0.04581676               46.75344571                0.75851512                0.11626679                0.11709885               -0.38838919               -0.02548343                0.09579874                0.00110673
              10.75178451                0.04232432               46.64542085                0.76818961                0.16715974                0.16814224               -0.55837670               -0.02543251                0.07282381                0.00169926
              11.75371062                0.03881862               46.53715245                0.78158691                0.21798803                0.21893900               -0.72837888               -0.02609524                0.04072318                0.00238940
              12.75614427                0.03528102               46.42855305                0.89618826                0.24336457                0.27187693               -0.89839406               -0.02615273                0.01991367                0.00415459
               2.75786382                1.06756891               47.50726096                0.78787034               -0.21370042               -0.24065895                0.79777385               -0.00065672                0.01578803               -0.00383131
               3.75572682                1.06465143               47.39860996                0.54913483               -0.18841690               -0.18820714                0.62777276               -0.00014117                0.04336042               -0.00475205
               4.75409548                1.06172851               47.29043602                0.52172881               -0.13751477               -0.13732241                0.45787414                0.00004650                0.08082116               -0.00187347
               5.75297652                1.05880097               47.18247750                0.50830813               -0.08639259               -0.08636006                0.28794806                0.00014755                0.10031570               -0.00086604
               6.75236763                1.05586373               47.07465459                0.50093695               -0.03540825               -0.03538260                0.11800632                0.00009994                0.11101165               -0.00041407
               7.75226836                1.05291612               46.96688895                0.49942229                0.01555072                0.01561025               -0.05194923                0.00006844                0.11315394               -0.00021284
               8.75267865                1.04995762               46.85910564                0.50370231                0.06652034                0.06660849               -0.22192028                0.00004379                0.10696866               -0.00011790
               9.75359876                1.04698775               46.75123084                0.51383156                0.11753029                0.11760748               -0.39190953                0.00001618                0.09248395               -0.00002550
              10.75502925                1.04400574               46.64319020                0.52998461                0.16862777                0.16862318               -0.56191758               -0.00014539                0.06954172                0.00017937
              11.75697132                1.04100801               46.53490674                0.55246343                0.21955447                0.21969513               -0.73193982               -0.00021040                0.03795832                0.00068211
              12.75942034                1.03799979               46.42630247                0.78529561                0.24490222                0.27192283               -0.90196172                0.00056229                0.01763055                0.00211359
               2.76051221                2.06517196               47.50507097                0.78410740               -0.21266601               -0.23900675                0.79435272               -0.00071378                0.01285830               -0.00268323
               3.75838555                2.06277285               47.39639766                0.54238093               -0.18730837               -0.18745221                0.62435164               -0.00028649                0.04289981               -0.00345959
               4.75676604                2.06036165               47.28825114                0.51701913               -0.13647860               -0.13624660                0.45447435               -0.00010539                0.08187093               -0.00169915
               5.75565598                2.05794289               47.18030093                0.50622871               -0.08547244               -0.08528823                0.28453114                0.00006498                0.09993379               -0.00071273
               6.75505660                2.05551527               47.07247712                0.50034167               -0.03442654               -0.03432025                0.11456213                0.00009562                0.10995071               -0.00035852
               7.75496745                2.05307744               46.96470654                0.49914239                0.01659129                0.01666065               -0.05542425                0.00006333                0.11177777               -0.00032560
               8.75538842                2.05062882               46.85691638                0.50256003                0.06760932                0.06765282               -0.22542725                0.00001261                0.10546378               -0.00045593
               9.75631963                2.04816891               46.74903445                0.51065439                0.11864574                0.11866039               -0.39544883               -0.00008710                0.09101543               -0.00063120
              10.75776134                2.04569678               46.64098808                0.52361653                0.16963648                0.16971132               -0.56548774               -0.00024712                0.06835722               -0.00071650
              11.75971236                2.04321252               46.53270356                0.54177612                0.22053095                0.22101285               -0.73553296               -0.00033719                0.03739097               -0.00049167
              12.76217195                2.04071948               46.42410623                0.77822345                0.24595904                0.27237858               -0.90555499                0.00029674                0.01744483                0.00022861
               2.76264778                3.06278877               47.50288206                0.78384553               -0.21163826               -0.23773945                0.79091689               -0.00061622                0.01321020                0.00229010
               3.76053140                3.06090239               47.39421028                0.54201561               -0.18622267               -0.18655257                0.62092157               -0.00020960                0.04326210                0.00129261
               4.75892333                3.05900357               47.28606587                0.51682361               -0.13536015               -0.13534511                0.45104339               -0.00019491                0.08241059                0.00077071
               5.75782420                3.05709520               47.17812115                0.50610718               -0.08441694               -0.08427738                0.28109246               -0.00006008                0.10043536                0.00055390
               6.75723499                3.05517732               47.07029908                0.50028882               -0.03340626               -0.03327662                0.11110631               -0.00000475                0.11011021                0.00021458
               7.75715607                3.05324933               46.96252750                0.49915727                0.01762217                0.01771753               -0.05890161               -0.00001462                0.11169552               -0.00028088
               8.75758744                3.05131068               46.85473461                0.50264402                0.06864963                0.06872391               -0.22892791               -0.00006618                0.10522596               -0.00091558
               9.75852907                3.04936095               46.74684893                0.51081019                0.11966287                0.11976259               -0.39897258               -0.00015141                0.09070648               -0.00167321
              10.75998069                3.04739997               46.63879877                0.52384445                0.17064060                0.17088194               -0.56903121               -0.00024396                0.06808348               -0.00252054
              11.76194188                3.04542827               46.53051156                0.54207339                0.22158366                0.22209549               -0.73908851               -0.00021242                0.03723468               -0.00340939
              12.76441237                3.04344736               46.42191314                0.77839297                0.24704883                0.27326471               -0.90911166                0.00041039                0.01734911               -0.00432255
               2.76427266                4.06041718               47.50070854                0.78359076               -0.21060987               -0.23662166                0.78747236               -0.00056301                0.01341703                0.00758782
               3.76216656                4.05904179               47.39202794                0.54166319               -0.18516616               -0.18554407                0.61747767               -0.00011485                0.04387607                0.00480947
               4.76056933                4.05765475               47.28388321                0.51663841               -0.13427645               -0.13438438                0.44759774               -0.00015038                0.08355011                0.00313655
               5.75948103                4.05625734               47.17594054                0.50599493               -0.08334805               -0.08328194                0.27764033               -0.00011221                0.10172365                0.00186573
               6.75890237                4.05484974               47.06812151                0.50024666               -0.03236129               -0.03224153                0.10764290               -0.00009016                0.11139103                0.00081052
               7.75883380                4.05343179               46.96035222                0.49918311                0.01865514                0.01877270               -0.06238003               -0.00009770                0.11285000               -0.00022385
               8.75927547                4.05200330               46.85256020                0.50273908                0.06967583                0.06979671               -0.23242315               -0.00012345                0.10619899               -0.00136896
               9.76022732                4.05056416               46.74467355                0.51097535                0.12068338                0.12086094               -0.40248413               -0.00015595                0.09146201               -0.00273175
              10.76168914                4.04911442               46.63662027                0.52408425                0.17167000                0.17198277               -0.57255622               -0.00016716                0.06859815               -0.00440299
              11.76366072                4.04765443               46.52832762                0.54239063                0.22264154                0.22313759               -0.74262211               -0.00011764                0.03749480               -0.00645617
              12.76614197                4.04618477               46.41972136                0.77857812                0.24812537                0.27424594               -0.91264687                0.00046807                0.01747002               -0.00893852
               2.76538729                5.05805634               47.49854300                0.78333728               -0.20957553               -0.23556689                0.78401906               -0.00052915                0.01377491                0.01206131
               3.76329153                5.05719151               47.38984616                0.54131354               -0.18412561               -0.18450884                0.61402211               -0.00003061                0.04487541                0.00766332
               4.76170477                5.05631589               47.28169840                0.51645805               -0.13322850               -0.13336240                0.44414106               -0.00007233                0.08545510                0.00494191
               5.76062696                5.05542956               47.17375799                0.50589084               -0.08230181               -0.08225363                0.27417940               -0.00011349                0.10402361                0.00291121
               6.76005874                5.05453249               47.06594419                0.50021432               -0.03132017               -0.03120118                0.10417453               -0.00014862                0.11386168                0.00129649
               7.76000056                5.05362478               46.95818093                0.49922038                0.01969317                0.01982205               -0.06585846               -0.00016545                0.11528369               -0.00016889
               8.76045260                5.05270661               46.85039378                0.50284418                0.07071360                0.07085345               -0.23591313               -0.00015927                0.10841180               -0.00173182
               9.76141483                5.05177817               46.74250911                0.51114903                0.12172365                0.12192330               -0.40598538               -0.00013020                0.09329228               -0.00362040
              10.76288707                5.05083962               46.63445341                0.52432759                0.17271709                0.17304233               -0.57606755               -0.00008478                0.06990576               -0.00605237
              11.76486917                5.04989102               46.52615266                0.54270983                0.22369869                0.22418323               -0.74614064               -0.00003755                0.03817390               -0.00922047
              12.76736105                5.04893228               46.41753178                0.77876390                0.24918765                0.27527805               -0.91616853                0.00051146                0.01780445               -0.01325650
               2.76599174                6.05570584               47.49637675                0.78308467               -0.20853408               -0.23455707                0.78055671               -0.00049251                0.01430742                0.01546007
               3.76390640                6.05535162               47.38765652                0.54096719               -0.18309541               -0.18346302                0.61055444                0.00005752                0.04638748                0.00948800
               4.76232983                6.05498750               47.27950532                0.51628465               -0.13221228               -0.13228877                0.44067415                0.00000695                0.08835446                0.00598304
               5.76126215                6.05461227               47.17156963                0.50579700               -0.08128262               -0.08118580                0.27071123               -0.00011559                0.10756031                0.00347121
               6.76070418                6.05422572               47.06376550                0.50019398               -0.03028885               -0.03014893                0.10070262               -0.00020503                0.11771863                0.00155810
               7.76065637                6.05382823               46.95601373                0.49926922                0.02073618                0.02086396               -0.06933623               -0.00022847                0.11915541               -0.00012397
               8.76111890                6.05342037               46.84823691                0.50296000                0.07176656                0.07188796               -0.23939807               -0.00019120                0.11200776               -0.00190723
               9.76209171                6.05300262               46.74035858                0.51133062                0.12278487                0.12295017               -0.40947774               -0.00010386                0.09632878               -0.00412149
              10.76357460                6.05257527               46.63230239                0.52457684                0.17378009                0.17407094               -0.57956701               -0.00000108                0.07211271               -0.00712019
              11.76556731                6.05213810               46.52399177                0.54303175                0.22475396                0.22523505               -0.74964615                0.00004672                0.03933242               -0.01125435
              12.76806968                6.05169033               46.41534981                0.77894993                0.25023702                0.27635837               -0.91967928                0.00055912                0.01838456               -0.01678810
               2.76608588                7.05336520               47.49419734                0.78283209               -0.20748581               -0.23362100                0.77708336               -0.00043270                0.01508250                0.01732874
               3.76401102                7.05352225               47.38544724                0.54062357               -0.18208083               -0.18238360                0.60707307                0.00015994                0.04859574                0.00988262
               4.76244426                7.05367011               47.27729519                0.51611936               -0.13122934               -0.13115350                0.43719640                0.00004728                0.09256322                0.00598933
               5.76138643                7.05380585               47.16936998                0.50571432               -0.08027936               -0.08009451                0.26723581               -0.00017051                0.11264853                0.00341039
               6.76083867                7.05392952               47.06158295                0.50018749               -0.02925488               -0.02909936                0.09722752               -0.00027807                0.12324067                0.00153291
               7.76080133                7.05404206               46.95385069                0.49933303                0.02178574                0.02189809               -0.07281280               -0.00028996                0.12471794               -0.00008487
               8.76127439                7.05414437               46.84609214                0.50308899                0.07282619                0.07290989               -0.24287757               -0.00023010                0.11724095               -0.00180999
               9.76225786                7.05423718               46.73822711                0.51152287                0.12385956                0.12395053               -0.41296090               -0.00010246                0.10083414               -0.00402842
              10.76375158                7.05432104               46.63017503                0.52483217                0.17485901                0.17506121               -0.58305376                0.00007073                0.07545556               -0.00722492
              11.76575504                7.05439572               46.52185484                0.54335470                0.22580897                0.22628273               -0.75313795                0.00015033                0.04111493               -0.01200913
              12.76826776                7.05445945               46.41318614                0.77913606                0.25127202                0.27750961               -0.92317899                0.00062976                0.01929035               -0.01891032
               2.76566899                8.05103342               47.49198697                0.78257829               -0.20643046               -0.23285544                0.77359459               -0.00032344                0.01623613                0.01703405
               3.76360468                8.05170395               47.38320186                0.54028424               -0.18109059               -0.18117107                0.60357383                0.00021795                0.05181562                0.00822635
               4.76204717                8.05236443               47.27505650                0.51596644               -0.13026724               -0.12998083                0.43370512               -0.00007177                0.09857830                0.00478546
               5.76099934                8.05301038               47.16715250                0.50564773               -0.07923880               -0.07904748                0.26375183               -0.00028605                0.11972193                0.00270243
               6.76046240                8.05364373               47.05939367                0.50019859               -0.02818094               -0.02807115                0.09374880               -0.00033499                0.13076282                0.00121691
               7.76043572                8.05426620               46.95169198                0.49941473                0.02283940                0.02292728               -0.07628806               -0.00031056                0.13227654               -0.00004564
               8.76091919                8.05487857               46.84396275                0.50323560                0.07386344                0.07393933               -0.24635046               -0.00025559                0.12445635               -0.00140540
               9.76191299                8.05548163               46.73612179                0.51172855                0.12491404                0.12496216               -0.41643249               -0.00013986                0.10723657               -0.00321890
              10.76341747                8.05607649               46.62808312                0.52509568                0.17594587                0.17601574               -0.58652545                0.00006856                0.08038474               -0.00600396
              11.76543191                8.05666375               46.51975792                0.54368004                0.22686742                0.22727258               -0.75661255                0.00025752                0.04382587               -0.01069802
              12.76795482                8.05724053               46.41105867                0.77932175                0.25229110                0.27880207               -0.92666243                0.00074782                0.02070560               -0.01868854
               2.76473835                9.04870809               47.48972049                0.78232384               -0.20539878               -0.23244079                0.77008223               -0.00037578                0.01787081                0.01257165
               3.76268436                9.04989882               47.38089620                0.53995193               -0.18009813               -0.17972722                0.60004836               -0.00000331                0.05669634                0.00421823
               4.76113639                9.05107049               47.27277695                0.51583120               -0.12914772               -0.12903449                0.43019600               -0.00025450                0.10731185                0.00262450
               5.76010141                9.05222490               47.16491117                0.50560209               -0.07801167               -0.07806651                0.26025634               -0.00032689                0.12926382                0.00147727
               6.75957616                9.05336809               47.05719507                0.50023248               -0.02705632               -0.02706459                0.09026479               -0.00025582                0.14059420                0.00066861
               7.75956028                9.05450061               46.94953781                0.49951916                0.02388405                0.02396145               -0.07976214               -0.00022081                0.14212158               -0.00001342
               8.76005384                9.05562316               46.84185196                0.50340260                0.07484281                0.07499445               -0.24981550               -0.00019269                0.13402307               -0.00075471
               9.76105714                9.05673642               46.73405022                0.51195334                0.12584974                0.12602474               -0.41988940               -0.00015777                0.11612546               -0.00177290
              10.76257083                9.05784136               46.62604171                0.52537374                0.17695063                0.17705824               -0.58997564               -0.00000909                0.08780380               -0.00341930
              11.76459615                9.05894117               46.51772665                0.54401081                0.22791675                0.22813631               -0.76005978                0.00022848                0.04818724               -0.00645202
              12.76712917                9.06003549               46.40899679                0.77950637                0.25330146                0.28036823               -0.93011811                0.00074927                0.02301179               -0.01363422
               2.76328000               10.04638460               47.48733993                0.89107783               -0.20377893               -0.23234870                0.76652765                0.02664456                0.02356696                0.01091159
               3.76124221               10.04810940               47.37850787                0.76986953               -0.17819934               -0.17894239                0.59649023                0.02574146                0.06582710                0.00319695
               4.75971601               10.04978374               47.27045011                0.75787664               -0.12735039               -0.12867540                0.42666481                0.02494469                0.11967820                0.00249291
               5.75869520               10.05144905               47.16264202                0.75279234               -0.07672211               -0.07758472                0.25674486                0.02531409                0.14150702                0.00142763
               6.75818157               10.05310244               47.05498546                0.75013405               -0.02594829               -0.02656532                0.08677259                0.02536014                0.15293146                0.00056878
               7.75817624               10.05474543               46.94738819                0.74980091                0.02489766                0.02448162               -0.08323570                0.02539622                0.15443753               -0.00022600
               8.75867952               10.05637846               46.83976182                0.75176359                0.07576993                0.07553005               -0.25327103                0.02540378                0.14621204               -0.00105339
               9.75969164               10.05800213               46.73201788                0.75605774                0.12665042                0.12657108               -0.42332712                0.02540930                0.12802421               -0.00203349
              10.76121253               10.05961766               46.62406336                0.76278450                0.17753520                0.17763000               -0.59339607                0.02538739                0.09910634               -0.00337971
              11.76324234               10.06122648               46.51579442                0.77211830                0.22843167                0.22853060               -0.76346490                0.02613039                0.05696687               -0.00550176
              12.76578117               10.06284789               46.40706824                0.88981500                0.25388263                0.28123999               -0.93352001                0.02734099                0.02965906               -0.01189100
               2.86436562                0.07208097               48.51733145                0.89502880               -0.21050389               -0.23740643                0.78720170               -0.02699223                0.01939251               -0.00496554
               3.86226058                0.06865383               48.40701481                0.77688097               -0.18549457               -0.18526640                0.62018274               -0.02551320                0.04573797               -0.00480941
               4.86065573                0.06524564               48.29715015                0.76271056               -0.13558246               -0.13555607                0.45326089               -0.02481908                0.08287830               -0.00207674
               5.85954893                0.06182847               48.18751925                0.75498209               -0.08572935               -0.08540256                0.28632601               -0.02498674                0.10341593               -0.00118893
               6.85894114                0.05840230               48.07802605                0.75071723               -0.03578771               -0.03530200                0.11937711               -0.02500915                0.11429813               -0.00051107
               7.85883318                0.05496580               47.96859131                0.74983838                0.01420720                0.01481308               -0.04758501               -0.02502955                0.11654248                0.00005263
               8.85922529                0.05151858               47.85913937                0.75232074                0.06421821                0.06492933               -0.21456226               -0.02503118                0.11039591                0.00057428
               9.86011754                0.04806026               47.74959591                0.75818812                0.11422172                0.11503910               -0.38155717               -0.02503774                0.09589581                0.00110052
              10.86150972                0.04458961               47.63988602                0.76751474                0.16422427                0.16518936               -0.54857021               -0.02498764                0.07289415                0.00168794
              11.86340203                0.04110595               47.52993243                0.78042664                0.21416308                0.21509721               -0.71559756               -0.02563864                0.04076539                0.00237387
              12.86579298                0.03759096               47.41964772                0.89541283                0.23909543                0.26710873               -0.88263757               -0.02569491                0.01993130                0.00414871
               2.86752284                1.06970691               48.51516923                0.78648549               -0.20997193               -0.23645856                0.78385015               -0.00064476                0.01581218               -0.00382279
               3.86542312                1.06680117               48.40483307                0.54731109               -0.18513088               -0.18492439                0.61682367               -0.00013848                0.04345232               -0.00473607
               4.86382022                1.06389008               48.29497497                0.52088972               -0.13511933               -0.13493058                0.44989807                0.00004562                0.08096336               -0.00183747
               5.86272073                1.06097445               48.18533203                0.50795909               -0.08489159               -0.08486004                0.28294561                0.00014460                0.10044553               -0.00083614
               6.86212239                1.05804928               48.07582453                0.50085402               -0.03479947               -0.03477454                0.11597765                0.00009761                0.11113206               -0.00039601
               7.86202474                1.05511393               47.96637418                0.49939403                0.01526774                0.01532612               -0.05100381                0.00006668                0.11326118               -0.00020833
               8.86242775                1.05216788               47.85690600                0.50352054                0.06534538                0.06543209               -0.21800053                0.00004248                0.10705665               -0.00012752
               9.86333165                1.04921065               47.74734615                0.51328576                0.11546268                0.11553883               -0.38501530                0.00001537                0.09254709               -0.00004943
              10.86473700                1.04624151               47.63762026                0.52885467                0.16566595                0.16566196               -0.55204843               -0.00014330                0.06957810                0.00014151
              11.86664497                1.04325692               47.52765142                0.55050838                0.21570148                0.21584027               -0.71909543               -0.00020681                0.03797375                0.00063460
              12.86905103                1.04026205               47.41736178                0.78398530                0.24060574                0.26715364               -0.88614241                0.00055274                0.01762820                0.00207454
               2.87016421                2.06735180               48.51294534                0.78284800               -0.20895578               -0.23483535                0.78048963               -0.00070104                0.01287342               -0.00266767
               3.86807465                2.06495535               48.40258686                0.54078369               -0.18404185               -0.18418321                0.61346322               -0.00028143                0.04299311               -0.00343378
               4.86648337                2.06254703               48.29275640                0.51633877               -0.13410143               -0.13387393                0.44655889               -0.00010371                0.08200598               -0.00165579
               5.86539262                2.06013127               48.18312159                0.50594777               -0.08398767               -0.08380737                0.27958943                0.00006338                0.10003216               -0.00067442
               6.86480362                2.05770681               48.07361293                0.50027514               -0.03383497               -0.03373112                0.11259439                0.00009331                0.11003276               -0.00033476
               7.86471592                2.05527232               47.96415732                0.49911871                0.01628998                0.01635788               -0.05441735                0.00006144                0.11184435               -0.00032024
               8.86512941                2.05282723               47.85468198                0.50241363                0.06641507                0.06645797               -0.22144546                0.00001164                0.10551031               -0.00047034
               9.86604422                2.05037103               47.74511467                0.51021576                0.11655829                0.11657321               -0.38849196               -0.00008621                0.09103758               -0.00066535
              10.86746058                2.04790285               47.63538276                0.52270330                0.16665669                0.16673103               -0.55555553               -0.00024332                0.06835706               -0.00076772
              11.86937736                2.04542276               47.52541263                0.54018656                0.21666073                0.21713492               -0.72262551               -0.00033148                0.03738486               -0.00055256
              12.87179380                2.04293403               47.41512992                0.77715413                0.24164402                0.26760134               -0.88967285                0.00029149                0.01743211                0.00017480
               2.87230173                3.06501020               48.51072237                0.78259573               -0.20794620               -0.23359055                0.77711449               -0.00060523                0.01322599                0.00231267
               3.87022227                3.06311751               48.40036549                0.54043247               -0.18297534               -0.18329962                0.61009404               -0.00020596                0.04335265                0.00132193
               4.86864222                3.06121260               48.29053713                0.51615064               -0.13300276               -0.13298842                0.44318878               -0.00019167                0.08253578                0.00080209
               5.86756221                3.05929830               48.18090773                0.50583053               -0.08295078               -0.08281433                0.27621143               -0.00005931                0.10051578                0.00058163
               6.86698321                3.05737466               48.07140064                0.50022390               -0.03283272               -0.03270594                0.10919974               -0.00000512                0.11016757                0.00023198
               7.86690556                3.05544108               47.96194382                0.49913287                0.01730262                0.01739606               -0.05783322               -0.00001497                0.11173418               -0.00027796
               8.86732926                3.05349704               47.85246551                0.50249506                0.06743701                0.06751012               -0.22488433               -0.00006560                0.10524371               -0.00092879
               9.86825430                3.05154211               47.74289423                0.51036602                0.11755741                0.11765587               -0.39195334               -0.00014913                0.09070179               -0.00170219
              10.86968041                3.04957613               47.63315833                0.52292404                0.16764315                0.16788090               -0.55903644               -0.00023987                0.06806184               -0.00256205
              11.87160716                3.04759962               47.52318539                0.54047363                0.21769503                0.21819832               -0.72611864               -0.00020876                0.03721602               -0.00345708
              12.87403431                3.04561407               47.41290158                0.77731807                0.24271470                0.26847200               -0.89316663                0.00040313                0.01732916               -0.00436747
               2.87393749                4.06267999               48.50851471                0.78235022               -0.20693600               -0.23249256                0.77373104               -0.00055312                0.01343200                0.00762046
               3.87186813                4.06128935               48.39814901                0.54009273               -0.18193751               -0.18230894                0.60671110               -0.00011294                0.04396453                0.00484073
               4.87029874                4.05988726               48.28832031                0.51597177               -0.13193822               -0.13204460                0.43980399               -0.00014783                0.08366960                0.00316581
               5.86922937                4.05847498               48.17869290                0.50572229               -0.08190084               -0.08183644                0.27282044               -0.00011035                0.10179377                0.00188947
               6.86866073                4.05705269               48.06918874                0.50018306               -0.03180624               -0.03168911                0.10579758               -0.00008888                0.11143374                0.00082475
               7.86859324                4.05562024               47.95973406                0.49915799                0.01831734                0.01843259               -0.06125011               -0.00009635                0.11287112               -0.00022230
               8.86902707                4.05417743               47.85025646                0.50258579                0.06844511                0.06856395               -0.22831776               -0.00012169                0.10619850               -0.00138146
               9.86996215                4.05272415               47.74068404                0.51052531                0.11856000                0.11873477               -0.39540299               -0.00015341                0.09144046               -0.00275798
              10.87139827                4.05126047               47.63094489                0.52315473                0.16865440                0.16896212               -0.56249913               -0.00016413                0.06856358               -0.00444106
              11.87333524                4.04978672               47.52096643                0.54077944                0.21873418                0.21922185               -0.72958956               -0.00011566                0.03746934               -0.00650186
              12.87577296                4.04830347               47.41067476                0.77749629                0.24377223                0.26943590               -0.89663948                0.00045956                0.01744665               -0.00898654
               2.87507194                5.06036035               48.50631494                0.78210634               -0.20591983               -0.23145641                0.77033854               -0.00051988                0.01378978                0.01210385
               3.87301275                5.05947133               48.39593298                0.53975644               -0.18091526               -0.18129194                0.60331625               -0.00003022                0.04496437                0.00769759
               4.87145364                5.05857171               48.28610123                0.51579910               -0.13090877               -0.13104058                0.43640812               -0.00007119                0.08557432                0.00497169
               5.87039457                5.05766157               48.17647604                0.50562241               -0.08087316               -0.08082629                0.26942075               -0.00011155                0.10409033                0.00293402
               6.86983618                5.05674088               48.06697704                0.50015238               -0.03078360               -0.03066714                0.10239058               -0.00014611                0.11389792                0.00130952
               7.86977890                5.05580974               47.95752830                0.49919395                0.01933694                0.01946341               -0.06466708               -0.00016267                0.11529636               -0.00016784
               8.87022291                5.05486832               47.84805544                0.50268742                0.06946453                0.06960202               -0.23174605               -0.00015663                0.10840222               -0.00174403
               9.87116819                5.05391681               47.73848490                0.51069256                0.11958201                0.11977835               -0.39884257               -0.00012802                0.09326221               -0.00364585
              10.87261455                5.05295537               47.62874323                0.52339038                0.16968303                0.17000280               -0.56594816               -0.00008325                0.06986453               -0.00609019
              11.87456185                5.05198406               47.51875659                0.54108727                0.21977256                0.22024881               -0.73304539               -0.00003686                0.03814488               -0.00926865
              12.87701001                5.05100279               47.40845027                0.77767534                0.24481566                0.27044970               -0.90009895                0.00050235                0.01777914               -0.01331267
               2.87570514                6.05805086               48.50411438                0.78186233               -0.20489688               -0.23046451                0.76693772               -0.00048383                0.01432341                0.01551103
               3.87365618                6.05766352               48.39370897                0.53942219               -0.17990331               -0.18026467                0.59991018                0.00005636                0.04648055                0.00952416
               4.87210708                6.05726645               48.28387380                0.51563230               -0.12991052               -0.12998597                0.43300264                0.00000659                0.08847961                0.00601320
               5.87105797                6.05685846               48.17425331                0.50553225               -0.07987201               -0.07977732                0.26601381               -0.00011367                0.10763051                0.00349362
               6.87050964                6.05643935               48.06476394                0.50013323               -0.02977055               -0.02963350                0.09898008               -0.00020136                0.11775618                0.00157077
               7.87046255                6.05600951               47.95532662                0.49924227                0.02036150                0.02048690               -0.06808335               -0.00022428                0.11916764               -0.00012292
               8.87091687                6.05556947               47.84586403                0.50280021                0.07049885                0.07061825               -0.23516938               -0.00018765                0.11199680               -0.00191924
               9.87187253                6.05511972               47.73629975                0.51086833                0.12062446                0.12078712               -0.40227322               -0.00010210                0.09629736               -0.00414691
              10.87332936                6.05466053               47.62655752                0.52363009                0.17072729                0.17101335               -0.56938602               -0.00000121                0.07207087               -0.00715864
              11.87528708                6.05419170               47.51656095                0.54139736                0.22080922                0.22128211               -0.73648906                0.00004605                0.03930381               -0.01130598
              12.87774554                6.05371247               47.40623350                0.77785464                0.24584643                0.27151090               -0.90354743                0.00054949                0.01836024               -0.01685386
               2.87583696                7.05575106               48.50190054                0.78161898               -0.20386721               -0.22954504                0.76352592               -0.00042512                0.01510100                0.01738502
               3.87379829                7.05586603               48.39146518                0.53909182               -0.17890676               -0.17920434                0.59649050                0.00015703                0.04869688                0.00991748
               4.87225883                7.05597199               48.28162920                0.51547377               -0.12894502               -0.12887083                0.42958648                0.00004622                0.09270141                0.00601772
               5.87121939                7.05606602               48.17201921                0.50545356               -0.07888648               -0.07870538                0.26259986               -0.00016758                0.11273014                0.00343168
               6.87068110                7.05614821               48.06254694                0.50012839               -0.02875482               -0.02860252                0.09556645               -0.00027295                0.12328766                0.00154512
               7.87064429                7.05621947               47.95312913                0.49930516                0.02139255                0.02150273               -0.07149846               -0.00028444                0.12473778               -0.00008360
               8.87110895                7.05628068               47.84368478                0.50292617                0.07153966                0.07162212               -0.23858730               -0.00022563                0.11723646               -0.00182086
               9.87207509                7.05633255               47.73413376                0.51105437                0.12167998                0.12176986               -0.40569474               -0.00010048                0.10080891               -0.00405212
              10.87354255                7.05637564               47.62439559                0.52387668                0.17178719                0.17198640               -0.57281184                0.00006940                0.07541918               -0.00726218
              11.87551083                7.05640970               47.51438941                0.54170912                0.22184576                0.22231158               -0.73991994                0.00014769                0.04108943               -0.01206219
              12.87797946                7.05643301               47.40403514                0.77803395                0.24686328                0.27264201               -0.90698546                0.00061883                0.01926757               -0.01898349
               2.87546670                8.05345996               48.49965560                0.78137449               -0.20283050               -0.22879300                0.76009858               -0.00031778                0.01625798                0.01708942
               3.87343839                8.05407943               48.38918511                0.53876432               -0.17793412               -0.17801298                0.59305289                0.00021397                0.05192933                0.00825384
               4.87190801                8.05468903               48.27935589                0.51532725               -0.12800002               -0.12771893                0.42615685               -0.00007077                0.09873813                0.00480903
               5.87087839                8.05528435               48.16976720                0.50539128               -0.07786430               -0.07767694                0.25917742               -0.00028097                0.11982391                0.00272063
               6.87035073                8.05586730               48.06032318                0.50014091               -0.02769988               -0.02759248                0.09214921               -0.00032871                0.13082802                0.00122753
               7.87032439                8.05643956               47.95093597                0.49938562                0.02242751                0.02251375               -0.07491230               -0.00030459                0.13231310               -0.00004416
               8.87079928                8.05700191               47.84152096                0.50306831                0.07255855                0.07263340               -0.24199886               -0.00025055                0.12446755               -0.00141391
               9.87177556                8.05755512               47.73199404                0.51125456                0.12271580                0.12276364               -0.40910489               -0.00013685                0.10722562               -0.00323838
              10.87325359                8.05810026               47.62226928                0.52413184                0.17285476                0.17292416               -0.57622191                0.00006769                0.08036018               -0.00603589
              11.87523266                8.05863793               47.51225805                0.54202273                0.22288550                0.22328417               -0.74333335                0.00025308                0.04380769               -0.01074540
              12.87771130                8.05916531               47.40187313                0.77821271                0.24786445                0.27391186               -0.91040794                0.00073468                0.02068696               -0.01875980
               2.87459168                9.05117520               48.49735430                0.78112889               -0.20181710               -0.22838587                0.75664822               -0.00036925                0.01789788                0.01261254
               3.87257351                9.05230577               48.38684451                0.53844554               -0.17695925               -0.17659416                0.58958970               -0.00000383                0.05682984                0.00423110
               4.87105249                9.05341761               48.27704156                0.51519910               -0.12690029               -0.12678958                0.42270993               -0.00025030                0.10750458                0.00263929
               5.87003550                9.05451248               48.16749122                0.50534943               -0.07665895               -0.07671332                0.25574388               -0.00032100                0.12939601                0.00148861
               6.86951931                9.05559636               48.05809005                0.50017632               -0.02659537               -0.02660366                0.08872681               -0.00025098                0.14068774                0.00067534
               7.86950359                9.05666975               47.94874736                0.49948883                0.02345359                0.02352968               -0.07832495               -0.00021653                0.14218532               -0.00001222
               8.86998838                9.05773335               47.83937582                0.50323240                0.07352071                0.07366989               -0.24540279               -0.00018882                0.13406043               -0.00075970
               9.87097401                9.05878782               47.72988820                0.51147352                0.12363518                0.12380743               -0.41250082               -0.00015440                0.11613933               -0.00178479
              10.87246109                9.05983412               47.62019367                0.52440136                0.17384179                0.17394815               -0.57961098               -0.00000829                0.08780171               -0.00343880
              11.87445084                9.06087539               47.51019261                0.54234215                0.22391608                0.22413269               -0.74671921                0.00022498                0.04818429               -0.00648138
              12.87693941                9.06191125               47.39977701                0.77839095                0.24885670                0.27545002               -0.91380176                0.00073616                0.02300271               -0.01368497
               2.87319817               10.04889225               48.49493850                0.89048355               -0.20022565               -0.22829559                0.75315631                0.02617892                0.02361323                0.01094974
               3.87119591               10.05054755               48.38442091                0.76912060               -0.17509334               -0.17582289                0.58609423                0.02528993                0.06599461                0.00320796
               4.86969630               10.05215324               48.27467973                0.75756285               -0.12513446               -0.12643706                0.41924102                0.02450764                0.11991585                0.00250743
               5.86869322               10.05375008               48.16518727                0.75266750               -0.07539275               -0.07624003                0.25229466                0.02487153                0.14168012                0.00143762
               6.86818844               10.05533523               48.05584582                0.75010646               -0.02550732               -0.02611318                0.08529641                0.02491672                0.15306548                0.00057419
               7.86818307               10.05691016               47.94656331                0.74978575                0.02444915                0.02404069               -0.08173715                0.02495219                0.15454102               -0.00022578
               8.86867743               10.05847531               47.83725144                0.75167760                0.07443154                0.07419603               -0.24879726                0.02495971                0.14628857               -0.00105888
               9.86967170               10.06003126               47.72782178                0.75581623                0.12442201                0.12434410               -0.41587791                0.02496524                0.12807697               -0.00204502
              10.87116587               10.06157922               47.61818141                0.76229549                0.17441649                0.17450975               -0.58297112                0.02494394                0.09914229               -0.00339742
              11.87316003               10.06312059               47.50822664                0.77127983                0.22442196                0.22452000               -0.75006344                0.02567359                0.05699515               -0.00552713
              12.87565431               10.06467431               47.39781476                0.88925515                0.24942720                0.27630603               -0.91714205                0.02686178                0.02967534               -0.01193591
               2.97571152                0.07421026               49.52513338                0.89428684               -0.20674876               -0.23317043                0.77315470               -0.02650940                0.01943682               -0.00497095
               3.97364403                0.07080429               49.41316147                0.77587362               -0.18218684               -0.18196236                0.60912319               -0.02505652                0.04584692               -0.00480746
               4.97206778                0.06741693               49.30164249                0.76221973               -0.13316779               -0.13314198                0.44518751               -0.02437506                0.08304169               -0.00206375
               5.97098067                0.06402076               49.19035713                0.75477705               -0.08420664               -0.08388552                0.28123897               -0.02454003                0.10357494               -0.00117847
               6.97038365                0.06061574               49.07920935                0.75066818               -0.03515816               -0.03468107                0.11727628               -0.02456202                0.11444878               -0.00050458
               7.97027751                0.05720057               48.96811989                0.74982203                0.01394271                0.01453764               -0.04669941               -0.02458208                0.11668040                0.00005500
               8.97066250                0.05377488               48.85701307                0.75221370                0.06305923                0.06375745               -0.21068975               -0.02458370                0.11051517                0.00057262
               9.97153869                0.05033828               48.74581456                0.75786646                0.11216836                0.11297094               -0.37469749               -0.02459012                0.09599101                0.00109435
              10.97290587                0.04688959               48.63444945                0.76685041                0.16127665                0.16222428               -0.53872325               -0.02454102                0.07296325                0.00167768
              11.97476423                0.04342811               48.52284049                0.77928417                0.21032217                0.21123950               -0.70276303               -0.02518017                0.04080756                0.00235953
              12.97711231                0.03993588               48.41090030                0.89464926                0.23480843                0.26232063               -0.86681529               -0.02523502                0.01994979                0.00414212
               2.97885239                1.07187856               49.52293796                0.78512261               -0.20622668               -0.23223950                0.76986418               -0.00063266                0.01583582               -0.00381408
               3.97679013                1.06898467               49.41094644                0.54551622               -0.18183003               -0.18162694                0.60582528               -0.00013580                0.04354256               -0.00472011
               4.97521579                1.06608551               49.29943398                0.52006420               -0.13271296               -0.13252787                0.44188571                0.00004462                0.08110314               -0.00180177
               5.97413587                1.06318191               49.18813641                0.50761584               -0.08338354               -0.08335296                0.27791971                0.00014165                0.10057328               -0.00080665
               6.97354812                1.06026893               49.07697414                0.50077246               -0.03418746               -0.03416325                0.11393826                0.00009536                0.11125050               -0.00037826
               7.97345212                1.05734594               48.96586887                0.49936582                0.01498417                0.01504137               -0.05005640                0.00006490                0.11336668               -0.00020390
               8.97384781                1.05441245               48.85474563                0.50334120                0.06416600                0.06425120               -0.21406592                0.00004112                0.10714311               -0.00013693
               9.97473544                1.05146799               48.74353054                0.51274862                0.11338670                0.11346179               -0.37809311                0.00001462                0.09260927               -0.00007305
              10.97611554                1.04851183               48.63214923                0.52774062                0.16269189                0.16268852               -0.54213851               -0.00014116                0.06961426                0.00010455
              11.97798928                1.04554051               48.52052483                0.54858490                0.21183255                0.21196944               -0.70619790               -0.00020316                0.03798878                0.00058814
              12.98035219                1.04255909               48.40857962                0.78269669                0.23629147                0.26236453               -0.87025713                0.00054321                0.01762529                0.00203574
               2.98148665                2.06956547               49.52068077                0.78160870               -0.20522897               -0.23064548                0.76656490               -0.00068831                0.01288821               -0.00265246
               3.97943436                2.06717175               49.40866693                0.53921331               -0.18076065               -0.18089963                0.60252622               -0.00027639                0.04308493               -0.00340840
               4.97787143                2.06476638               49.29718232                0.51567001               -0.13171340               -0.13149043                0.43860738               -0.00010197                0.08213862               -0.00161303
               5.97680009                2.06235370               49.18589271                0.50567103               -0.08249589               -0.08231947                0.27462431                0.00006179                0.10012866               -0.00063679
               6.97622152                2.05993248               49.07472901                0.50020914               -0.03324027               -0.03313881                0.11061618                0.00009091                0.11011344               -0.00031146
               7.97613528                2.05750139               48.96361819                0.49909544                0.01598800                0.01605444               -0.05340825                0.00005955                0.11190989               -0.00031500
               8.97654128                2.05505990               48.85248747                0.50226962                0.06521637                0.06525863               -0.21744881                0.00001064                0.10555603               -0.00048452
               9.97743961                2.05260752               48.74126461                0.50978405                0.11446246                0.11447766               -0.38150718               -0.00008533                0.09105941               -0.00069872
              10.97883052                2.05014336               48.62987697                0.52180595                0.16366462                0.16373843               -0.54558243               -0.00023924                0.06835712               -0.00081846
              11.98071290                2.04766750               48.51825105                0.53862400                0.21277444                0.21324084               -0.70966453               -0.00032560                0.03737875               -0.00061307
              12.98308601                2.04518317               48.40631277                0.77610377                0.23731105                0.26280412               -0.87372419                0.00028612                0.01741927                0.00012197
               2.98362607                3.06726565               49.51842435                0.78136642               -0.20423747               -0.22942314                0.76325036               -0.00059435                0.01324146                0.00233485
               3.98158370                3.06536668               49.40641217                0.53887532               -0.17971330               -0.18003198                0.59921752               -0.00020226                0.04344170                0.00135054
               4.98003181                3.06345571               49.29492965                0.51548869               -0.13063460               -0.13062089                0.43529814               -0.00018827                0.08265879                0.00083284
               5.97897100                3.06153552               49.18364538                0.50555784               -0.08147782               -0.08134435                0.27130758               -0.00005849                0.10059481                0.00060901
               6.97840225                3.05960615               49.07248307                0.50015953               -0.03225610               -0.03213216                0.10728292               -0.00000552                0.11022401                0.00024904
               7.97832588                3.05766703               48.96137084                0.49910896                0.01698241                0.01707386               -0.05676243               -0.00001525                0.11177228               -0.00027505
               8.97874190                3.05571763               48.85023692                0.50234774                0.06621981                0.06629174               -0.22082542               -0.00006496                0.10526137               -0.00094176
               9.97965028                3.05375754               48.73900987                0.50992828                0.11544360                0.11554072               -0.38490614               -0.00014697                0.09069694               -0.00173051
              10.98105077                3.05178660               48.62761804                0.52201809                0.16463346                0.16486744               -0.54900069               -0.00023576                0.06804012               -0.00260274
              11.98294295                3.04980533               48.51598919                0.53890119                0.21379014                0.21428479               -0.71309436               -0.00020487                0.03719794               -0.00350412
              12.98532657                3.04781517               48.40404981                0.77626186                0.23836236                0.26365923               -0.87715488                0.00039594                0.01731029               -0.00441179
               2.98527271                4.06497701               49.51618316                0.78112967               -0.20324541               -0.22834489                0.75992776               -0.00054318                0.01344641                0.00765234
               3.98324026                4.06357111               49.40416216                0.53854817               -0.17869413               -0.17905910                0.59589539               -0.00011101                0.04405147                0.00487116
               4.98169883                4.06215396               49.29267929                0.51531708               -0.12958926               -0.12969402                0.43197439               -0.00014533                0.08378724                0.00319453
               5.98064847                4.06072681               49.18139695                0.50545443               -0.08044689               -0.08038403                0.26797776               -0.00010852                0.10186254                0.00191297
               6.98008989                4.05928983               49.07023746                0.50011970               -0.03124822               -0.03113365                0.10394220               -0.00008748                0.11147562                0.00083876
               7.98002351                4.05784287               48.95912722                0.49913277                0.01797879                0.01809166               -0.06011759               -0.00009492                0.11289206               -0.00022069
               8.98044947                4.05638574               48.84799385                0.50243614                0.06720971                0.06732646               -0.22419666               -0.00011979                0.10619807               -0.00139390
               9.98136770                4.05491833               48.73676549                0.51008222                0.11642807                0.11660001               -0.38829315               -0.00015090                0.09141937               -0.00278430
              10.98277803                4.05344071               48.62537029                0.52223977                0.16562659                0.16592906               -0.55240105               -0.00016130                0.06852951               -0.00447819
              11.98468023                4.05195320               48.51373583                0.53919591                0.21481067                0.21528974               -0.71650283               -0.00011339                0.03744393               -0.00654630
              12.98707424                4.05045636               48.40178857                0.77643375                0.23940082                0.26460558               -0.88056448                0.00045144                0.01742328               -0.00903385
               2.98642700                5.06269875               49.51394977                0.78089441               -0.20224761               -0.22732750                0.75659668               -0.00051057                0.01380459                0.01214545
               3.98440453                5.06178549               49.40191249                0.53822401               -0.17769036               -0.17806050                0.59256196               -0.00002989                0.04505211                0.00773113
               4.98287320                5.06086183               49.29042656                0.51515038               -0.12857840               -0.12870813                0.42863984               -0.00007016                0.08569192                0.00500066
               5.98183296                5.05992784               49.17914640                0.50535842               -0.07943773               -0.07939208                0.26463934               -0.00010967                0.10415585                0.00295628
               6.98128444                5.05898348               49.06799200                0.50009130               -0.03024407               -0.03013010                0.10059666               -0.00014355                0.11393339                0.00132243
               7.98122808                5.05802886               48.95688759                0.49916819                0.01897995                0.01910387               -0.06347279               -0.00015983                0.11530872               -0.00016682
               8.98166404                5.05706416               48.84575886                0.50253391                0.06821074                0.06834580               -0.22756317               -0.00015394                0.10839241               -0.00175615
               9.98259229                5.05608954               48.73453226                0.51024345                0.11743166                0.11762475               -0.39167082               -0.00012577                0.09323286               -0.00367122
              10.98401267                5.05510518               48.62313444                0.52246687                0.16663670                0.16695094               -0.55578805               -0.00008175                0.06982460               -0.00612758
              11.98592503                5.05411112               48.51149175                0.53949220                0.21583030                0.21629815               -0.71989630               -0.00003624                0.03811632               -0.00931594
              12.98832928                5.05310728               48.39952980                0.77660594                0.24042530                0.26560102               -0.88396105                0.00049325                0.01775410               -0.01336792
               2.98708902                6.06043046               49.51171550                0.78065973               -0.20124323               -0.22635363                0.75325759               -0.00047519                0.01433919                0.01556163
               3.98507658                6.06000990               49.39965473                0.53790269               -0.17669675               -0.17705185                0.58921755                0.00005510                0.04657201                0.00955998
               4.98355508                6.05957980               49.28816538                0.51499060               -0.12759818               -0.12767255                0.42529576                0.00000626                0.08860279                0.00604281
               5.98252462                6.05913897               49.17688991                0.50527171               -0.07845464               -0.07836210                0.26129405               -0.00011162                0.10769980                0.00351567
               6.98198599                6.05868723               49.06574511                0.50007329               -0.02924930               -0.02911516                0.09724788               -0.00019766                0.11779312                0.00158333
               7.98193964                6.05822495               48.95465206                0.49921560                0.01998596                0.02010887               -0.06682734               -0.00022015                0.11917953               -0.00012190
               8.98238571                6.05775265               48.84353352                0.50264291                0.06922634                0.06934371               -0.23092464               -0.00018422                0.11198577               -0.00193077
               9.98332416                6.05727083               48.73231311                0.51041339                0.11845530                0.11861537               -0.39503974               -0.00010021                0.09626657               -0.00417154
              10.98475481                6.05677972               48.62091467                0.52269891                0.16766206                0.16794326               -0.55916366               -0.00000114                0.07203010               -0.00719705
              11.98667740                6.05627916               48.50926199                0.53979074                0.21684824                0.21731292               -0.72327788                0.00004511                0.03927547               -0.01135742
              12.98909178                6.05576838               48.39727886                0.77677859                0.24143762                0.26664336               -0.88734823                0.00053953                0.01833579               -0.01691842
               2.98725862                7.05817168               49.50946786                0.78042509               -0.20023226               -0.22545078                0.74990770               -0.00041751                0.01511883                0.01744041
               3.98525630                7.05824446               49.39737705                0.53758480               -0.17571826               -0.17601063                0.58585975                0.00015411                0.04879608                0.00995198
               4.98374425                7.05830837               49.28588692                0.51483919               -0.12665009               -0.12657754                0.42194114                0.00004526                0.09283736                0.00604617
               5.98272329                7.05836059               49.17462198                0.50519738               -0.07748692               -0.07730956                0.25794169               -0.00016450                0.11281052                0.00345280
               6.98219451                7.05840118               49.06349428                0.50006987               -0.02825202               -0.02810284                0.09389602               -0.00026777                0.12333382                0.00155716
               7.98215825                7.05843104               48.95242072                0.49927707                0.02099830                0.02110638               -0.07018078               -0.00027900                0.12475742               -0.00008231
               8.98261448                7.05845103               48.84132040                0.50276521                0.07024834                0.07032949               -0.23428085               -0.00022125                0.11723208               -0.00183148
               9.98356322                7.05846185               48.73011322                0.51059350                0.11949180                0.11958044               -0.39839948               -0.00009839                0.10078354               -0.00407543
              10.98500432                7.05846404               48.61871879                0.52293712                0.16870282                0.16889886               -0.56252777                0.00006840                0.07538302               -0.00729924
              11.98693728                7.05845738               48.50705644                0.54009121                0.21786605                0.21832391               -0.72664702                0.00014526                0.04106487               -0.01211475
              12.98936164                7.05844015               48.39504643                0.77695129                0.24243611                0.26775417               -0.89072436                0.00060777                0.01924610               -0.01905497
               2.98693511                8.05592145               49.50718895                0.78018981               -0.19921421               -0.22471228                0.74654193               -0.00031205                0.01628000                0.01714363
               3.98494297                8.05648969               49.39506291                0.53727041               -0.17476321               -0.17484054                0.58248405                0.00021002                0.05204161                0.00828096
               4.98343985                8.05704825               49.28357963                0.51469948               -0.12572225               -0.12544651                0.41857350               -0.00006973                0.09889540                0.00483259
               5.98242853                8.05759278               49.17233605                0.50513879               -0.07648326               -0.07629976                0.25458103               -0.00027587                0.11992396                0.00273856
               6.98191019                8.05812517               49.06123665                0.50008431               -0.02721620               -0.02711106                0.09054051               -0.00032236                0.13089209                0.00123797
               7.98188420                8.05864708               48.95019374                0.49935656                0.02201452                0.02209916               -0.07353297               -0.00029850                0.13234910               -0.00004271
               8.98235048                8.05915924               48.83912277                0.50290462                0.07124885                0.07132257               -0.23763099               -0.00024540                0.12447844               -0.00142266
               9.98330918                8.05966243               48.72793970                0.51078752                0.12050893                0.12055639               -0.40174834               -0.00013380                0.10721462               -0.00325788
              10.98476065                8.06015770               48.61655868                0.52318375                0.16975107                0.16981987               -0.56587640                0.00006686                0.08033608               -0.00606696
              11.98670420                8.06064564               48.50489126                0.54039385                0.21888684                0.21927893               -0.72999830                0.00024871                0.04379040               -0.01079188
              12.98913839                8.06112346               48.39285051                0.77712364                0.24341891                0.26900077               -0.89408405                0.00072149                0.02066974               -0.01883006
               2.98611589                9.05367743               49.50485346                0.77995312               -0.19821924               -0.22431272                0.74315381               -0.00036263                0.01792487                0.01265314
               3.98413370                9.05474765               49.39268799                0.53696320               -0.17380606               -0.17344687                0.57908344               -0.00000438                0.05696152                0.00424356
               4.98263977                9.05579944               49.28123115                0.51457758               -0.12464240               -0.12453422                0.41518903               -0.00024628                0.10769419                0.00265327
               5.98164085                9.05683460               49.17002605                0.50510154               -0.07529969               -0.07535355                0.25120955               -0.00031520                0.12952576                0.00149982
               6.98113377                9.05785896               49.05896960                0.50012103               -0.02613171               -0.02614003                0.08717986               -0.00024602                0.14077963                0.00068196
               7.98111821                9.05887303               48.94797131                0.49945949                0.02302204                0.02309675               -0.07688394               -0.00021203                0.14224780               -0.00001109
               8.98159421                9.05987748               48.83694390                0.50306549                0.07219366                0.07234031               -0.24097338               -0.00018480                0.13409694               -0.00076479
               9.98256209                9.06087298               48.72580020                0.51100105                0.12141172                0.12158128               -0.40508280               -0.00015104                0.11615318               -0.00179642
              10.98402245                9.06186044               48.61444949                0.52344479                0.17072018                0.17082530               -0.56920393               -0.00000786                0.08779978               -0.00345781
              11.98597649                9.06284296               48.50279227                0.54070160                0.21989870                0.22011225               -0.73332281                0.00022096                0.04818144               -0.00651024
              12.98842042                9.06382017               48.39072075                0.77729467                0.24439320                0.27051092               -0.89741644                0.00072290                0.02299444               -0.01373517
               2.98478744               10.05143519               49.50240306                0.88989844               -0.19665649               -0.22422429                0.73972513                0.02571132                0.02365787                0.01098799
               3.98282087               10.05302075               49.39022975                0.76838352               -0.17197338               -0.17268926                0.57565115                0.02483642                0.06615890                0.00321828
               4.98134797               10.05455756               49.27883493                0.75725449               -0.12290820               -0.12418830                0.41178284                0.02406843                0.12014996                0.00252054
               5.98036271               10.05608571               49.16768791                0.75254466               -0.07405674               -0.07488874                0.24782260                0.02442693                0.14185054                0.00144761
               6.97986684               10.05760237               49.05669138                0.75007938               -0.02506361               -0.02565835                0.08381131                0.02447145                0.15319692                0.00057950
               7.97986144               10.05910901               48.94575344                0.74977041                0.02399948                0.02359853               -0.08023441                0.02450637                0.15464258               -0.00022564
               8.98034683               10.06060605               48.83478588                0.75159278                0.07308806                0.07285690               -0.24430634                0.02451378                0.14636377               -0.00106419
               9.98132320               10.06209406               48.72370032                0.75557797                0.12218454                0.12210817               -0.40839858                0.02451918                0.12812887               -0.00205608
              10.98279052               10.06357421               48.61240394                0.76181469                0.17128486                0.17137661               -0.57250303                0.02449820                0.09917756               -0.00341494
              11.98474890               10.06504788               48.50079315                0.77045585                0.22039570                0.22049270               -0.73660665                0.02521431                0.05702310               -0.00555180
              12.98719843               10.06653368               48.38872540                0.88870482                0.24495350                0.27135145               -0.90069669                0.02638059                0.02969202               -0.01197965
               3.08869819                0.07637240               50.53279454                0.89355626               -0.20297725               -0.22891585                0.75904656               -0.02602460                0.01947996               -0.00497647
               4.08666842                0.07298775               50.41919728                0.77488155               -0.17886457               -0.17864379                0.59801512               -0.02459786                0.04595406               -0.00480522
               5.08512090                0.06962138               50.30605390                0.76173730               -0.13074228               -0.13071713                0.43707811               -0.02392910                0.08320272               -0.00205092
               6.08405357                0.06624635               50.19314403                0.75457521               -0.08267680               -0.08236143                0.27612832               -0.02409143                0.10373127               -0.00116844
               7.08346736                0.06286262               50.08037158                0.75062073               -0.03452535               -0.03405687                0.11516451               -0.02411307                0.11459669               -0.00049830
               8.08336307                0.05946893               49.96765733                0.74980522                0.01367757                0.01426170               -0.04581208               -0.02413276                0.11681612                0.00005737
               9.08374092                0.05606492               49.85492557                0.75210759                0.06189593                0.06258132               -0.20680300               -0.02413427                0.11063265                0.00057073
              10.08460099                0.05265020               49.74210196                0.75754930                0.11010699                0.11089471               -0.36781092               -0.02414062                0.09608480                0.00108834
              11.08594306                0.04922361               49.62911155                0.76619625                0.15831714                0.15924725               -0.52883646               -0.02409240                0.07303121                0.00166691
              12.08776733                0.04578448               49.51587717                0.77816011                0.20646569                0.20736614               -0.68987639               -0.02471961                0.04084847                0.00234433
              13.09007237                0.04231516               49.40231142                0.89389837                0.23050413                0.25751312               -0.85092880               -0.02477323                0.01996697                0.00413627
               3.09182260                1.07408325               50.53056652                0.78378156               -0.20246492               -0.22800188                0.75581689               -0.00062065                0.01585904               -0.00380546
               4.08979795                1.07120131               50.41694957                0.54375090               -0.17851457               -0.17831487                0.59477824               -0.00013315                0.04363140               -0.00470402
               5.08825231                1.06831421               50.30381268                0.51925218               -0.13029580               -0.13011437                0.43383744                0.00004370                0.08124068               -0.00176659
               6.08719204                1.06542273               50.19089042                0.50727806               -0.08186849               -0.08183886                0.27287041                0.00013879                0.10069874               -0.00077773
               7.08661494                1.06252206               50.07810330                0.50069176               -0.03357229               -0.03354874                0.11188818                0.00009312                0.11136681               -0.00036083
               8.08652059                1.05961155               49.96537305                0.49933780                0.01469995                0.01475606               -0.04910707                0.00006315                0.11347044               -0.00019954
               9.08690894                1.05669073               49.85262468                0.50316481                0.06298221                0.06306598               -0.21011687                0.00003985                0.10722839               -0.00014642
              10.08778024                1.05375914               49.73978429                0.51221864                0.11130261                0.11137664               -0.37114396                0.00001385                0.09267043               -0.00009630
              11.08913499                1.05081608               49.62677749                0.52664578                0.15970594                0.15970317               -0.53218901               -0.00013890                0.06964921                0.00006799
              12.09097435                1.04785814               49.51352747                0.54669371                0.20794795                0.20808288               -0.69324807               -0.00019926                0.03800342                0.00054193
              13.09329395                1.04489029               49.39995664                0.78142978                0.23195968                0.25755589               -0.85430703                0.00053379                0.01762280                0.00199764
               3.09444965                2.07181237               50.52827664                0.78038996               -0.20148566               -0.22643714                0.75257897               -0.00067553                0.01290273               -0.00263742
               4.09243479                2.06942145               50.41463738                0.53766976               -0.17746485               -0.17760138                0.59154038               -0.00027140                0.04317511               -0.00338332
               5.09090035                2.06701909               50.30152854                0.51501310               -0.12931457               -0.12909610                0.43061969               -0.00010027                0.08226881               -0.00157085
               6.08984850                2.06460957               50.18861407                0.50539969               -0.08099718               -0.08082460                0.26963597                0.00006032                0.10022332               -0.00059956
               7.08928041                2.06219165               50.07582525                0.50014430               -0.03264250               -0.03254335                0.10862753                0.00008865                0.11019262               -0.00028850
               8.08919565                2.05976405               49.96308916                0.49907302                0.01568533                0.01575035               -0.05239698                0.00005773                0.11197423               -0.00030986
               9.08959412                2.05732624               49.85033301                0.50212782                0.06401319                0.06405483               -0.21343730                0.00000974                0.10560111               -0.00049849
              10.09047592                2.05487773               49.73748453                0.50935925                0.11235841                0.11237389               -0.37449513               -0.00008430                0.09108102               -0.00073195
              11.09184128                2.05241767               49.62447111                0.52092257                0.16066063                0.16073385               -0.53556953               -0.00023509                0.06835669               -0.00086821
              12.09368913                2.04994613               49.51121933                0.53708923                0.20887246                0.20933085               -0.69665086               -0.00031962                0.03737241               -0.00067196
              13.09601873                2.04746628               49.39765543                0.77507213                0.23296050                0.25798712               -0.85771014                0.00028082                0.01740657                0.00006960
               3.09659092                3.06955450               50.52598738                0.78015689               -0.20051245               -0.22523739                0.74932559               -0.00058330                0.01325673                0.00235630
               4.09458580                3.06764928               50.41234984                0.53734441               -0.17643680               -0.17674982                0.58829287               -0.00019857                0.04352940                0.00137843
               5.09306219                3.06573229               50.29924309                0.51483904               -0.12825565               -0.12824262                0.42737168               -0.00018502                0.08277991                0.00086310
               6.09202069                3.06380624               50.18633388                0.50529052               -0.07999790               -0.07986746                0.26638059               -0.00005777                0.10067223                0.00063590
               7.09146223                3.06187119               50.07354629                0.50009654               -0.03167651               -0.03155528                0.10535586               -0.00000589                0.11027913                0.00026585
               8.09138716                3.05992655               49.96080857                0.49908509                0.01666135                0.01675093               -0.05568917               -0.00001551                0.11180967               -0.00027227
               9.09179546                3.05797183               49.84804900                0.50220249                0.06499814                0.06506883               -0.21675156               -0.00006430                0.10527856               -0.00095432
              10.09268712                3.05600662               49.73519611                0.50949811                0.11332151                0.11341726               -0.37783129               -0.00014470                0.09069234               -0.00175833
              11.09406189                3.05403076               49.62217832                0.52112711                0.16161166                0.16184180               -0.53892454               -0.00023164                0.06801915               -0.00264318
              12.09591935                3.05204475               49.50892351                0.53735647                0.20986941                0.21035516               -0.70001707               -0.00020108                0.03717948               -0.00355028
              13.09825928                3.05005003               49.39535848                0.77522500                0.23399231                0.25882643               -0.86107704                0.00038864                0.01729018               -0.00445491
               3.09824843                4.06730762               50.52371327                0.77992900               -0.19953869               -0.22417910                0.74606416               -0.00053308                0.01346106                0.00768394
               4.09625304                4.06588645               50.41006692                0.53702964               -0.17543649               -0.17579492                0.58503208               -0.00010911                0.04413729                0.00490131
               5.09473970                4.06445424               50.29695979                0.51467332               -0.12722971               -0.12733285                0.42410951               -0.00014296                0.08390296                0.00322283
               6.09370845                4.06301222               50.18405246                0.50519044               -0.07898601               -0.07892481                0.26311221               -0.00010687                0.10193000                0.00193576
               7.09315998                4.06156054               50.07126758                0.50005834               -0.03068718               -0.03057519                0.10207684               -0.00008623                0.11151663                0.00085245
               8.09309470                4.06009907               49.95853171                0.49910872                0.01763934                0.01774994               -0.05898238               -0.00009351                0.11291264               -0.00021915
               9.09351276                4.05862762               49.84577252                0.50228728                0.06596971                0.06608441               -0.22006050               -0.00011789                0.10619789               -0.00140597
              10.09441410                4.05714607               49.73291818                0.50964626                0.11428784                0.11445687               -0.38115559               -0.00014851                0.09139820               -0.00280953
              11.09579852                4.05565451               49.61989686                0.52134090                0.16258660                0.16288375               -0.54226223               -0.00015871                0.06849558               -0.00451531
              12.09766583                4.05415324               49.50663637                0.53763951                0.21087122                0.21134160               -0.70336291               -0.00011144                0.03741943               -0.00659073
              13.10001594                4.05264281               49.39306347                0.77539015                0.23501166                0.25975545               -0.86442384                0.00044322                0.01740121               -0.00907950
               3.09942259                5.06507092               50.52144688                0.77970253               -0.19855958               -0.22318066                0.74279536               -0.00050110                0.01381916                0.01218696
               4.09743700                5.06413338               50.40778422                0.53671767               -0.17445140               -0.17481486                0.58176076               -0.00002944                0.04513844                0.00776445
               5.09593356                5.06318563               50.29467403                0.51451388               -0.12623754               -0.12636518                0.42083671               -0.00006907                0.08580727                0.00502943
               6.09491225                5.06222774               50.18176883                0.50509872               -0.07799552               -0.07795113                0.25983541               -0.00010786                0.10421993                0.00297837
               7.09437365                5.06125968               50.06898897                0.50003069               -0.02970156               -0.02959014                0.09879309               -0.00014108                0.11396824                0.00133506
               8.09431821                5.06028155               49.95625884                0.49914240                0.01862206                0.01874345               -0.06227563               -0.00015705                0.11532108               -0.00016575
               9.09474610                5.05929352               49.84350418                0.50238206                0.06695223                0.06708489               -0.22336480               -0.00015122                0.10838327               -0.00176802
              10.09565726                5.05829576               49.73065148                0.50980148                0.11527283                0.11546266               -0.38447073               -0.00012356                0.09320337               -0.00369616
              11.09705155                5.05728843               49.61762746                0.52155930                0.16357812                0.16388689               -0.54558704               -0.00008041                0.06978440               -0.00616421
              12.09892882                5.05627159               49.50435867                0.53792464                0.21187227                0.21233167               -0.70669466               -0.00003568                0.03808893               -0.00936265
              13.10128900                5.05524514               49.39077105                0.77555576                0.23601758                0.26073284               -0.86775859                0.00048418                0.01773106               -0.01342268
               3.10011348                6.06284401               50.51917953                0.77947723               -0.19757367               -0.22222470                0.73951758               -0.00046646                0.01435457                0.01561136
               4.09813774                6.06239016               50.40549332                0.53640870               -0.17347613               -0.17382481                0.57847796                0.00005407                0.04666206                0.00959513
               5.09664396                6.06192694               50.29237972                0.51436016               -0.12527547               -0.12534877                0.41755454                0.00000606                0.08872395                0.00607180
               6.09563223                6.06145320               50.17947919                0.50501600               -0.07703063               -0.07694021                0.25655201               -0.00010965                0.10776748                0.00353741
               7.09510334                6.06096874               50.06670890                0.50001498               -0.02872525               -0.02859393                0.09550611               -0.00019399                0.11782916                0.00159577
               8.09505773                6.06047394               49.95399008                0.49918856                0.01960945                0.01972993               -0.06556827               -0.00021600                0.11919143               -0.00012087
               9.09549553                6.05996931               49.84124554                0.50248750                0.06794916                0.06806443               -0.22666437               -0.00018067                0.11197517               -0.00194237
              10.09641671                6.05945533               49.72839896                0.50996585                0.11627762                0.11643506               -0.38777768               -0.00009803                0.09623595               -0.00419634
              11.09782109                6.05893224               49.61537425                0.52178316                0.16458448                0.16486088               -0.54890028               -0.00000085                0.07198943               -0.00723428
              12.09970840                6.05839987               49.50209540                0.53821253                0.21287132                0.21332764               -0.71001355                0.00004425                0.03924753               -0.01140767
              13.10207851                6.05785746               49.38848654                0.77572164                0.23701109                0.26175589               -0.87108311                0.00052935                0.01831199               -0.01698303
               3.10032096                7.06062643               50.51689869                0.77925086               -0.19658135               -0.22133846                0.73622945               -0.00040991                0.01513635                0.01749485
               4.09835515                7.06065689               50.40318237                0.53610291               -0.17251575               -0.17280272                0.57518205                0.00015108                0.04889364                0.00998572
               5.09687065                7.06067865               50.29006802                0.51421498               -0.12434496               -0.12427397                0.41426186                0.00004423                0.09297101                0.00607359
               6.09586825                7.06068894               50.17717805                0.50494490               -0.07608077               -0.07590720                0.25326169               -0.00016147                0.11288950                0.00347336
               7.09534903                7.06068781               50.06442486                0.50001275               -0.02774632               -0.02760037                0.09221622               -0.00026259                0.12337911                0.00156907
               8.09531332                7.06067615               49.95172551                0.49924970                0.02060313                0.02070903               -0.06885982               -0.00027344                0.12477666               -0.00008111
               9.09576109                7.06065481               49.83899916                0.50260692                0.06895234                0.06903211               -0.22995880               -0.00021672                0.11722783               -0.00184216
              10.09669237                7.06062446               49.72616577                0.51014037                0.11729498                0.11738242               -0.39107555               -0.00009615                0.10075882               -0.00409865
              11.09810699                7.06058565               49.61314504                0.52201311                0.16560582                0.16579875               -0.55220159                0.00006740                0.07534738               -0.00733563
              12.10000449                7.06053814               49.49985647                0.53850196                0.21387007                0.21431974               -0.71331955                0.00014257                0.04103981               -0.01216606
              13.10238439                7.06048026               49.38622066                0.77588826                0.23799093                0.26284592               -0.87439659                0.00059641                0.01922371               -0.01912536
               3.10004436                8.05841724               50.51458643                0.77902458               -0.19558227               -0.22061374                0.73292628               -0.00030638                0.01630117                0.01719696
               4.09808854                8.05893410               50.40083479                0.53580073               -0.17157847               -0.17165406                0.57186882                0.00020594                0.05215161                0.00830756
               5.09661279                8.05944146               50.28772736                0.51408171               -0.12343426               -0.12316381                0.41095619               -0.00006871                0.09905008                0.00485565
               6.09561985                8.05993505               50.17485882                0.50489082               -0.07509560               -0.07491613                0.24996309               -0.00027068                0.12002263                0.00275623
               7.09511088                8.06041673               50.06213399                0.50002869               -0.02672962               -0.02662693                0.08892268               -0.00031601                0.13095502                0.00124821
               8.09508526                8.06088812               49.94946531                0.49932840                0.02160058                0.02168347               -0.07215004               -0.00029240                0.13238438               -0.00004129
               9.09554289                8.06134996               49.83676834                0.50274279                0.06993433                0.07000686               -0.23324698               -0.00024034                0.12448912               -0.00143108
              10.09648395                8.06180298               49.72395907                0.51032861                0.11829328                0.11834038               -0.39436256               -0.00013107                0.10720369               -0.00327696
              11.09790876                8.06224822               49.61095175                0.52225138                0.16663465                0.16670290               -0.55548857                0.00006574                0.08031242               -0.00609792
              12.09981664                8.06268626               49.49765809                0.53879308                0.21487193                0.21525726               -0.71660894                0.00024414                0.04377331               -0.01083752
              13.10220619                8.06311438               49.38399145                0.77605351                0.23895553                0.26406946               -0.87769400                0.00070821                0.02065253               -0.01889849
               3.09928110                9.05621415               50.51221737                0.77879687               -0.19460559               -0.22022172                0.72960025               -0.00035600                0.01795122                0.01269285
               4.09733505                9.05722381               50.39842618                0.53550655               -0.17063898               -0.17028568                0.56853071               -0.00000472                0.05709085                0.00425620
               5.09586832                9.05821538               50.28534535                0.51396683               -0.12237437               -0.12226861                0.40763419               -0.00024203                0.10788067                0.00266783
               6.09488756                9.05919062               50.17251542                0.50485697               -0.07393399               -0.07398733                0.24665382               -0.00030933                0.12965340                0.00151081
               7.09438964                9.06015527               50.05983364                0.50006622               -0.02566534               -0.02567376                0.08562405               -0.00024115                0.14086992                0.00068835
               8.09437425                9.06110982               49.94720968                0.49942995                0.02258939                0.02266265               -0.07543912               -0.00020768                0.14230936               -0.00000989
               9.09484143                9.06205494               49.83455636                0.50290097                0.07086166                0.07100570               -0.23652737               -0.00018098                0.13413284               -0.00076958
              10.09579148                9.06299127               49.72178654                0.51053609                0.11917947                0.11934628               -0.39763534               -0.00014802                0.11616636               -0.00180778
              11.09722502                9.06391971               49.60880959                0.52250403                0.16758593                0.16768990               -0.55875494               -0.00000759                0.08779785               -0.00347642
              12.09914320                9.06484328               49.49552616                0.53908937                0.21586509                0.21607557               -0.71987238                0.00021695                0.04817895               -0.00653880
              13.10154232                9.06576165               49.38182868                0.77621822                0.23991183                0.26555191               -0.88096540                0.00070956                0.02298653               -0.01378467
               3.09801793               10.05401280               50.50973300                0.88932320               -0.19307143               -0.22013501                0.72623454                0.02524165                0.02370244                0.01102531
               4.09608722               10.05552839               50.39593394                0.76765941               -0.16883954               -0.16954176                0.56516170                0.02438127                0.06632106                0.00322913
               5.09464114               10.05699608               50.28291539                0.75695144               -0.12067206               -0.12192930                0.40429108                0.02362769                0.12037984                0.00253468
               6.09367378               10.05845531               50.17014372                0.75242417               -0.07271455               -0.07353102                0.24332934                0.02398042                0.14201751                0.00145716
               7.09318685               10.05990326               50.05752205                0.75005240               -0.02461729               -0.02520092                0.08231771                0.02402412                0.15332637                0.00058450
               8.09318143               10.06134137               49.94495862                0.74975591                0.02354870                0.02315518               -0.07872777                0.02405844                0.15474277               -0.00022532
               9.09365782               10.06277007               49.83236531                0.75150947                0.07173960                0.07151267               -0.23979863                0.02406578                0.14643767               -0.00106930
              10.09461622               10.06418990               49.71965381                0.75534340                0.11993822                0.11986338               -0.40088973                0.02407110                0.12817968               -0.00206693
              11.09605659               10.06560202               49.60673135                0.76134119                0.16814056                0.16823101               -0.56199310                0.02405054                0.09921199               -0.00343169
              12.09797903               10.06700778               49.49349451                0.76964647                0.21635317                0.21644919               -0.72309578                0.02475327                0.05705018               -0.00557638
              13.10038365               10.06842542               49.37980083                0.88816447                0.24046180                0.26637704               -0.88418570                0.02589754                0.02970802               -0.01202343
               3.20329564                0.07856679               51.54031432                0.89283726               -0.19918975               -0.22464318                0.74487843               -0.02553773                0.01952263               -0.00498187
               4.20130375                0.07520359               51.42512177                0.77390567               -0.17552811               -0.17531105                0.58685951               -0.02413727                0.04605942               -0.00480338
               5.19978508                0.07185836               51.31038405                0.76126261               -0.12830613               -0.12828156                0.42893301               -0.02348134                0.08336065               -0.00203839
               6.19873762                0.06850461               51.19587970                0.75437663               -0.08113998               -0.08083034                0.27099429               -0.02364101                0.10388476               -0.00115846
               7.19816228                0.06514233               51.08151264                0.75057349               -0.03388929               -0.03342949                0.11304195               -0.02366220                0.11474208               -0.00049208
               8.19805984                0.06177027               50.96720365                0.74978936                0.01341202                0.01398518               -0.04492303               -0.02368152                0.11694932                0.00005966
               9.19843052                0.05838808               50.85287701                0.75200357                0.06072843                0.06140093               -0.20290219               -0.02368307                0.11074804                0.00056914
              10.19927441                0.05499538               50.73845834                0.75723724                0.10803770                0.10881058               -0.36089800               -0.02368925                0.09617712                0.00108225
              11.20059128                0.05159104               50.62387272                0.76555231                0.15534618                0.15625865               -0.51891132               -0.02364177                0.07309788                0.00165652
              12.20238133                0.04817441               50.50904297                0.77705511                0.20259390                0.20347728               -0.67693854               -0.02425700                0.04088840                0.00233035
              13.20464315                0.04472817               50.39388172                0.89315989                0.22618242                0.25268587               -0.83497749               -0.02430944                0.01998354                0.00413048
               3.20640346                1.07632036               51.53805430                0.78246264               -0.19868714               -0.22374607                0.74170952               -0.00060860                0.01588184               -0.00379680
               4.20441659                1.07345048               51.42284200                0.54201434               -0.17518493               -0.17498851                0.58368383               -0.00013031                0.04371870               -0.00468847
               5.20289976                1.07057554               51.30811073                0.51845383               -0.12786806               -0.12769026                0.42575396                0.00004287                0.08137580               -0.00173218
               6.20185923                1.06769631               51.19359382                0.50694518               -0.08034652               -0.08031787                0.26779812                0.00013581                0.10082199               -0.00074928
               7.20129283                1.06480804               51.07921190                0.50061310               -0.03295389               -0.03293108                0.10982759                0.00009085                0.11148107               -0.00034369
               8.20120015                1.06191012               50.96488673                0.49931061                0.01441520                0.01447017               -0.04815580                0.00006145                0.11357228               -0.00019526
               9.20158113                1.05900209               50.85054329                0.50299099                0.06179415                0.06187645               -0.20615351                0.00003855                0.10731199               -0.00015549
              10.20243603                1.05608349               50.73610766                0.51169811                0.10921057                0.10928349               -0.36416827                0.00001312                0.09273063               -0.00011921
              11.20376535                1.05315363               50.62150545                0.52556792                0.15670836                0.15670606               -0.52220063               -0.00013654                0.06968404                0.00003200
              12.20557020                1.05020918               50.50665987                0.54483525                0.20404780                0.20418062               -0.68024626               -0.00019538                0.03801747                0.00049682
              13.20784630                1.04725503               50.39149348                0.78018494                0.22761029                0.25272754               -0.83829173                0.00052409                0.01761916                0.00196022
               3.20902321                2.07409187               51.53573235                0.77919204               -0.19772623               -0.22221057                0.73853266               -0.00066279                0.01291665               -0.00262252
               4.20704595                2.07170382               51.42049773                0.53615263               -0.17415487               -0.17428875                0.58050695               -0.00026647                0.04326354               -0.00335863
               5.20554012                2.06930455               51.30579471                0.51436708               -0.12690535               -0.12669127                0.42259739               -0.00009862                0.08239687               -0.00152956
               6.20450785                2.06689825               51.19128543                0.50513250               -0.07949164               -0.07932295                0.26462507                0.00005875                0.10031647               -0.00056317
               7.20395028                2.06448371               51.07690156                0.50008086               -0.03204151               -0.03194480                0.10662859                0.00008634                0.11027041               -0.00026598
               8.20386702                2.06205967               50.96257025                0.49905072                0.01538203                0.01544562               -0.05138359                0.00005589                0.11203747               -0.00030476
               9.20425793                2.05962561               50.84821873                0.50198866                0.06280561                0.06284661               -0.20941109                0.00000884                0.10564521               -0.00051219
              10.20512313                2.05718105               50.73377470                0.50894097                0.11024641                0.11026195               -0.36745617               -0.00008333                0.09110207               -0.00076420
              11.20646285                2.05472517               50.61916558                0.52005487                0.15764503                0.15771739               -0.52551754               -0.00023111                0.06835656               -0.00091725
              12.20827603                2.05225802               50.50431803                0.53558238                0.20495476                0.20540510               -0.68358464               -0.00031378                0.03736606               -0.00073036
              13.21056195                2.04978272               50.38915857                0.77405950                0.22859203                0.25315051               -0.84163014                0.00027546                0.01739350                0.00001878
               3.21116629                3.07187614               51.53341086                0.77896754               -0.19677159               -0.22103376                0.73534149               -0.00057223                0.01327157                0.00237746
               4.20919857                3.06996471               51.41817802                0.53583982               -0.17314629               -0.17345348                0.57732118               -0.00019508                0.04361532                0.00140605
               5.20770336                3.06804172               51.30347708                0.51420030               -0.12586633               -0.12585385                0.41941042               -0.00018187                0.08289863                0.00089297
               6.20668124                3.06610985               51.18897299                0.50502702               -0.07851120               -0.07838376                0.26143097               -0.00005700                0.10074834                0.00066230
               7.20613314                3.06416914               51.07459019                0.50003435               -0.03109378               -0.03097535                0.10341866               -0.00000629                0.11033346                0.00028230
               8.20605937                3.06221903               50.96025705                0.49906170                0.01633964                0.01642730               -0.05461356               -0.00001589                0.11184640               -0.00026946
               9.20645993                3.06025902               50.84590189                0.50205931                0.06377199                0.06384146               -0.21266288               -0.00006370                0.10529562               -0.00096682
              10.20733481                3.05828873               50.73145324                0.50907449                0.11119128                0.11128554               -0.37072920               -0.00014228                0.09068773               -0.00178552
              11.20868376                3.05630798               50.61683955                0.52025095                0.15857814                0.15880436               -0.52880916               -0.00022760                0.06799810               -0.00268248
              12.21050637                3.05431728               50.50198885                0.53583868                0.20593314                0.20641010               -0.68688819               -0.00019775                0.03716183               -0.00359575
              13.21280242                3.05231804               50.38682827                0.77420688                0.22960470                0.25397442               -0.84493457                0.00038107                0.01727184               -0.00449752
               3.21283464                4.06967119               51.53110445                0.77874877               -0.19581629               -0.21999563                0.73214191               -0.00052299                0.01347523                0.00771513
               4.21087648                4.06823475               51.41586280                0.53553727               -0.17216490               -0.17251675                0.57412237               -0.00010706                0.04422148                0.00493108
               5.20939134                4.06678748               51.30116148                0.51404112               -0.12485978               -0.12496128                0.41621012               -0.00014037                0.08401655                0.00325079
               6.20837928                4.06533058               51.18665920                0.50493067               -0.07751848               -0.07745889                0.25822446               -0.00010509                0.10199619                0.00195836
               7.20784097                4.06386420               51.07227900                0.49999752               -0.03012320               -0.03001374                0.10020162               -0.00008496                0.11155698                0.00086596
               8.20777682                4.06238822               50.95794757                0.49908450                0.01729916                0.01740744               -0.05784453               -0.00009214                0.11293280               -0.00021764
               9.20818696                4.06090244               50.84359264                0.50214140                0.06472535                0.06483787               -0.21590954               -0.00011602                0.10619771               -0.00141794
              10.20907132                4.05940676               50.72914238                0.50921664                0.11213947                0.11230553               -0.37399106               -0.00014576                0.09137789               -0.00283472
              11.21042975                4.05790125               50.61452504                0.52045742                0.15953457                0.15982644               -0.53208337               -0.00015568                0.06846224               -0.00455151
              12.21226202                4.05638622               50.49966857                0.53611189                0.20691600                0.20737785               -0.69017067               -0.00010966                0.03739464               -0.00663455
              13.21456807                4.05486221               50.38450009                0.77436560                0.23060495                0.25488610               -0.84821900                0.00043445                0.01737872               -0.00912593
               3.21402870                5.06747623               51.52880567                0.77853126               -0.19485552               -0.21901595                0.72893443               -0.00049167                0.01383307                0.01222744
               4.21208014                5.06651437               51.41354770                0.53523760               -0.17119836               -0.17155511                0.57091253               -0.00002886                0.04522298                0.00779717
               5.21060473                5.06554249               51.29884329                0.51388781               -0.12388643               -0.12401188                0.41299922               -0.00006780                0.08592044                0.00505766
               6.20960242                5.06456067               51.18434311                0.50484265               -0.07654676               -0.07650362                0.25500979               -0.00010593                0.10428300                0.00299992
               7.20907380                5.06356887               51.06996786                0.49997152               -0.02915619               -0.02904732                0.09697998               -0.00013855                0.11400258                0.00134751
               8.20901929                5.06256718               50.95564208                0.49911768                0.01826334                0.01838220               -0.06107560               -0.00015415                0.11533306               -0.00016480
               9.20943906                5.06155578               50.84129156                0.50223289                0.06568936                0.06581946               -0.21915132               -0.00014836                0.10837412               -0.00177987
              10.21033308                5.06053484               50.72684284                0.50936676                0.11310595                0.11329231               -0.37724369               -0.00012125                0.09317476               -0.00372078
              11.21170118                5.05950451               50.61222270                0.52066802                0.16050732                0.16081052               -0.53534506               -0.00007891                0.06974461               -0.00620060
              12.21354323                5.05846484               50.49735786                0.53638594                0.20789798                0.20834904               -0.69343878               -0.00003504                0.03806062               -0.00940886
              13.21585914                5.05741576               50.38217463                0.77452492                0.23159170                0.25584492               -0.85149062                0.00047495                0.01770663               -0.01347665
               3.21474852                6.06529087               51.52650586                0.77831417               -0.19388820               -0.21807796                0.72571839               -0.00045767                0.01436993                0.01565997
               4.21280964                6.06480365               51.41122429                0.53494096               -0.17024152               -0.17058366                0.56769161                0.00005306                0.04675063                0.00962962
               5.21134369                6.06430724               51.29651647                0.51374091               -0.12294257               -0.12301458                0.40977889                0.00000591                0.08884272                0.00610059
               6.21035079                6.06380050               51.18202095                0.50476405               -0.07560013               -0.07551176                0.25178821               -0.00010761                0.10783399                0.00355892
               7.20983169                6.06328326               51.06765523                0.49995674               -0.02819830               -0.02806993                0.09375506               -0.00019025                0.11786481                0.00160794
               8.20978682                6.06275586               50.95334070                0.49916276                0.01923214                0.01935007               -0.06430613               -0.00021172                0.11920297               -0.00011993
               9.21021633                6.06221883               50.83900024                0.50233515                0.06666743                0.06678052               -0.22238869               -0.00017705                0.11196471               -0.00195384
              10.21112017                6.06167261               50.72455756                0.50952525                0.11409166                0.11424635               -0.38048796               -0.00009623                0.09620606               -0.00422055
              11.21249816                6.06111746               50.60993667                0.52088280                0.16149470                0.16176625               -0.53859607               -0.00000101                0.07194926               -0.00727101
              12.21435006                6.06055320               50.49506172                0.53666257                0.20887826                0.20932628               -0.69669545                0.00004347                0.03921965               -0.01145662
              13.21667573                6.05997910               50.37985720                0.77468446                0.23256654                0.25684858               -0.85475231                0.00051954                0.01828811               -0.01704532
               3.21499398                7.06311467               51.52419245                0.77809714               -0.19291462               -0.21720844                0.72249228               -0.00040217                0.01515374                0.01754877
               4.21306484                7.06310270               51.40888069                0.53464698               -0.16929929               -0.16958083                0.56445790                0.00014827                0.04898979                0.01001918
               5.21160800                7.06308220               51.29417216                0.51360228               -0.12202967               -0.12196013                0.40654855                0.00004335                0.09310235                0.00610102
               6.21062424                7.06305043               51.17968721                0.50469714               -0.07466824               -0.07449832                0.24856019               -0.00015844                0.11296682                0.00349392
               7.21011463                7.06300747               51.06533860                0.49995671               -0.02723788               -0.02709514                0.09052721               -0.00025739                0.12342347                0.00158076
               8.21007949                7.06295418               50.95104352                0.49922336                0.02020702                0.02031066               -0.06753546               -0.00026785                0.12479538               -0.00007987
               9.21051877                7.06289139               50.83672122                0.50245120                0.06765156                0.06772991               -0.22562078               -0.00021228                0.11722361               -0.00185254
              10.21143252                7.06281977               50.72229171                0.50969418                0.11508971                0.11517587               -0.38372349               -0.00009421                0.10073475               -0.00412137
              11.21282057                7.06273983               50.60767476                0.52110455                0.16249676                0.16268658               -0.54183530                0.00006606                0.07531246               -0.00737122
              12.21468245                7.06265137               50.49279005                0.53694091                0.20985820                0.21029973               -0.69993921                0.00013984                0.04101544               -0.01221633
              13.21701773                7.06255273               50.37755850                0.77484458                0.23352790                0.25791799               -0.85800296                0.00058520                0.01920204               -0.01919434
               3.21476442                8.06094670               51.52184747                0.77787919               -0.19193442               -0.21649749                0.71925143               -0.00030066                0.01632196                0.01724946
               4.21284508                8.06141204               51.40650029                0.53435710               -0.16837979               -0.16845373                0.56120733                0.00020188                0.05225994                0.00833379
               5.21139683                8.06186804               51.29179876                0.51347488               -0.12113627               -0.12087111                0.40330563               -0.00006767                0.09920199                0.00487836
               6.21042235                8.06231054               51.17733531                0.50464659               -0.07370168               -0.07352610                0.24532402               -0.00026552                0.12011916                0.00277360
               7.20992279                8.06274135               51.06301511                0.49997333               -0.02624039               -0.02614009                0.08729583               -0.00030968                0.13101675                0.00125830
               8.20989754                8.06316208               50.94875074                0.49930063                0.02118558                0.02126667               -0.07076347               -0.00028638                0.13241889               -0.00003986
               9.21034650                8.06357343               50.83445783                0.50258416                0.06861497                0.06868623               -0.22884670               -0.00023529                0.12449953               -0.00143930
              10.21126984                8.06397613               50.72005244                0.50987674                0.11606909                0.11611580               -0.38694839               -0.00012821                0.10719325               -0.00329576
              11.21266789                8.06437120               50.60544891                0.52133479                0.16350606                0.16357374               -0.54505999                0.00006449                0.08028912               -0.00612834
              12.21453996                8.06475920               50.49055908                0.53722125                0.21084110                0.21121966               -0.70316641                0.00023935                0.04375630               -0.01088272
              13.21688471                8.06513746               50.37529663                0.77500349                0.23447430                0.25911845               -0.86123842                0.00069485                0.02063551               -0.01896671
               3.21405730                9.05878472               51.51944546                0.77765997               -0.19097626               -0.21611316                0.71598840               -0.00034950                0.01797729                0.01273169
               4.21214754                9.05973363               51.40405861                0.53407498               -0.16745808               -0.16711080                0.55793217               -0.00000534                0.05721824                0.00426818
               5.21070814                9.06066478               51.28938383                0.51336671               -0.12009632               -0.11999307                0.40004620               -0.00023784                0.10806401                0.00268164
               6.20974562                9.06157991               51.17495912                0.50461679               -0.07256202               -0.07261487                0.24207723               -0.00030329                0.12977870                0.00152169
               7.20925690                9.06248467               51.06068208                0.50001263               -0.02519637               -0.02520491                0.08405959               -0.00023621                0.14095872                0.00069479
               8.20924169                9.06337952               50.94646253                0.49940136                0.02215565                0.02222743               -0.07399052               -0.00020335                0.14236989               -0.00000887
               9.20970002                9.06426511               50.83221335                0.50273835                0.06952482                0.06966630               -0.23206540               -0.00017710                0.13416824               -0.00077424
              10.21063218                9.06514208               50.71784750                0.51007923                0.11693857                0.11710270               -0.39015929               -0.00014484                0.11617962               -0.00181889
              11.21203879                9.06601131               50.60327439                0.52157883                0.16443932                0.16454214               -0.54826477               -0.00000739                0.08779576               -0.00349500
              12.21392097                9.06687576               50.48839482                0.53750624                0.21181558                0.21202294               -0.70636889                0.00021278                0.04817574               -0.00656702
              13.21627510                9.06773510               50.37310145                0.77516171                0.23541277                0.26057320               -0.86444892                0.00069625                0.02297762               -0.01383393
               3.21285962               10.05662444               51.51692775                0.88875789               -0.18947090               -0.21602828                0.71268620                0.02476990                0.02374599                0.01106200
               4.21096491               10.05806982               51.40153299                0.76694765               -0.16569202               -0.16638064                0.55462639                0.02392400                0.06648033                0.00323930
               5.20954578               10.05946818               51.28692075                0.75665361               -0.11842584               -0.11966032                0.39676572                0.02318501                0.12060616                0.00254795
               6.20859640               10.06085824               51.17255450                0.75230513               -0.07136602               -0.07216715                0.23881550                0.02353229                0.14218207                0.00146688
               7.20811846               10.06223726               51.05833774                0.75002648               -0.02416843               -0.02474097                0.08081573                0.02357518                0.15345356                0.00058974
               8.20811303               10.06360662               50.94417889                0.74974110                0.02309667                0.02271071               -0.07721718                0.02360884                0.15484132               -0.00022529
               9.20858040               10.06496675               50.82998991                0.75142726                0.07038619                0.07016377               -0.23527502                0.02361597                0.14651072               -0.00107421
              10.20952075               10.06631818               50.71568253                0.75511290                0.11768317                0.11761002               -0.39335211                0.02362112                0.12822964               -0.00207742
              11.21093406               10.06766204               50.60116408                0.76087615                0.16498380                0.16507303               -0.55144185                0.02360106                0.09924560               -0.00344866
              12.21282043               10.06899966               50.48633124                0.76885125                0.21229472                0.21238982               -0.70953187                0.02429032                0.05707628               -0.00560062
              13.21517995               10.07034893               50.37104169                0.88763419                0.23595254                0.26138298               -0.86760902                0.02541263                0.02972227               -0.01206702
               3.31947374                0.08079280               52.54769211                0.89213065               -0.19538609               -0.22035239                0.73065011               -0.02504888                0.01956376               -0.00498791
               4.31751987                0.07745122               52.43093447                0.77294583               -0.17217749               -0.17196411                0.57565649               -0.02367497                0.04616235               -0.00480145
               5.31603019                0.07412726               52.31463256                0.76079540               -0.12585962               -0.12583557                0.42075336               -0.02303171                0.08351577               -0.00202552
               6.31500268                0.07079494               52.19856391                0.75418140               -0.07959632               -0.07929252                0.26583770               -0.02318860                0.10403571               -0.00114858
               7.31443826                0.06745425               52.08263242                0.75052734               -0.03325000               -0.03279895                0.11090879               -0.02320945                0.11488490               -0.00048596
               8.31433768                0.06410396               51.96675886                0.74977318                0.01314594                0.01370813               -0.04403231               -0.02322840                0.11708026                0.00006193
               9.31470118                0.06074374               51.85086753                0.75190103                0.05955681                0.06021628               -0.19898746               -0.02322988                0.11086136                0.00056738
              10.31552882                0.05737322               51.73488400                0.75693037                0.10596066                0.10671844               -0.35395892               -0.02323596                0.09626741                0.00107642
              11.31682039                0.05399128               51.61873333                0.76491986                0.15236362                0.15325830               -0.50894746               -0.02318944                0.07316310                0.00164632
              12.31857609                0.05059728               51.50233840                0.77596871                0.19870677                0.19957305               -0.66394950               -0.02379264                0.04092791                0.00231630
              13.32079453                0.04717426               51.38561187                0.89243396                0.22184360                0.24783952               -0.81896309               -0.02384382                0.02000050                0.00412489
               3.32256483                1.07858928               52.54540071                0.78116571               -0.19489337               -0.21947240                0.72754284               -0.00059659                0.01590443               -0.00378885
               4.32061590                1.07573158               52.42862325                0.54030923               -0.17184110               -0.17164805                0.57254222               -0.00012774                0.04380456               -0.00467316
               5.31912801                1.07286890               52.31232776                0.51767029               -0.12542988               -0.12525563                0.41763553                0.00004200                0.08150836               -0.00169771
               6.31810730                1.07000201               52.19624638                0.50661835               -0.07881783               -0.07879005                0.26270331                0.00013304                0.10094290               -0.00072115
               7.31755165                1.06712626               52.08029985                0.50053571               -0.03233242               -0.03231028                0.10775660                0.00008869                0.11159324               -0.00032686
               8.31746065                1.06424104               51.96440993                0.49928425                0.01412988                0.01418369               -0.04720259                0.00005979                0.11367222               -0.00019108
               9.31783425                1.06134590               51.84850161                0.50282034                0.06060190                0.06068263               -0.20217596                0.00003735                0.10739409               -0.00016449
              10.31867269                1.05844040               51.73250092                0.51118632                0.10711065                0.10718230               -0.35716594                0.00001243                0.09278941               -0.00014167
              11.31997646                1.05552386               51.61633348                0.52450946                0.15369913                0.15369720               -0.51217317               -0.00013433                0.06971781               -0.00000344
              12.32174667                1.05259301               51.49992254                0.54300881                0.20013232                0.20026303               -0.66719343               -0.00019170                0.03803197                0.00045265
              13.32397911                1.04965265               51.38319080                0.77896238                0.22324377                0.24788016               -0.82221329                0.00051437                0.01761731                0.00192394
               3.32517721                2.07640336               52.54304729                0.77801505               -0.19395101               -0.21796638                0.72442756               -0.00064999                0.01293084               -0.00260756
               4.32323770                2.07401826               52.42624752                0.53466211               -0.17083082               -0.17096213                0.56942689               -0.00026144                0.04335112               -0.00333437
               5.32176059                2.07162214               52.30998049                0.51373403               -0.12448563               -0.12427598                0.41454014               -0.00009688                0.08252272               -0.00148889
               6.32074799                2.06921913               52.19390657                0.50487011               -0.07797942               -0.07781448                0.25959163                0.00005721                0.10040741               -0.00052728
               7.32020100                2.06680804               52.07795783                0.50001914               -0.03143759               -0.03134318                0.10461946                0.00008404                0.11034652               -0.00024388
               8.32011923                2.06438763               51.96206148                0.49902869                0.01507808                0.01514026               -0.05036802                0.00005411                0.11209947               -0.00029980
               9.32050256                2.06195739               51.84614478                0.50185120                0.06159379                0.06163409               -0.20537062                0.00000796                0.10568858               -0.00052562
              10.32135111                2.05951686               51.73013541                0.50853039                0.10812637                0.10814197               -0.36039036               -0.00008238                0.09112243               -0.00079610
              11.32266509                2.05706522               51.61396076                0.51920218                0.15461758                0.15468912               -0.51542607               -0.00022714                0.06835632               -0.00096528
              12.32444346                2.05460254               51.49754764                0.53410231                0.20102180                0.20146405               -0.67046766               -0.00030801                0.03736082               -0.00078760
              13.32668553                2.05213186               51.38082283                0.77306595                0.22420672                0.24829507               -0.82548784                0.00027009                0.01738246               -0.00003204
               3.32732203                3.07422995               52.54069421                0.77779946               -0.19301477               -0.21681245                0.72129824               -0.00056120                0.01328570                0.00239881
               4.32539188                3.07231233               52.42389626                0.53436267               -0.16984169               -0.17014313                0.56630278               -0.00019149                0.04369965                0.00143346
               5.32392519                3.07038338               52.30763130                0.51357304               -0.12346671               -0.12345482                0.41141516               -0.00017860                0.08301531                0.00092201
               6.32292255                3.06844572               52.19156250                0.50476818               -0.07701793               -0.07689347                0.25645950               -0.00005624                0.10082294                0.00068814
               7.32238484                3.06649939               52.07561467                0.49997311               -0.03050812               -0.03039246                0.10147157               -0.00000670                0.11038662                0.00029849
               8.32231238                3.06454384               51.95971630                0.49903902                0.01601724                0.01610297               -0.05353562               -0.00001618                0.11188245               -0.00026672
               9.32270518                3.06257858               51.84379574                0.50191949                0.06254150                0.06260973               -0.20855961               -0.00006303                0.10531222               -0.00097921
              10.32356321                3.06060324               51.72778153                0.50865810                0.10905299                0.10914581               -0.36360030               -0.00014010                0.09068299               -0.00181253
              11.32488624                3.05861764               51.61160214                0.51939056                0.15553279                0.15575514               -0.51865456               -0.00022355                0.06797738               -0.00272105
              12.32667387                3.05662229               51.49518574                0.53434969                0.20198154                0.20244965               -0.67370802               -0.00019396                0.03714410               -0.00364071
              13.32892587                3.05461856               51.37845979                0.77320813                0.22520013                0.24910351               -0.82872927                0.00037380                0.01725297               -0.00454049
               3.32900122                4.07206711               52.53835611                0.77758915               -0.19207802               -0.21579448                0.71816091               -0.00051287                0.01348889                0.00774544
               4.32708044                4.07061539               52.42154936                0.53407178               -0.16887927               -0.16922456                0.56316592               -0.00010508                0.04430403                0.00496022
               5.32562363                4.06915305               52.30528400                0.51342095               -0.12247956               -0.12257945                0.40827641               -0.00013783                0.08412783                0.00327830
               6.32463085                4.06768126               52.18921695                0.50467597               -0.07604442               -0.07598641                0.25331496               -0.00010321                0.10206106                0.00198061
               7.32410274                4.06620019               52.07327162                0.49993760               -0.02955633               -0.02944940                0.09831678               -0.00008360                0.11159658                0.00087924
               8.32403972                4.06470969               51.95737482                0.49906078                0.01695826                0.01706419               -0.05670421               -0.00009075                0.11295257               -0.00021616
               9.32444191                4.06320959               51.84145433                0.50199825                0.06347645                0.06358688               -0.21174350               -0.00011415                0.10619726               -0.00142968
              10.32530925                4.06169978               51.72543836                0.50879467                0.10998288                0.11014605               -0.36679921               -0.00014325                0.09135769               -0.00285948
              11.32664157                4.06018032               51.60925520                0.51958849                0.15647090                0.15675746               -0.52186593               -0.00015276                0.06842954               -0.00458681
              12.32843867                4.05865153               51.49283296                0.53461133                0.20294551                0.20339866               -0.67692728               -0.00010747                0.03737022               -0.00667672
              13.33070048                4.05711393               51.37609909                0.77336020                0.22618104                0.24999756               -0.83195019                0.00042603                0.01735630               -0.00917059
               3.33021519                5.06991406               52.53602556                0.77738030               -0.19113568               -0.21483367                0.71501478               -0.00048217                0.01384691                0.01226718
               4.32830384                5.06892784               52.41920247                0.53378388               -0.16793138               -0.16828147                0.56001797               -0.00002831                0.04530631                0.00782912
               5.32685657                5.06793179               52.30293401                0.51327392               -0.12152505               -0.12164835                0.40512766               -0.00006658                0.08603175                0.00508541
               6.32587334                5.06692599               52.18686903                0.50459169               -0.07509151               -0.07504955                0.25016228               -0.00010400                0.10434463                0.00302127
               7.32535474                5.06591041               52.07092857                0.49991311               -0.02860808               -0.02850164                0.09515740               -0.00013597                0.11403607                0.00135974
               8.32530118                5.06488513               51.95503733                0.49909284                0.01790374                0.01802014               -0.05987288               -0.00015127                0.11534493               -0.00016387
               9.32571281                5.06385032               51.83912116                0.50208609                0.06442187                0.06454951               -0.21492272               -0.00014569                0.10836498               -0.00179135
              10.32658961                5.06280616               51.72310661                0.50893936                0.11093080                0.11111375               -0.36998911               -0.00011904                0.09314670               -0.00374479
              11.32793143                5.06175279               51.60692056                0.51979074                0.15742491                0.15772237               -0.52506439               -0.00007739                0.06970646               -0.00623606
              12.32973811                5.06069027               51.49048989                0.53487519                0.20390843                0.20435086               -0.68013171               -0.00003432                0.03803339               -0.00945386
              13.33200960                5.05961851               51.37374123                0.77351333                0.22714856                0.25093760               -0.83515803                0.00046576                0.01768261               -0.01352953
               3.33096401                6.06777043               52.53369390                0.77717163               -0.19018709               -0.21391381                0.71186103               -0.00044887                0.01438464                0.01570797
               4.32906214                6.06724976               52.41684716                0.53349912               -0.16699304               -0.16732877                0.55685925                0.00005197                0.04683750                0.00966361
               5.32762415                6.06672008               52.30057529                0.51313306               -0.12059945               -0.12067033                0.40196952                0.00000565                0.08895950                0.00612868
               6.32665015                6.06618027               52.18451496                0.50451662               -0.07416316               -0.07407690                0.24700313               -0.00010564                0.10789922                0.00357992
               7.32614089                6.06563016               52.06858400                0.49990035               -0.02766865               -0.02754316                0.09199479               -0.00018652                0.11789958                0.00161987
               8.32609678                6.06507009               51.95270395                0.49913786                0.01885379                0.01896928               -0.06304090               -0.00020749                0.11921424               -0.00011897
               9.32651796                6.06450058               51.83679777                0.50218513                0.06538095                0.06549202               -0.21809744               -0.00017357                0.11195434               -0.00196506
              10.32740440                6.06392205               51.72078920                0.50909218                0.11189747                0.11204941               -0.37317077               -0.00009446                0.09617672               -0.00424429
              11.32875591                6.06333477               51.60460233                0.51999802                0.15839328                0.15865967               -0.52825268               -0.00000112                0.07191009               -0.00730748
              12.33057226                6.06273855               51.48816149                0.53514115                0.20486982                0.20530924               -0.68332563                0.00004268                0.03919217               -0.01150577
              13.33285331                6.06213268               51.37139149                0.77366675                0.22810459                0.25192185               -0.83835660                0.00050967                0.01826422               -0.01710763
               3.33124755                7.06563579               52.53134854                0.77696325               -0.18923234               -0.21306110                0.70869724               -0.00039444                0.01517063                0.01760139
               4.32935523                7.06558127               52.41447153                0.53321674               -0.16606911               -0.16634528                0.55368811                0.00014543                0.04908407                0.01005196
               5.32792617                7.06551839               52.29819899                0.51300054               -0.11970427               -0.11963631                0.39880171                0.00004237                0.09323132                0.00612796
               6.32696114                7.06544445               52.18214925                0.50445413               -0.07324925               -0.07308309                0.24383732               -0.00015543                0.11304269                0.00351405
               7.32646119                7.06535954               52.06623541                0.49990046               -0.02672678               -0.02658721                0.08882921               -0.00025221                0.12346705                0.00159219
               8.32642661                7.06526451               51.95037480                0.49919617                0.01980981                0.01991132               -0.06620786               -0.00026237                0.12481393               -0.00007860
               9.32685738                7.06516016               51.83448674                0.50229805                0.06634603                0.06642309               -0.22126710               -0.00020785                0.11721937               -0.00186267
              10.32775353                7.06504715               51.71849130                0.50925569                0.11287617                0.11296108               -0.37634383               -0.00009226                0.10071085               -0.00414378
              11.32911491                7.06492598               51.60230833                0.52021103                0.15937603                0.15956250               -0.53142989                0.00006466                0.07527808               -0.00740646
              12.33094105                7.06479645               51.48585768                0.53540872                0.20583096                0.20626421               -0.68650746                0.00013699                0.04099125               -0.01226599
              13.33323152                7.06465694               51.36906060                0.77382060                0.22904749                0.25297089               -0.84154476                0.00057391                0.01918042               -0.01926234
               3.33106516                8.06350921               52.52897146                0.77675372               -0.18827097               -0.21236386                0.70551861               -0.00029494                0.01634265                0.01730121
               4.32918245                8.06392286               52.41205894                0.53293914               -0.16516739               -0.16523973                0.55050012                0.00019779                0.05236656                0.00835964
               5.32776181                8.06432735               52.29579348                0.51287962               -0.11882821               -0.11856840                0.39562160               -0.00006655                0.09935133                0.00490093
               6.32680589                8.06471861               52.17976530                0.50440687               -0.07230141               -0.07212974                0.24066367               -0.00026019                0.12021378                0.00279086
               7.32631578                8.06509842               52.06387991                0.49991882               -0.02574862               -0.02565062                0.08566028               -0.00030321                0.13107736                0.00126829
               8.32629091                8.06546832               51.94805004                0.49927337                0.02076946                0.02084891               -0.06937360               -0.00028024                0.13245318               -0.00003847
               9.32673117                8.06582904               51.83219140                0.50242805                0.06729085                0.06736095               -0.22443075               -0.00023012                0.12450974               -0.00144753
              10.32763673                8.06618127               51.71622010                0.50943280                0.11383656                0.11388288               -0.37950630               -0.00012523                0.10718274               -0.00331414
              11.32900791                8.06652602               51.60005055                0.52043367                0.16036566                0.16043269               -0.53459220                0.00006343                0.08026641               -0.00615816
              12.33084404                8.06686384               51.48359476                0.53567781                0.20679485                0.20716661               -0.68967255                0.00023458                0.04373953               -0.01092722
              13.33314380                8.06719210               51.36676668                0.77397313                0.22997574                0.25414848               -0.84471870                0.00068128                0.02061829               -0.01903361
               3.33041436                9.06138851               52.52653714                0.77654336               -0.18733148               -0.21198718                0.70231889               -0.00034289                0.01800254                0.01277044
               4.32854104                9.06227647               52.40958482                0.53266903               -0.16426349               -0.16392232                0.54728813               -0.00000593                0.05734335                0.00428028
               5.32712909                9.06314702               52.29334627                0.51277889               -0.11780817               -0.11770745                0.39242468               -0.00023362                0.10824408                0.00269548
               6.32618488                9.06400186               52.17735696                0.50438173               -0.07118372               -0.07123603                0.23747943               -0.00029715                0.12990140                0.00153250
               7.32570541                9.06484653               52.06151484                0.49996045               -0.02472488               -0.02473343                0.08248655               -0.00023105                0.14104563                0.00070118
               8.32569038                9.06568149               51.94572987                0.49937385                0.02172070                0.02179111               -0.07253825               -0.00019882                0.14242924               -0.00000780
               9.32613983                9.06650738               51.82991505                0.50257929                0.06818308                0.06832207               -0.22758720               -0.00017309                0.13420296               -0.00077918
              10.32705404                9.06732481               51.71398335                0.50962956                0.11468925                0.11485066               -0.38265504               -0.00014145                0.11619258               -0.00182973
              11.32843361                9.06813464               51.59784429                0.52067017                0.16128082                0.16138228               -0.53773463               -0.00000685                0.08779347               -0.00351308
              12.33027966                9.06893978               51.48139878                0.53595307                0.20775033                0.20795445               -0.69281276                0.00020897                0.04817246               -0.00659554
              13.33258862                9.06973991               51.36453971                0.77412534                0.23089591                0.25557488               -0.84786688                0.00068288                0.02296885               -0.01388300
               3.32928237               10.05926947               52.52398673                0.88820221               -0.18585504               -0.21190413                0.69908031                0.02429627                0.02378832                0.01109851
               4.32742382               10.06064441               52.40702646                0.76624878               -0.16253100               -0.16320601                0.54404606                0.02346504                0.06663674                0.00324958
               5.32603175               10.06197320               52.29085070                0.75636144               -0.11616966               -0.11738125                0.38920724                0.02274061                0.12082830                0.00256125
               6.32510043               10.06329389               52.17492003                0.75218841               -0.07001115               -0.07079682                0.23428028                0.02308226                0.14234308                0.00147651
               7.32463153               10.06460375               52.05913836                0.75000090               -0.02371709               -0.02427839                0.07930519                0.02312441                0.15357809                0.00059486
               8.32462609               10.06590414               51.94341428                0.74972684                0.02264339                0.02226506               -0.07570246                0.02315737                0.15493770               -0.00022512
               9.32508440               10.06719548               51.82765981                0.75134688                0.06902783                0.06880992               -0.23073487                0.02316441                0.14658230               -0.00107952
              10.32600665               10.06847829               51.71178677                0.75488618                0.11541963                0.11534812               -0.38578612                0.02316953                0.12827901               -0.00208779
              11.32739279               10.06975367               51.59570252                0.76041880                0.16181518                0.16190278               -0.54085004                0.02314988                0.09927798               -0.00346504
              12.32924295               10.07102293               51.47930387                0.76807071                0.20822036                0.20831425               -0.69591423                0.02382566                0.05710110               -0.00562554
              13.33155720               10.07230360               51.36244865                0.88711387                0.23142500                0.25636866               -0.85096456                0.02492550                0.02973611               -0.01211098
               3.43720221                0.08304984               53.55492732                0.89143561               -0.19156659               -0.21604397                0.71636344               -0.02455826                0.01960554               -0.00499242
               4.43528654                0.07973000               53.43663490                0.77200351               -0.16881275               -0.16860318                0.56440664               -0.02321086                0.04626438               -0.00479975
               5.43382595                0.07642745               53.31879912                0.76033657               -0.12340267               -0.12337916                0.41253903               -0.02258033                0.08366800               -0.00201397
               6.43281849                0.07311670               53.20119645                0.75398940               -0.07804605               -0.07774798                0.26065879               -0.02273441                0.10418337               -0.00113898
               7.43226503                0.06979775               53.08373081                0.75048104               -0.03260765               -0.03216533                0.10876536               -0.02275486                0.11502502               -0.00047991
               8.43216633                0.06646937               52.96632300                0.74975800                0.01287949                0.01343054               -0.04313997               -0.02277348                0.11720869                0.00006415
               9.43252262                0.06313127               52.84889726                0.75180067                0.05838110                0.05902748               -0.19505904               -0.02277497                0.11097244                0.00056587
              10.43333396                0.05978306               52.73137917                0.75662863                0.10387578                0.10461856               -0.34699408               -0.02278094                0.09635629                0.00107071
              11.43460013                0.05642366               52.61369377                0.76429778                0.14936958                0.15024654               -0.49894559               -0.02273540                0.07322735                0.00163644
              12.43632135                0.05305245               52.49576398                0.77490142                0.19480463                0.19565387               -0.65091047               -0.02332666                0.04096645                0.00230265
              13.43849623                0.04965279               52.37750246                0.89172107                0.21748805                0.24297479               -0.80288719               -0.02337646                0.02001669                0.00411923
               3.44027646                1.08088940               53.55260515                0.77989210               -0.19108370               -0.21518114                0.71331768               -0.00058455                0.01592642               -0.00378007
               4.43836562                1.07804397               53.43429285                0.53863341               -0.16848320               -0.16829363                0.56135377               -0.00012513                0.04388869               -0.00465805
               5.43690680                1.07519366               53.31646344                0.51689995               -0.12298136               -0.12281067                0.40948259                0.00004100                0.08163851               -0.00166460
               6.43590600                1.07233922               53.19884788                0.50629747               -0.07728256               -0.07725557                0.25758631                0.00013019                0.10106158               -0.00069373
               7.43536115                1.06947609               53.08136704                0.50045909               -0.03170795               -0.03168641                0.10567544                0.00008656                0.11170333               -0.00031030
               8.43527184                1.06660368               52.96394268                0.49925771                0.01384406                0.01389667               -0.04624758                0.00005814                0.11377038               -0.00018695
               9.43563803                1.06372154               52.84649977                0.50265275                0.05940550                0.05948464               -0.19818444                0.00003613                0.10747457               -0.00017322
              10.43645995                1.06082925               52.72896434                0.51068291                0.10500287                0.10507335               -0.35013764                0.00001169                0.09284738               -0.00016367
              11.43773808                1.05792613               52.61126198                0.52346839                0.15067839                0.15067702               -0.50210767               -0.00013220                0.06975129               -0.00003801
              12.43947352                1.05500899               52.49331600                0.54121517                0.19620191                0.19633067               -0.65409082               -0.00018803                0.03804563                0.00040899
              13.44166212                1.05208254               52.37504921                0.77776198                0.21886068                0.24301462               -0.80607395                0.00050469                0.01761436                0.00188756
               3.44288137                2.07874622               53.55022090                0.77685917               -0.19016000               -0.21370476                0.71026424               -0.00063703                0.01294424               -0.00259293
               4.44097977                2.07636413               53.43188627                0.53319959               -0.16749285               -0.16762168                0.55830037               -0.00025635                0.04343637               -0.00331041
               5.43953152                2.07397124               53.31408552                0.51311243               -0.12205569               -0.12185043                0.40644848               -0.00009521                0.08264588               -0.00144868
               6.43853866                2.07157159               53.19647727                0.50461226               -0.07646062               -0.07629937                0.25453601                0.00005571                0.10049686               -0.00049203
               7.43800230                2.06916402               53.07899395                0.49995728               -0.03083072               -0.03073852                0.10260031                0.00008183                0.11042137               -0.00022217
               8.43792205                2.06674731               52.96156289                0.49900732                0.01477355                0.01483428               -0.04935040                0.00005236                0.11216033               -0.00029492
               9.43829778                2.06432096               52.84411132                0.50171665                0.06037778                0.06041732               -0.20131600                0.00000711                0.10573102               -0.00053882
              10.43912960                2.06188453               52.72656690                0.50812659                0.10599841                0.10601413               -0.35329834               -0.00008128                0.09114273               -0.00082722
              11.44041774                2.05943720               52.60885706                0.51836518                0.15157860                0.15164951               -0.50529649               -0.00022281                0.06835597               -0.00101276
              12.44216117                2.05697907               52.49090867                0.53265110                0.19707387                0.19750814               -0.65730100               -0.00030186                0.03735438               -0.00084439
              13.44435922                2.05451309               52.37264881                0.77209169                0.21980477                0.24342123               -0.80928445                0.00026469                0.01736976               -0.00008186
               3.44502789                3.07661530               53.54783682                0.77665241               -0.18924227               -0.21257370                0.70719675               -0.00055008                0.01329992                0.00241973
               4.44313547                3.07469154               53.42950408                0.53291173               -0.16652326               -0.16681901                0.55523833               -0.00018775                0.04378270                0.00146026
               5.44169743                3.07275665               53.31170539                0.51295855               -0.12105690               -0.12104563                0.40338565               -0.00017522                0.08312970                0.00095088
               6.44071433                3.07081324               53.19410218                0.50451394               -0.07551817               -0.07539657                0.25146596               -0.00005540                0.10089578                0.00071378
               7.44018707                3.06886132               53.07661962                0.49991278               -0.02991962               -0.02980663                0.09951480               -0.00000703                0.11043875                0.00031441
               8.44011594                3.06690036               52.95918634                0.49901679                0.01569416                0.01577796               -0.05245538               -0.00001640                0.11191780               -0.00026408
               9.44050095                3.06492989               52.84173070                0.50178100                0.06130677                0.06137368               -0.20444198               -0.00006238                0.10532855               -0.00099118
              10.44134208                3.06294953               52.72418124                0.50824867                0.10690690                0.10699813               -0.35644510               -0.00013773                0.09067832               -0.00183876
              11.44263909                3.06095912               52.60646646                0.51854673                0.15247593                0.15269423               -0.50846101               -0.00021907                0.06795656               -0.00275948
              12.44439160                3.05895916               52.48851469                0.53288895                0.19801446                0.19847373               -0.66047610               -0.00018992                0.03712644               -0.00368502
              13.44659938                3.05695097               52.37025369                0.77222841                0.22077807                0.24421339               -0.81246028                0.00036639                0.01723454               -0.00458188
               3.44671791                4.07449474               53.54546767                0.77645084               -0.18832392               -0.21157589                0.70412130               -0.00050283                0.01350190                0.00777547
               4.44483467                4.07302775               53.42712612                0.53263331               -0.16557978               -0.16591857                0.55216318               -0.00010323                0.04438481                0.00498902
               5.44340631                4.07155033               53.30932701                0.51281193               -0.12008927               -0.12018752                0.40030887               -0.00013533                0.08423710                0.00330518
               6.44243288                4.07006366               53.19172550                0.50442582               -0.07456391               -0.07450746                0.24838373               -0.00010139                0.10212462                0.00200231
               7.44191503                4.06856788               53.07424534                0.49987934               -0.02898665               -0.02888221                0.09642238               -0.00008223                0.11163522                0.00089237
               8.44185315                4.06706287               52.95681348                0.49903754                0.01661650                0.01672020               -0.05556137               -0.00008928                0.11297199               -0.00021474
               9.44224736                4.06554843               52.83935777                0.50185664                0.06222320                0.06233154               -0.20756298               -0.00011224                0.10619705               -0.00144119
              10.44309762                4.06402449               52.72180639                0.50838024                0.10781854                0.10797862               -0.35958095               -0.00014080                0.09133755               -0.00288379
              11.44440374                4.06249109               52.60408772                0.51873592                0.15339564                0.15367671               -0.51160922               -0.00015007                0.06839679               -0.00462181
              12.44616553                4.06094854               52.48613003                0.53313998                0.19895950                0.19940392               -0.66363203               -0.00010536                0.03734614               -0.00671868
              13.44838293                4.05939736               52.36786109                0.77237444                0.22173974                0.24508980               -0.81561780                0.00041789                0.01733437               -0.00921487
               3.44795182                5.07238379               53.54310597                0.77624950               -0.18740037               -0.21063420                0.70103801               -0.00047266                0.01386076                0.01230600
               4.44607782                5.07137316               53.42474806                0.53235747               -0.16465069               -0.16499418                0.54907772               -0.00002794                0.04538797                0.00786070
               5.44465881                5.07035290               53.30694585                0.51267131               -0.11915359               -0.11927476                0.39722215               -0.00006556                0.08614053                0.00511277
               6.44369475                5.06932309               53.18934636                0.50434510               -0.07362980               -0.07358908                0.24529327               -0.00010216                0.10440498                0.00304214
               7.44318622                5.06828368               53.07187101                0.49985603               -0.02805712               -0.02795314                0.09332542               -0.00013341                0.11406889                0.00137176
               8.44313361                5.06723477               52.95444462                0.49906831                0.01754331                0.01765726               -0.05866742               -0.00014842                0.11535643               -0.00016288
               9.44353708                5.06617652               52.83699311                0.50194214                0.06314992                0.06327516               -0.21067951               -0.00014288                0.10835617               -0.00180272
              10.44439661                5.06510910               52.71944306                0.50851924                0.10874761                0.10892719               -0.36270770               -0.00011687                0.09311885               -0.00376866
              11.44571203                5.06403265               52.60172142                0.51893017                0.15433089                0.15462274               -0.51474516               -0.00007619                0.06966806               -0.00627100
              12.44748322                5.06294723               52.48375523                0.53339307                0.19990373                0.20033765               -0.66677446               -0.00003375                0.03800625               -0.00949816
              13.44971011                5.06185276               52.36547147                0.77252089                0.22268852                0.24601158               -0.81876281                0.00045668                0.01765918               -0.01358118
               3.44872970                6.07028206               53.54074308                0.77604966               -0.18647054               -0.20973255                0.69794661               -0.00043999                0.01439951                0.01575507
               4.44686499                6.06972786               53.42236147                0.53208384               -0.16373096               -0.16406039                0.54598165                0.00005088                0.04692287                0.00969703
               5.44545508                6.06916483               53.30455586                0.51253630               -0.11824633               -0.11831619                0.39412681                0.00000537                0.08907392                0.00615657
               6.44450007                6.06859188               53.18696101                0.50427447               -0.07271980               -0.07263568                0.24219661               -0.00010368                0.10796296                0.00360074
               7.44400068                6.06800882               53.06949512                0.49984443               -0.02713630               -0.02701360                0.09022526               -0.00018282                0.11793356                0.00163155
               8.44395734                6.06741601               52.95207988                0.49911218                0.01847458                0.01858764               -0.06177281               -0.00020327                0.11922535               -0.00011800
               9.44437018                6.06681394               52.83463829                0.50203800                0.06409010                0.06419901               -0.21379138               -0.00017000                0.11194414               -0.00197606
              10.44523914                6.06620303               52.71709414                0.50866698                0.10969515                0.10984436               -0.36582641               -0.00009251                0.09614757               -0.00426771
              11.44656408                6.06558354               52.59937162                0.51913004                0.15528006                0.15554150               -0.51787020               -0.00000116                0.07187125               -0.00734333
              12.44834474                6.06495529               52.48139520                0.53364800                0.20084608                0.20127710               -0.66990508                0.00004160                0.03916549               -0.01155365
              13.45058100                6.06431759               52.36309007                0.77266832                0.22362561                0.24697647               -0.82189835                0.00049936                0.01824183               -0.01716779
               3.44905141                7.06818913               53.53836639                0.77584933               -0.18553472               -0.20889673                0.69484540               -0.00038671                0.01518758                0.01765318
               4.44719606                7.06809196               53.41995445                0.53181383               -0.16282532               -0.16309631                0.54287323                0.00014239                0.04917687                0.01008427
               5.44579490                7.06798658               53.30214819                0.51241090               -0.11736887               -0.11730265                0.39102172                0.00004142                0.09335770                0.00615473
               6.44484869                7.06787037               53.18456396                0.50421453               -0.07182398               -0.07166160                0.23909345               -0.00015228                0.11311675                0.00353384
               7.44435843                7.06774341               53.06711519                0.49984622               -0.02621302               -0.02607660                0.08712234               -0.00024696                0.12350968                0.00160348
               8.44432443                7.06760652               52.94971937                0.49917010                0.01941172                0.01951107               -0.06487722               -0.00025677                0.12483215               -0.00007746
               9.44474666                7.06746050               52.83229588                0.50214791                0.06503606                0.06511172               -0.21689838               -0.00020335                0.11721529               -0.00187275
              10.44562515                7.06730599               52.71476483                0.50882481                0.11065445                0.11073807               -0.36893679               -0.00009025                0.10068698               -0.00416564
              11.44695975                7.06714348               52.59704616                0.51933522                0.15624326                0.15642647               -0.52098430                0.00006332                0.07524377               -0.00744113
              12.44875001                7.06697278               52.47905990                0.53390485                0.20178816                0.20221322               -0.67302397                0.00013423                0.04096810               -0.01231516
              13.45099551                7.06679229               52.36072761                0.77281599                0.22454993                0.24800491               -0.82502431                0.00056266                0.01916081               -0.01932974
               3.44891632                8.06610412               53.53595784                0.77564828               -0.18459247               -0.20821336                0.69172995               -0.00028915                0.01636332                0.01735199
               4.44707040                8.06646594               53.41751029                0.53154747               -0.16194148               -0.16201241                0.53974825                0.00019377                0.05247152                0.00838489
               5.44567749                8.06681878               53.29971119                0.51229587               -0.11651009               -0.11625579                0.38790408               -0.00006551                0.09949765                0.00492273
               6.44474019                8.06715865               53.18214858                0.50417156               -0.07089484               -0.07072711                0.23598242               -0.00025501                0.12030623                0.00280762
               7.44425959                8.06748729               53.06472831                0.49986633               -0.02525418               -0.02515854                0.08401612               -0.00029682                0.13113668                0.00127813
               8.44423511                8.06780623               52.94736327                0.49924664                0.02035236                0.02043014               -0.06798040               -0.00027420                0.13248665               -0.00003708
               9.44466664                8.06811617               52.82996921                0.50227434                0.06596208                0.06603110               -0.21999958               -0.00022513                0.12451998               -0.00145545
              10.44555435                8.06841779               52.71246232                0.50899682                0.11159572                0.11164167               -0.37203650               -0.00012251                0.10717212               -0.00333217
              11.44689856                8.06871207               52.59475706                0.51954868                0.15721336                0.15727971               -0.52408460                0.00006230                0.08024315               -0.00618726
              12.44869862                8.06899956               52.47676563                0.53416432                0.20273314                0.20309807               -0.67612721                0.00023016                0.04372280               -0.01097077
              13.45095322                8.06927768               52.35840225                0.77296239                0.22545995                0.24915925               -0.82813526                0.00066809                0.02060171               -0.01910004
               3.44832200                9.06402487               53.53349184                0.77544653               -0.18367146               -0.20784413                0.68859278               -0.00033614                0.01802763                0.01280823
               4.44648528                9.06485171               53.41500437                0.53128868               -0.16105553               -0.16072053                0.53659946               -0.00000618                0.05746615                0.00429189
               5.44510089                9.06566146               53.29723232                0.51220059               -0.11551032               -0.11541201                0.38477045               -0.00022942                0.10842067                0.00270843
               6.44417508                9.06645583               53.17970871                0.50414976               -0.06979923               -0.06985097                0.23286094               -0.00029138                0.13002187                0.00154270
               7.44370490                9.06724023               53.06233182                0.49990903               -0.02425079               -0.02425940                0.08090501               -0.00022624                0.14113100                0.00070737
               8.44369006                9.06801512               52.94501176                0.49934604                0.02128467                0.02135373               -0.07108239               -0.00019455                0.14248754               -0.00000662
               9.44413060                9.06878112               52.82766161                0.50242263                0.06683670                0.06697313               -0.22309338               -0.00016943                0.13423710               -0.00078366
              10.44502679                9.06953882               52.71019439                0.50918731                0.11243174                0.11259027               -0.37512310               -0.00013833                0.11620500               -0.00184046
              11.44637923                9.07028908               52.59251969                0.51977803                0.15811051                0.15821057               -0.52716502               -0.00000619                0.08779093               -0.00353078
              12.44818900                9.07103474               52.47453856                0.53442812                0.20366963                0.20387045               -0.67920496                0.00020509                0.04816908               -0.00662253
              13.45045262                9.07177548               52.35614411                0.77310854                0.22636179                0.25055729               -0.83122067                0.00066927                0.02296014               -0.01392963
               3.44725592               10.06194724               53.53090936                0.88765666               -0.18222401               -0.20776273                0.68541774                0.02382077                0.02383033                0.01113386
               4.44543368               10.06325153               53.41241391                0.76556284               -0.15935681               -0.16001803                0.53342121                0.02300442                0.06679026                0.00325944
               5.44406878               10.06451054               53.29470489                0.75607479               -0.11390406               -0.11509241                0.38161658                0.02229440                0.12104614                0.00257378
               6.44315560               10.06576163               53.17724010                0.75207402               -0.06865025               -0.06942035                0.22972496                0.02263008                0.14250144                0.00148526
               7.44269578               10.06700210               53.05992384                0.74997561               -0.02326315               -0.02381330                0.07778650                0.02267145                0.15370077                0.00059973
               8.44269033               10.06823331               52.94266484                0.74971262                0.02218904                0.02181832               -0.07418405                0.02270387                0.15503259               -0.00022482
               9.44313956               10.06945563               52.82537521                0.75126709                0.06766480                0.06745124               -0.22617859                0.02271077                0.14665258               -0.00108434
              10.44404363               10.07066960               52.70796681                0.75466368                0.11314800                0.11307789               -0.37819262                0.02271601                0.12832712               -0.00209795
              11.44540252               10.07187629               52.59034708                0.75997063                0.15863466                0.15872066               -0.53021853                0.02269707                0.09931021               -0.00348126
              12.44721632               10.07307697               52.47241295                0.76730522                0.20413036                0.20422310               -0.68224409                0.02335902                0.05712694               -0.00564875
              13.44948512               10.07428883               52.35402240                0.88660331                0.22688015                0.25133527               -0.83425680                0.02443633                0.02975191               -0.01215102
               3.55645068                0.08533728               54.56201938                0.89075297               -0.18773182               -0.21171837                0.70201976               -0.02406550                0.01964528               -0.00499809
               4.55457336                0.08203933               54.44222260                0.77107697               -0.16543442               -0.16522874                0.55311111               -0.02274482                0.04636377               -0.00479808
               5.55314199                0.07875833               54.32288335                0.75988621               -0.12093549               -0.12091259                0.40429042               -0.02212729                0.08381751               -0.00200197
               6.55215465                0.07546929               54.20377709                0.75380061               -0.07648903               -0.07619685                0.25545772               -0.02227859                0.10432852               -0.00112961
               7.55161221                0.07217220               54.08480772                0.75043685               -0.03196221               -0.03152871                0.10661175               -0.02229860                0.11516238               -0.00047410
               8.55151541                0.06886589               53.96589607                0.74974269                0.01261240                0.01315248               -0.04224605               -0.02231682                0.11733465                0.00006632
               9.55186446                0.06555003               53.84696635                0.75170156                0.05720123                0.05783464               -0.19111710               -0.02231823                0.11108146                0.00056422
              10.55265943                0.06222428               53.72794411                0.75633200                0.10178335                0.10251113               -0.34000404               -0.02232410                0.09644343                0.00106513
              11.55390013                0.05888757               53.60875441                0.76368629                0.14636462                0.14722389               -0.48890731               -0.02227944                0.07329063                0.00162631
              12.55558673                0.05553929               53.48932019                0.77385293                0.19088814                0.19172029               -0.63782350               -0.02285867                0.04100470                0.00228826
              13.55771789                0.05216314               53.36955412                0.89102115                0.21311639                0.23809181               -0.78675125               -0.02290728                0.02003297                0.00411295
               3.55950798                1.08322010               54.55966706                0.77864038               -0.18725883               -0.21087272                0.69903559               -0.00057227                0.01594790               -0.00377218
               4.55763539                1.08038704               54.43985033                0.53698699               -0.16511182               -0.16492575                0.55012052               -0.00012227                0.04397138               -0.00464322
               5.55620574                1.07754921               54.32051741                0.51614420               -0.12052274               -0.12035573                0.40129642                0.00004002                0.08176649               -0.00163161
               6.55522493                1.07470732               54.20139811                0.50598167               -0.07574062               -0.07571455                0.25244742                0.00012714                0.10117804               -0.00066681
               7.55469093                1.07185692               54.08241336                0.50038415               -0.03108042               -0.03105956                0.10358434                0.00008433                0.11181125               -0.00029413
               8.55460333                1.06899741               53.96348498                0.49923192                0.01355759                0.01360913               -0.04529077                0.00005646                0.11386669               -0.00018291
               9.55496208                1.06612838               53.84453792                0.50248754                0.05820490                0.05828259               -0.19417934                0.00003493                0.10755366               -0.00018188
              10.55576742                1.06324940               53.72549817                0.51018836                0.10288749                0.10295681               -0.34308407                0.00001112                0.09290406               -0.00018524
              11.55701983                1.06035981               53.60629133                0.52244730                0.14764664                0.14764577               -0.49200541               -0.00012976                0.06978379               -0.00007233
              12.55872036                1.05745649               53.48684072                0.53945557                0.19225689                0.19238360               -0.64093950               -0.00018424                0.03805911                0.00036564
              13.56086497                1.05454406               53.36706932                0.77658457                0.21446115                0.23813062               -0.78987368                0.00049476                0.01761161                0.00185166
               3.56210534                2.08111983               54.55725258                0.77572444               -0.18635374               -0.20942598                0.69604392               -0.00062408                0.01295778               -0.00257839
               4.56024181                2.07874082               54.43741353                0.53176421               -0.16414145               -0.16426772                0.54712916               -0.00025125                0.04352051               -0.00328656
               5.55882252                2.07635122               54.31810946                0.51250294               -0.11961586               -0.11941500                0.39832415               -0.00009348                0.08276705               -0.00140923
               6.55784949                2.07395500               54.19899729                0.50435848               -0.07493532               -0.07477784                0.24945902                0.00005419                0.10058446               -0.00045751
               7.55732381                2.07155101               54.08000983                0.49989715               -0.03022082               -0.03013094                0.10057149                0.00007960                0.11049477               -0.00020080
               8.55724507                2.06913807               53.96107448                0.49898581                0.01446837                0.01452772               -0.04833081                0.00005062                0.11222015               -0.00029013
               9.55761318                2.06671569               53.84211846                0.50158379                0.05915756                0.05919644               -0.19724763                0.00000633                0.10577283               -0.00055178
              10.55842822                2.06428342               53.72306944                0.50773021                0.10386290                0.10387868               -0.34618094               -0.00008005                0.09116227               -0.00085812
              11.55969043                2.06184049               53.60385483                0.51754328                0.14852853                0.14859864               -0.49512963               -0.00021852                0.06835518               -0.00105904
              12.56139879                2.05938696               53.48440162                0.53122694                0.19311105                0.19353728               -0.64408457               -0.00029590                0.03734849               -0.00089911
              13.56355266                2.05692575               53.36463714                0.77113646                0.21538601                0.23852892               -0.79301936                0.00025918                0.01735804               -0.00013024
               3.56425352                3.07903158               54.55483814                0.77552606               -0.18545467               -0.20831791                0.69303876               -0.00053891                0.01331399                0.00244012
               4.56239897                3.07710169               54.43500103                0.53148776               -0.16319150               -0.16348133                0.54412911               -0.00018412                0.04386402                0.00148663
               5.56098969                3.07516091               54.31569901                0.51235476               -0.11863721               -0.11862639                0.39532299               -0.00017196                0.08324180                0.00097906
               6.56002623                3.07321177               54.19659182                0.50426507               -0.07401189               -0.07389325                0.24645107               -0.00005459                0.10096738                0.00073887
               7.55950945                3.07125430               54.07760496                0.49985414               -0.02932817               -0.02921789                0.09754843               -0.00000730                0.11048990                0.00033011
               8.55943966                3.06928797               53.95866719                0.49899456                0.01537033                0.01545231               -0.05137297               -0.00001660                0.11195246               -0.00026144
               9.55981686                3.06731231               53.83970690                0.50164530                0.06006782                0.06013346               -0.20031046               -0.00006153                0.10534441               -0.00100313
              10.56064102                3.06532697               53.72065262                0.50784725                0.10475304                0.10484275               -0.34926419               -0.00013517                0.09067387               -0.00186508
              11.56191192                3.06333178               53.60143291                0.51771647                0.14940771                0.14962214               -0.49823008               -0.00021480                0.06793711               -0.00279667
              12.56362917                3.06132724               53.48197622                0.53145570                0.19403267                0.19448314               -0.64719541               -0.00018605                0.03710953               -0.00372759
              13.56579257                3.05931464               53.36221059                0.77126763                0.21633968                0.23930509               -0.79613079                0.00035905                0.01721635               -0.00462242
               3.56595434                4.07695347               54.55243853                0.77533253               -0.18455498               -0.20734035                0.69002552               -0.00049266                0.01351540                0.00780505
               4.56410879                4.07547119               54.43259263                0.53122068               -0.16226717               -0.16259917                0.54111642               -0.00010131                0.04446456                0.00501701
               5.56270900                4.07397869               54.31329017                0.51221475               -0.11768918               -0.11778569                0.39230887               -0.00013285                0.08434447                0.00333146
               6.56175501                4.07247713               54.19418462                0.50417994               -0.07307694               -0.07302210                0.24343117               -0.00009964                0.10218690                0.00202381
               7.56124746                4.07096665               54.07520006                0.49982182               -0.02841408               -0.02831216                0.09451855               -0.00008093                0.11167306                0.00090515
               8.56118673                4.06944712               53.95626359                0.49901434                0.01627409                0.01637549               -0.05441610               -0.00008779                0.11299087               -0.00021332
               9.56157294                4.06791835               53.83730307                0.50171865                0.06096582                0.06107192               -0.20336842               -0.00011017                0.10619641               -0.00145260
              10.56240605                4.06638028               53.71824674                0.50797376                0.10564623                0.10580332               -0.35233639               -0.00013809                0.09131806               -0.00290761
              11.56368587                4.06483293               53.59902301                0.51789869                0.15030886                0.15058466               -0.50131454               -0.00014712                0.06836569               -0.00465640
              12.56541222                4.06327663               53.47956032                0.53169667                0.19495863                0.19539441               -0.65028748               -0.00010326                0.03732261               -0.00676043
              13.56758504                4.06171185               53.35978673                0.77140782                0.21728183                0.24016356               -0.79922366                0.00040937                0.01731248               -0.00925836
               3.56720822                5.07488477               54.55004632                0.77513974               -0.18365018               -0.20641784                0.68700505               -0.00046323                0.01387367                0.01234481
               4.56537172                5.07384971               54.43018402                0.53095621               -0.16135688               -0.16169358                0.53809349               -0.00002767                0.04546786                0.00789182
               5.56398109                5.07280520               54.31087846                0.51207967               -0.11677243               -0.11689148                0.38928466               -0.00006444                0.08624772                0.00513963
               6.56303627                5.07175132               54.19177489                0.50410277               -0.07216180               -0.07212237                0.24040356               -0.00010025                0.10446440                0.00306266
               7.56253785                5.07068805               54.07279508                0.49979942               -0.02750336               -0.02740191                0.09148430               -0.00013093                0.11410100                0.00138349
               8.56248621                5.06961548               53.95386398                0.49904485                0.01718223                0.01729357               -0.05745932               -0.00014551                0.11536766               -0.00016198
               9.56288149                5.06853375               53.83490757                0.50180043                0.06187378                0.06199641               -0.20642172               -0.00014009                0.10834727               -0.00181380
              10.56372368                5.06744304               53.71585246                0.50810680                0.10655653                0.10673267               -0.35539986               -0.00011462                0.09309143               -0.00379155
              11.56501262                5.06634348               53.59662566                0.51808567                0.15122521                0.15151150               -0.50438699               -0.00007479                0.06963065               -0.00630537
              12.56674819                5.06523513               53.47715440                0.53193902                0.19588373                0.19630922               -0.65336623               -0.00003343                0.03798006               -0.00954219
              13.56893030                5.06411791               53.35736598                0.77154843                0.21821140                0.24106680               -0.80230556                0.00044720                0.01763674               -0.01363233
               3.56801521                6.07282511               54.54765283                0.77494753               -0.18273928               -0.20553452                0.68397681               -0.00043124                0.01441365                0.01580137
               4.56618782                6.07223732               54.42776679                0.53069487               -0.16045576               -0.16077872                0.53506025                0.00004965                0.04700652                0.00973000
               5.56480609                6.07164086               54.30845783                0.51195176               -0.11588348               -0.11595227                0.38625178                0.00000511                0.08918625                0.00618401
               6.56387015                6.07103469               54.18935889                0.50403531               -0.07127023               -0.07118826                0.23736951               -0.00010158                0.10802550                0.00362107
               7.56338069                6.07041862               54.07038851                0.49978948               -0.02660115               -0.02648140                0.08844690               -0.00017902                0.11796697                0.00164308
               8.56333812                6.06979299               53.95146850                0.49908731                0.01809465                0.01820513               -0.06050189               -0.00019903                0.11923631               -0.00011708
               9.56374258                6.06915828               53.83252194                0.50189310                0.06279488                0.06290161               -0.20947075               -0.00016646                0.11193425               -0.00198678
              10.56459402                6.06851493               53.71347267                0.50824926                0.10748486                0.10763133               -0.35845562               -0.00009061                0.09611909               -0.00429053
              11.56589228                6.06786316               53.59424493                0.51827723                0.15215508                0.15241172               -0.50744873               -0.00000134                0.07183304               -0.00737794
              12.56763712                6.06720281               53.47476339                0.53218383                0.19680714                0.19722989               -0.65643401                0.00004045                0.03913887               -0.01160061
              13.56982842                6.06653319               53.35495353                0.77168968                0.21912991                0.24201265               -0.80537917                0.00048924                0.01821901               -0.01722835
               3.56837519                7.07077408               54.54524545                0.77475635               -0.18182228               -0.20471550                0.68093796               -0.00037900                0.01520382                0.01770429
               4.56655696                7.07063413               54.42532900                0.53043593               -0.15956841               -0.15983403                0.53201442                0.00013940                0.04926772                0.01011596
               5.56518382                7.07048615               54.30601943                0.51183167               -0.11502375               -0.11495918                0.38320929                0.00004046                0.09348182                0.00618055
               6.56425649                7.07032756               54.18693112                0.50398018               -0.07039248               -0.07023386                0.23432901               -0.00014910                0.11318958                0.00355329
               7.56377597                7.07015843               54.06797785                0.49979280               -0.02569658               -0.02556334                0.08540672               -0.00024168                0.12355144                0.00161465
               8.56374256                7.06997958               53.94907726                0.49914475                0.01901276                0.01910988               -0.06354345               -0.00025126                0.12484999               -0.00007628
               9.56415622                7.06979178               53.83014878                0.50200003                0.06372167                0.06379587               -0.21251492               -0.00019898                0.11721130               -0.00188258
              10.56501699                7.06959566               53.71111257                0.50840168                0.10842465                0.10850698               -0.36150285               -0.00008828                0.10066402               -0.00418705
              11.56632472                7.06939171               53.59188865                0.51847434                0.15309874                0.15327888               -0.51049990                0.00006219                0.07521032               -0.00747519
              12.56807897                7.06917972               53.47239720                0.53243035                0.19773028                0.19814720               -0.65949021                0.00013176                0.04094381               -0.01236351
              13.57027932                7.06895816               53.35256011                0.77183137                0.22003572                0.24302039               -0.80844223                0.00055145                0.01913851               -0.01939562
               3.56828753                8.06873080               54.54280606                0.77456301               -0.18089917               -0.20404598                0.67788556               -0.00028337                0.01638255                0.01740180
               4.56647854                8.06904064               54.42285390                0.53018132               -0.15870253               -0.15877185                0.52895256                0.00018967                0.05257375                0.00840977
               5.56511348                8.06934168               54.30355156                0.51172334               -0.11418234               -0.11393347                0.38015447               -0.00006433                0.09964133                0.00494445
               6.56419489                8.06963001               54.18448495                0.50394001               -0.06948212               -0.06931831                0.23128089               -0.00024974                0.12039746                0.00282416
               7.56372384                8.06990735               54.06556023                0.49981396               -0.02475722               -0.02466386                0.08236336               -0.00029057                0.13119488                0.00128779
               8.56369975                8.07017519               53.94669044                0.49922049                0.01993428                0.02001035               -0.06658376               -0.00026832                0.13251936               -0.00003566
               9.56412252                8.07043420               53.82779141                0.50212253                0.06462892                0.06469665               -0.21555329               -0.00022026                0.12453007               -0.00146328
              10.56499232                8.07068507               53.70877937                0.50856777                0.10934698                0.10939238               -0.36454020               -0.00011974                0.10716186               -0.00334982
              11.56630946                8.07092874               53.58956886                0.51868141                0.15404935                0.15411495               -0.51353770                0.00006151                0.08022023               -0.00621657
              12.56807331                8.07116575               53.47007221                0.53267971                0.19865598                0.19901404               -0.66253011                0.00022602                0.04370618               -0.01101417
              13.57028258                8.07139360               53.35020398                0.77197169                0.22092695                0.24415095               -0.81148901                0.00065483                0.02058527               -0.01916414
               3.56774985                9.06669316               54.54030900                0.77436955               -0.17999684               -0.20368451                0.67481195               -0.00032942                0.01805217                0.01284500
               4.56594988                9.06745869               54.42031681                0.52993444               -0.15783448               -0.15750575                0.52586741               -0.00000641                0.05758688                0.00430341
               5.56459316                9.06820748               54.30104168                0.51163401               -0.11320278               -0.11310699                0.37708432               -0.00022493                0.10859414                0.00272197
               6.56368582                9.06894119               54.18201418                0.50392179               -0.06840886               -0.06845995                0.22822275               -0.00028543                0.13014013                0.00155301
               7.56322498                9.06966515               54.06313294                0.49985798               -0.02377432               -0.02378290                0.07931529               -0.00022150                0.14121495                0.00071347
               8.56321034                9.07037979               53.94430823                0.49931822                0.02084770                0.02091531               -0.06962309               -0.00019038                0.14254493               -0.00000552
               9.56364194                9.07108571               53.82545318                0.50226817                0.06548593                0.06561969               -0.21858471               -0.00016568                0.13427086               -0.00078807
              10.56452006                9.07178351               53.70648089                0.50875328                0.11016628                0.11032187               -0.36756464               -0.00013518                0.11621717               -0.00185138
              11.56584526                9.07247401               53.58730099                0.51890209                0.15492847                0.15502705               -0.51655609               -0.00000576                0.08778806               -0.00354834
              12.56761863                9.07316001               53.46781468                0.53293349                0.19957343                0.19977090               -0.66554545                0.00020125                0.04816593               -0.00664934
              13.56983673                9.07384118               53.34791529                0.77211144                0.22181034                0.24552043               -0.81451125                0.00065599                0.02295227               -0.01397683
               3.56674987               10.06465711               54.53769508                0.88712095               -0.17857834               -0.20360493                0.67170061                0.02334344                0.02387182                0.01116852
               4.56496409               10.06589052               54.41769489                0.76488872               -0.15616954               -0.15681723                0.52275318                0.02254224                0.06694151                0.00326917
               5.56362648               10.06707954               54.29848303                0.75579259               -0.11162884               -0.11279409                0.37399446                0.02184671                0.12126044                0.00258657
               6.56273151               10.06826081               54.17951453                0.75196165               -0.06728357               -0.06803806                0.22515046                0.02217634                0.14265685                0.00149439
               7.56228081               10.06943169               54.06069409                0.74995032               -0.02280697               -0.02334580                0.07625991                0.02221690                0.15382123                0.00060464
               8.56227537               10.07059349               53.94193060                0.74969885                0.02173366                0.02137055               -0.07266208                0.02224868                0.15512611               -0.00022465
               9.56271548               10.07174659               53.82313624                0.75118858                0.06629738                0.06608818               -0.22160753                0.02225550                0.14672171               -0.00108894
              10.56360132               10.07289151               53.70422291                0.75444468                0.11086824                0.11079963               -0.37057192                0.02226067                0.12837450               -0.00210867
              11.56493285               10.07402928               53.58509815                0.75952995                0.15544231                0.15552686               -0.51954801                0.02224204                0.09934191               -0.00349697
              12.56671017               10.07516117               53.46565899                0.76655437                0.20002513                0.20011661               -0.66852347                0.02289039                0.05715087               -0.00567143
              13.56893335               10.07630401               53.34576351                0.88610278                0.22231843                0.24628268               -0.81748657                0.02394564                0.02976469               -0.01219346
               3.67718867                0.08765452               55.56896771                0.89008229               -0.18388202               -0.20737568                0.68761958               -0.02357092                0.01968488               -0.00500281
               4.67534985                0.08437859               55.44769712                0.77016711               -0.16204294               -0.16184110                0.54177161               -0.02227723                0.04646168               -0.00479569
               5.67394781                0.08111928               55.32688492                0.75944389               -0.11845857               -0.11843630                0.39600945               -0.02167248                0.08396432               -0.00198990
               6.67298068                0.07785207               55.20630561                0.75361569               -0.07492547               -0.07463922                0.25023490               -0.02182089                0.10447083               -0.00112045
               7.67244930                0.07457699               55.08586305                0.75039310               -0.03131370               -0.03088903                0.10444793               -0.02184051                0.11529694               -0.00046834
               8.67235440                0.07129287               54.96547808                0.74972784                0.01234492                0.01287389               -0.04135053               -0.02185837                0.11745808                0.00006846
               9.67269620                0.06799941               54.84507492                0.75160434                0.05601755                0.05663786               -0.18716220               -0.02185978                0.11118838                0.00056264
              10.67347476                0.06469625               54.72457908                0.75604122                0.09968356                0.10039625               -0.33298930               -0.02186552                0.09652874                0.00105957
              11.67468987                0.06138237               54.60391562                0.76308604                0.14334879                0.14419017               -0.47883262               -0.02182174                0.07335235                0.00161698
              12.67634173                0.05805715               54.48300751                0.77282439                0.18695736                0.18777218               -0.62468876               -0.02238884                0.04104188                0.00227536
              13.67842902                0.05470465               54.36176744                0.89033446                0.20872874                0.23319052               -0.77055560               -0.02243633                0.02004843                0.00410754
               3.68022889                1.08558076               55.56658587                0.77741211               -0.18341905               -0.20654745                0.68469779               -0.00056027                0.01596931               -0.00376406
               4.67839470                1.08276018               55.44529526                0.53537331               -0.16172719               -0.16154461                0.53884312               -0.00011985                0.04405255               -0.00462826
               5.67699434                1.07993491               55.32448937                0.51540286               -0.11805427               -0.11789089                0.39307730                0.00003916                0.08189164               -0.00159910
               6.67603361                1.07710568               55.20389683                0.50567178               -0.07419227               -0.07416706                0.24728705                0.00012444                0.10129203               -0.00064038
               7.67551050                1.07426810               55.08343872                0.50031041               -0.03044995               -0.03042973                0.10148335                0.00008217                0.11191704               -0.00027821
               8.67542461                1.07142161               54.96303686                0.49920673                0.01327064                0.01332105               -0.04433216                0.00005482                0.11396100               -0.00017896
               9.67577591                1.06856579               54.84261618                0.50232561                0.05700038                0.05707655               -0.19016096                0.00003377                0.10763110               -0.00019044
              10.67656462                1.06570022               54.72210266                0.50970310                0.10076467                0.10083281               -0.33600559                0.00001047                0.09295973               -0.00020656
              11.67779120                1.06282427               54.60142188                0.52144384                0.14460395                0.14460343               -0.48186649               -0.00012744                0.06981591               -0.00010552
              12.67945670                1.05993487               54.48049721                0.53772949                0.18829743                0.18842185               -0.62773986               -0.00018048                0.03807217                0.00032374
              13.68155715                1.05703656               54.35925174                0.77543052                0.21004539                0.23322826               -0.77361295                0.00048477                0.01760848                0.00181630
               3.68281863                2.08352357               55.56414178                0.77461065               -0.18253286               -0.20513058                0.68176883               -0.00061116                0.01297135               -0.00256424
               4.68099330                2.08114770               55.44282886                0.53035689               -0.16077683               -0.16090046                0.53591389               -0.00024615                0.04360308               -0.00326339
               5.67960309                2.07876146               55.32205200                0.51190525               -0.11716596               -0.11696958                0.39016634               -0.00009165                0.08288544               -0.00137052
               6.67864998                2.07636873               55.20146645                0.50411047               -0.07340363               -0.07324991                0.24436079                0.00005278                0.10067018               -0.00042352
               7.67813502                2.07396840               55.08100538                0.49983743               -0.02960815               -0.02952047                0.09853310                0.00007738                0.11056672               -0.00017991
               8.67805782                2.07155929               54.96059627                0.49896491                0.01416261                0.01422059               -0.04730925                0.00004892                0.11227864               -0.00028546
               9.67841827                2.06914094               54.84016636                0.50145385                0.05793330                0.05797152               -0.19316577                0.00000562                0.10581362               -0.00056465
              10.67921648                2.06671291               54.71964328                0.50734127                0.10171973                0.10173569               -0.33903834               -0.00007900                0.09118181               -0.00088834
              11.68045266                2.06427444               54.59895446                0.51673645                0.14546746                0.14553674               -0.48492611               -0.00021460                0.06835488               -0.00110470
              12.68212583                2.06182559               54.47802698                0.52983159                0.18913394                0.18955181               -0.63082010               -0.00029013                0.03734195               -0.00095374
              13.68423534                2.05936922               54.35678842                0.77020072                0.21095122                0.23361839               -0.77669407                0.00025377                0.01734523               -0.00017849
               3.68496840                3.08147815               55.56169760                0.77442148               -0.18165224               -0.20404539                0.67882542               -0.00052764                0.01332783                0.00246043
               4.68315188                3.07954217               55.44038666                0.53009210               -0.15984650               -0.16013038                0.53297588               -0.00018018                0.04394394                0.00151260
               5.68177147                3.07759552               55.31961185                0.51176333               -0.11620767               -0.11619735                0.38722775               -0.00016852                0.08335173                0.00100687
               6.68082773                3.07564068               55.19903120                0.50402016               -0.07249938               -0.07238362                0.24141525               -0.00005383                0.10103736                0.00076346
               7.68032149                3.07367769               55.07857059                0.49979641               -0.02873396               -0.02862633                0.09557263               -0.00000762                0.11053995                0.00034538
               8.68025305                3.07170602               54.95815888                0.49897285                0.01504596                0.01512602               -0.05028842               -0.00001670                0.11198634               -0.00025892
               9.68062241                3.06972522               54.83772449                0.50151291                0.05882468                0.05888912               -0.19616512               -0.00006073                0.10535992               -0.00101483
              10.68142954                3.06773493               54.71719595                0.50745268                0.10259134                0.10267975               -0.34205754               -0.00013286                0.09066936               -0.00189033
              11.68267423                3.06573500               54.59650186                0.51690303                0.14632850                0.14653907               -0.48796267               -0.00021072                0.06791726               -0.00283369
              12.68435611                3.06372591               54.47557078                0.53005082                0.19003677                0.19047821               -0.63386759               -0.00018245                0.03709237               -0.00377037
              13.68647497                3.06170893               54.35433107                0.77032692                0.21188551                0.23437900               -0.77974224                0.00035150                0.01719839               -0.00466171
               3.68668003                4.07944266               55.55926818                0.77423574               -0.18077114               -0.20308807                0.67587450               -0.00048237                0.01352852                0.00783420
               4.68487232                4.07794509               55.43794845                0.52983646               -0.15894135               -0.15926652                0.53002577               -0.00009919                0.04454266                0.00504492
               5.68350121                4.07643751               55.31717318                0.51162914               -0.11527939               -0.11537414                0.38427633               -0.00013026                0.08444929                0.00335760
               6.68256673                4.07492106               55.19659412                0.50393866               -0.07158386               -0.07153053                0.23845804               -0.00009784                0.10224762                0.00204485
               7.68206953                4.07339587               55.07613571                0.49976532               -0.02783874               -0.02773935                0.09260555               -0.00007949                0.11171020                0.00091776
               8.68200996                4.07186181               54.95572516                0.49899239                0.01593099                0.01603006               -0.05326847               -0.00008623                0.11300934               -0.00021198
               9.68238815                4.07031872               54.83529040                0.50158230                0.05970400                0.05980808               -0.19915951               -0.00010822                0.10619609               -0.00146364
              10.68320404                4.06876650               54.71475966                0.50757360                0.10346610                0.10362036               -0.34506612               -0.00013541                0.09129870               -0.00293084
              11.68445747                4.06720522               54.59406143                0.51707793                0.14721107                0.14748152               -0.49098309               -0.00014407                0.06833412               -0.00469008
              12.68614826                4.06563515               54.47312428                0.53028114                0.19094351                0.19137056               -0.63689524               -0.00010123                0.03729989               -0.00680075
              13.68827634                4.06405680               54.35187662                0.77046084                0.21280807                0.23521983               -0.78277118                0.00040069                0.01729281               -0.00930070
               3.68795390                5.07741639               55.55684607                0.77405123               -0.17988510               -0.20218480                0.67291672               -0.00045365                0.01388702                0.01238296
               4.68615505                5.07635684               55.43550993                0.52958328               -0.15804994               -0.15837978                0.52706562               -0.00002722                0.04554664                0.00792235
               5.68479290                5.07528804               55.31473154                0.51150014               -0.11438165               -0.11449853                0.38131506               -0.00006332                0.08635239                0.00516584
               6.68386741                5.07421007               55.19415443                0.50386599               -0.07068763               -0.07064946                0.23549320               -0.00009828                0.10452216                0.00308297
               7.68337915                5.07312290               55.07370070                0.49974496               -0.02694690               -0.02684797                0.08963418               -0.00012822                0.11413237                0.00139513
               8.68332848                5.07202662               54.95329543                0.49902131                0.01682021                0.01692912               -0.05624857               -0.00014259                0.11537862               -0.00016105
               9.68371555                5.07092138               54.83286467                0.50166166                0.06059319                0.06071341               -0.20214965               -0.00013727                0.10833869               -0.00182470
              10.68454034                5.06980734               54.71233506                0.50770214                0.10435764                0.10453044               -0.34806624               -0.00011219                0.09306456               -0.00381464
              11.68580270                5.06868463               54.59163368                0.51725620                0.14810840                0.14838909               -0.49399168               -0.00007308                0.06959372               -0.00633887
              12.68750251                5.06755332               54.47068790                0.53051412                0.19184939                0.19226629               -0.63990993               -0.00003250                0.03795401               -0.00958496
              13.68963969                5.06641332               54.34942536                0.77059584                0.21371838                0.23610425               -0.78578922                0.00043806                0.01761443               -0.01368338
               3.68879005                6.07539896               55.55442261                0.77386706               -0.17899314               -0.20131989                0.66995144               -0.00042241                0.01442726                0.01584701
               4.68700012                6.07477749               55.43306268                0.52933245               -0.15716754               -0.15748394                0.52409535                0.00004840                0.04708833                0.00976212
               5.68564670                6.07414754               55.31228089                0.51137854               -0.11351108               -0.11357874                0.37834493                0.00000480                0.08929618                0.00621064
               6.68472990                6.07350807               55.19170840                0.50380184               -0.06981447               -0.06973469                0.23252192               -0.00009948                0.10808669                0.00364105
               7.68425041                6.07285891               55.07126406                0.49973519               -0.02606342               -0.02594653                0.08665973               -0.00017525                0.11799950                0.00165436
               8.68420863                6.07220039               54.95086984                0.49906362                0.01771372                0.01782178               -0.05922808               -0.00019483                0.11924679               -0.00011610
               9.68460469                6.07153299               54.83044887                0.50175155                0.06149525                0.06159986               -0.20513552               -0.00016286                0.11192426               -0.00199748
              10.68543854                6.07085711               54.70992503                0.50783864                0.10526676                0.10541049               -0.35105876               -0.00008855                0.09609121               -0.00431301
              11.68671002                6.07017300               54.58922264                0.51744079                0.14901909                0.14927076               -0.49699042               -0.00000099                0.07179559               -0.00741241
              12.68841892                6.06948048               54.46826652                0.53074937                0.19275363                0.19316784               -0.64291405                0.00004006                0.03911211               -0.01164731
              13.69056510                6.06877888               54.34698248                0.77073102                0.21461764                0.23703024               -0.78879809                0.00047932                0.01819552               -0.01728753
               3.68918839                7.07338999               55.55198515                0.77368341               -0.17809520               -0.20051782                0.66697581               -0.00037123                0.01521985                0.01775404
               4.68740744                7.07320716               55.43059474                0.52908561               -0.15629859               -0.15655876                0.52111260                0.00013653                0.04935687                0.01014687
               5.68606242                7.07301646               55.30981238                0.51126453               -0.11266915               -0.11260615                0.37536510                0.00003955                0.09360333                0.00620608
               6.68515405                7.07281538               55.18925054                0.50375016               -0.06895495               -0.06880005                0.22954425               -0.00014606                0.11326073                0.00357228
               7.68468332                7.07260397               55.06882332                0.49973986               -0.02517763               -0.02504752                0.08368257               -0.00023654                0.12359240                0.00162553
               8.68465050                7.07238306               54.94844850                0.49912005                0.01861285                0.01870778               -0.06220658               -0.00024582                0.12486736               -0.00007506
               9.68505557                7.07215337               54.82804558                0.50185438                0.06240287                0.06247563               -0.20811673               -0.00019458                0.11720738               -0.00189220
              10.68589856                7.07191555               54.70753477                0.50798639                0.10618714                0.10626806               -0.35404297               -0.00008596                0.10064125               -0.00420817
              11.68717932                7.07167005               54.58683616                0.51763098                0.14994322                0.15011999               -0.49997829                0.00006131                0.07517679               -0.00750883
              12.68889742                7.07141668               54.46587009                0.53098571                0.19365746                0.19406607               -0.64590648                0.00012904                0.04092027               -0.01241082
              13.69105247                7.07115393               54.34455876                0.77086674                0.21550437                0.23801687               -0.79179670                0.00053986                0.01911771               -0.01945993
               3.68914829                8.07138861               55.54951556                0.77349929               -0.17719100               -0.19986203                0.66398583               -0.00027753                0.01640196                0.01745101
               4.68737638                8.07164632               55.42808934                0.52884107               -0.15545064               -0.15551833                0.51811379                0.00018574                0.05267446                0.00843414
               5.68603927                8.07189542               55.30731428                0.51116145               -0.11184535               -0.11160182                0.37237397               -0.00006316                0.09978219                0.00496539
               6.68513947                8.07213207               55.18677420                0.50371382               -0.06806349               -0.06790359                0.22655943               -0.00024455                0.12048659                0.00284046
               7.68467800                8.07235796               55.06637558                0.49976299               -0.02425773               -0.02416667                0.08070219               -0.00028421                0.13125201                0.00129737
               8.68465432                8.07257455               54.94603159                0.49919431                0.01951522                0.01958962               -0.06518393               -0.00026228                0.13255155               -0.00003432
               9.68506831                8.07278250               54.82565815                0.50197412                0.06329145                0.06335780               -0.21109237               -0.00021518                0.12453978               -0.00147099
              10.68592014                8.07298247               54.70517151                0.50814754                0.10709046                0.10713521               -0.35701776               -0.00011664                0.10715173               -0.00336766
              11.68721012                8.07317540               54.58448631                0.51783008                0.15087383                0.15093867               -0.50295238                0.00006053                0.08019794               -0.00624500
              12.68893762                8.07336180               54.46351502                0.53122434                0.19456371                0.19491494               -0.64888282                0.00022106                0.04368975               -0.01105569
              13.69110139                8.07353922               54.34217247                0.77100138                0.21637712                0.23912415               -0.79478111                0.00064097                0.02056877               -0.01922677
               3.68866741                9.06939275               55.54698808                0.77331313               -0.17630746               -0.19950822                0.66097594               -0.00032275                0.01807557                0.01288137
               4.68690434                9.07009679               55.42552172                0.52860595               -0.15460067               -0.15427808                0.51509252               -0.00000693                0.05770473                0.00431460
               5.68557540                9.07078443               55.30477401                0.51107819               -0.11088601               -0.11079267                0.36936737               -0.00022065                0.10876432                0.00273479
               6.68468662                9.07145731               55.18427317                0.50369958               -0.06701239               -0.06706302                0.22356475               -0.00027933                0.13025632                0.00156325
               7.68423515                9.07212064               55.06391812                0.49980850               -0.02329527               -0.02330392                0.07771729               -0.00021649                0.14129705                0.00071956
               8.68422071                9.07277485               54.94361930                0.49929197                0.02040967                0.02047586               -0.06816032               -0.00018593                0.14260094               -0.00000454
               9.68464335                9.07342053               54.82328991                0.50211714                0.06413072                0.06426170               -0.21406095               -0.00016165                0.13430355               -0.00079267
              10.68550333                9.07405825               54.70284310                0.50832797                0.10789275                0.10804536               -0.35997937               -0.00013198                0.11622919               -0.00186189
              11.68680120                9.07468882               54.58218857                0.51804349                0.15173461                0.15183177               -0.50590801               -0.00000556                0.08778596               -0.00356577
              12.68853802                9.07531498               54.46122765                0.53146753                0.19546206                0.19565629               -0.65183570                0.00019717                0.04816304               -0.00667560
              13.69071044                9.07593641               54.33985388                0.77113557                0.21724223                0.24046533               -0.79774126                0.00064249                0.02294446               -0.01402169
               3.68773374               10.06739844               55.54434337                0.88659569               -0.17491834               -0.19943052                0.65792949                0.02286413                0.02391220                0.01120215
               4.68598456               10.06856076               55.42286897                0.76422875               -0.15296975               -0.15360361                0.51204274                0.02207794                0.06708962                0.00327850
               5.68467435               10.06967956               55.30218478                0.75551752               -0.10934436               -0.11048633                0.36634103                0.02139719                0.12147068                0.00259918
               6.68379767               10.07079081               55.18174311                0.75185095               -0.06591073               -0.06664978                0.22055589                0.02172101                0.14280925                0.00150341
               7.68335613               10.07189188               55.06144904                0.74992646               -0.02234822               -0.02287584                0.07472521                0.02176071                0.15393896                0.00060945
               8.68335071               10.07298407               54.94121160                0.74968492                0.02127723                0.02092166               -0.07113631                0.02179189                0.15521732               -0.00022458
               9.68378168               10.07406774               54.82094306                0.75111243                0.06492535                0.06472044               -0.21702108                0.02179866                0.14678936               -0.00109389
              10.68464921               10.07514338               54.70055537                0.75423040                0.10858023                0.10851311               -0.36292378                0.02180342                0.12842061               -0.00211843
              11.68595328               10.07621203               54.57995611                0.75909813                0.15223813                0.15232114               -0.50883804                0.02178515                0.09937271               -0.00351307
              12.68769398               10.07727493               54.45904248                0.76581812                0.19590461                0.19599495               -0.65475250                0.02242026                0.05717566               -0.00569447
              13.68987137               10.07834853               54.33767266                0.88561257                0.21773969                0.24121171               -0.80065455                0.02345324                0.02977971               -0.01223288
               3.79938556                0.09000092               56.57577177                0.88942404               -0.18001754               -0.20301654                0.67316502               -0.02307469                0.01972387               -0.00500757
               4.79758539                0.08674715               56.45305803                0.76927487               -0.15863828               -0.15844040                0.53038843               -0.02180777                0.04655777               -0.00479424
               5.79621279                0.08350965               56.33080353                0.75901000               -0.11597188               -0.11595019                0.38769579               -0.02121590                0.08410791               -0.00197901
               6.79526595                0.08026443               56.20878179                0.75343281               -0.07335576               -0.07307538                0.24499123               -0.02136144                0.10461016               -0.00111132
               7.79474568                0.07701148               56.08689668                0.75034936               -0.03066230               -0.03024653                0.10227449               -0.02138072                0.11542925               -0.00046262
               8.79465270                0.07374969               55.96506905                0.74971257                0.01207710                0.01259483               -0.04045356               -0.02139827                0.11757930                0.00007053
               9.79498722                0.07047875               55.84322310                0.75150942                0.05483007                0.05543711               -0.18319433               -0.02139961                0.11129321                0.00056113
              10.79574930                0.06719833               55.72128433                0.75575492                0.09757657                0.09827397               -0.32595035               -0.02140524                0.09661251                0.00105412
              11.79693875                0.06390740               55.59917776                0.76249750                0.14032232                0.14114563               -0.46872215               -0.02136246                0.07341280                0.00160742
              12.79855575                0.06060539               55.47682641                0.77181506                0.18301230                0.18380973               -0.61150622               -0.02191744                0.04107850                0.00226233
              13.80059900                0.05727668               55.35414301                0.88966053                0.20432494                0.22827150               -0.75430104               -0.02196349                0.02006448                0.00410207
               3.80240858                1.08797075               56.57336102                0.77620754               -0.17956433               -0.20220546                0.67030480               -0.00054818                0.01598991               -0.00375563
               4.80061294                1.08516275               56.45062719                0.53378937               -0.15832934               -0.15815026                0.52752164               -0.00011705                0.04413190               -0.00461395
               5.79924200                1.08235015               56.32837896                0.51467513               -0.11557610               -0.11541629                0.38482568                0.00003837                0.08201440               -0.00156788
               6.79830142                1.07953367               56.20634385                0.50536762               -0.07263776               -0.07261334                0.24210602                0.00012167                0.10140400               -0.00061433
               7.79778924                1.07670902               56.08444303                0.50023780               -0.02981666               -0.02979704                0.09937288                0.00008015                0.11202101               -0.00026250
               8.79770508                1.07387564               55.96259834                0.49918100                0.01298324                0.01303247               -0.04337194                0.00005326                0.11405368               -0.00017511
               9.79804891                1.07103312               55.84073470                0.50216650                0.05579201                0.05586657               -0.18612956                0.00003256                0.10770711               -0.00019877
              10.79882092                1.06818107               55.71877806                0.50922660                0.09863454                0.09870139               -0.32890257                0.00000975                0.09301422               -0.00022733
              11.80002160                1.06531886               55.59665400                0.52046003                0.14155053                0.14155032               -0.47169175               -0.00012526                0.06984718               -0.00013847
              12.80165194                1.06244349               55.47428593                0.53603645                0.18432386                0.18444599               -0.61449312               -0.00017683                0.03808540                0.00028225
              13.80370807                1.05955940               55.35159706                0.77429779                0.20561384                0.22830844               -0.75729416                0.00047497                0.01760657                0.00178179
               3.80499061                2.08595681               56.57088795                0.77351982               -0.17869677               -0.20081831                0.66743756               -0.00059815                0.01298316               -0.00255018
               4.80320365                2.08358414               56.44813180                0.52897687               -0.15739901               -0.15751996                0.52465431               -0.00024099                0.04368304               -0.00324051
               5.80184263                2.08120133               56.32591279                0.51131919               -0.11470658               -0.11451452                0.38197656               -0.00008984                0.08300165               -0.00133256
               6.80090951                2.07881216               56.20388451                0.50386699               -0.07186576               -0.07171571                0.23924186                0.00005134                0.10075464               -0.00039019
               7.80040532                2.07641554               56.08198049                0.49978043               -0.02899261               -0.02890715                0.09648517                0.00007532                0.11063717               -0.00015932
               8.80032966                2.07401034               55.96012829                0.49894468                0.01385621                0.01391288               -0.04628575                0.00004735                0.11233595               -0.00028094
               9.80068244                2.07159608               55.83825515                0.50132593                0.05670498                0.05674262               -0.18907061                0.00000479                0.10585381               -0.00057714
              10.80146376                2.06917236               55.71628867                0.50695889                0.09956924                0.09958527               -0.33187123               -0.00007801                0.09120069               -0.00091786
              11.80267383                2.06673841               55.59415631                0.51594604                0.14239568                0.14246404               -0.47468687               -0.00021047                0.06835411               -0.00114943
              12.80431167                2.06429431               55.47178522                0.52846431                0.18514279                0.18555225               -0.61750886               -0.00028421                0.03733631               -0.00100725
              13.80637668                2.06184285               55.34910326                0.76928427                0.20650077                0.22869040               -0.76031082                0.00024830                0.01733420               -0.00022612
               3.80714195                3.08395439               56.56841465                0.77333743               -0.17783498               -0.19975644                0.66455724               -0.00051648                0.01334102                0.00247951
               4.80536360                3.08201235               56.44566054                0.52872413               -0.15648845               -0.15676646                0.52177912               -0.00017657                0.04402200                0.00153799
               5.80401218                3.08005986               56.32344357                0.51118269               -0.11376860               -0.11375880                0.37910069               -0.00016513                0.08345945                0.00103444
               6.80308823                3.07809936               56.20142012                0.50378039               -0.07098068               -0.07086783                0.23635898               -0.00005295                0.10110613                0.00078766
               7.80259257                3.07613088               56.07951642                0.49973983               -0.02813693               -0.02803198                0.09358753               -0.00000789                0.11058894                0.00036039
               8.80252549                3.07415390               55.95766142                0.49895099                0.01472078                0.01479910               -0.04920165               -0.00001689                0.11201953               -0.00025644
               9.80288698                3.07216798               55.83578360                0.50138223                0.05757739                0.05764073               -0.19200620               -0.00006000                0.10537535               -0.00102615
              10.80367704                3.07017278               55.71381147                0.50706550                0.10042241                0.10050933               -0.33482649               -0.00013050                0.09066494               -0.00191552
              11.80489543                3.06816814               55.59167366                0.51610469                0.14323858                0.14344506               -0.47765918               -0.00020653                0.06789764               -0.00286960
              12.80654181                3.06615454               55.46929887                0.52867436                0.18602650                0.18645884               -0.62049156               -0.00017878                0.03707553               -0.00381178
              13.80861596                3.06413321               55.34661574                0.76940490                0.20741520                0.22943511               -0.76329451                0.00034392                0.01718066               -0.00470160
               3.80886437                4.08196168               56.56595602                0.77315989               -0.17697260               -0.19881965                0.66166948               -0.00047220                0.01354166                0.00786272
               4.80709464                4.08044882               56.44319314                0.52847939               -0.15560246               -0.15592104                0.51889168               -0.00009719                0.04461939                0.00507210
               5.80575232                4.07892615               56.32097570                0.51105502               -0.11285997               -0.11295304                0.37621185               -0.00012760                0.08455237                0.00338324
               6.80483744                4.07739481               56.19895378                0.50370288               -0.07008465               -0.07003283                0.23346469               -0.00009590                0.10230734                0.00206559
               7.80435062                4.07585490               56.07705217                0.49971006               -0.02726084               -0.02716380                0.09068349               -0.00007809                0.11174644                0.00093002
               8.80429222                4.07430632               55.95519822                0.49896996                0.01558701                0.01568395               -0.05211845               -0.00008476                0.11302760               -0.00021059
               9.80466236                4.07274890               55.83331988                0.50144851                0.05843815                0.05854017               -0.19493711               -0.00010621                0.10619564               -0.00147457
              10.80546099                4.07118255               55.71134541                0.50718156                0.10127864                0.10142993               -0.33777123               -0.00013281                0.09127980               -0.00295391
              11.80668794                4.06960731               55.58920335                0.51627187                0.14410241                0.14436748               -0.48061565               -0.00014122                0.06830367               -0.00472317
              12.80834303                4.06802349               55.46682241                0.52889465                0.18691416                0.18733234               -0.62345550               -0.00009906                0.03727658               -0.00684056
              13.81042622                4.06643155               55.34413131                0.76953387                0.20831848                0.23025840               -0.76626016                0.00039234                0.01727078               -0.00934289
               3.81015824                5.07997799               56.56350466                0.77298376               -0.17610529               -0.19793542                0.65877412               -0.00044397                0.01389965                0.01242056
               4.80839719                5.07889393               56.44072534                0.52823707               -0.15472996               -0.15505302                0.51599424               -0.00002658                0.04562358                0.00795249
               5.80706364                5.07780080               56.31850476                0.51093227               -0.11198133               -0.11209592                0.37331331               -0.00006205                0.08645514                0.00519179
               6.80615756                5.07669870               56.19648476                0.50363254               -0.06920753               -0.06917037                0.23056262               -0.00009635                0.10457881                0.00310263
               7.80567949                5.07558760               56.07458776                0.49969042               -0.02638795               -0.02629132                0.08777520               -0.00012566                0.11416304                0.00140639
               8.80562980                5.07446758               55.95273901                0.49899838                0.01645742                0.01656392               -0.05503527               -0.00013964                0.11538943               -0.00016014
               9.80600864                5.07333878               55.83086457                0.50152523                0.05930844                0.05942628               -0.19786378               -0.00013439                0.10833022               -0.00183547
              10.80681597                5.07220137               55.70889113                0.50730444                0.10215124                0.10232065               -0.34070765               -0.00010988                0.09303829               -0.00383684
              11.80805166                5.07105549               55.58674583                0.51644323                0.14498085                0.14525583               -0.48356072               -0.00007137                0.06955745               -0.00637226
              12.80971559                5.06990118               55.46435620                0.52911803                0.18780089                0.18820912               -0.62640650               -0.00003136                0.03792794               -0.00962737
              13.81180768                5.06873838               55.34165019                0.76966249                0.20920938                0.23112398               -0.76921356                0.00042898                0.01759157               -0.01373221
               3.81102362                6.07800297               56.56105186                0.77280760               -0.17523221               -0.19708880                0.65587141               -0.00041337                0.01444095                0.01589193
               4.80927130                6.07734775               56.43824870                0.52799758               -0.15386632               -0.15417618                0.51308699                0.00004735                0.04716873                0.00979389
               5.80794630                6.07668423               56.31602473                0.51081607               -0.11112937               -0.11119572                0.37040648                0.00000452                0.08940379                0.00623667
               6.80704871                6.07601140               56.19400933                0.50357206               -0.06835297               -0.06827507                0.22765450               -0.00009756                0.10814650                0.00366039
               7.80657924                6.07532908               56.07212170                0.49968217               -0.02552316               -0.02540906                0.08486398               -0.00017153                0.11803158                0.00166548
               8.80653825                6.07463760               55.95028394                0.49903988                0.01733201                0.01743763               -0.05795156               -0.00019053                0.11925735               -0.00011520
               9.80692588                6.07393743               55.82841923                0.50161136                0.06019134                0.06029392               -0.20078624               -0.00015925                0.11191474               -0.00200788
              10.80774208                6.07322896               55.70645149                0.50743613                0.10304115                0.10318205               -0.34363660               -0.00008643                0.09606352               -0.00433515
              11.80898670                6.07251243               55.58430512                0.51662049                0.14587233                0.14611873               -0.48649574               -0.00000058                0.07175854               -0.00744615
              12.81065952                6.07178767               55.46190510                0.52934325                0.18868572                0.18909124               -0.62934600                0.00003949                0.03908667               -0.01169236
              13.81276041                6.07105403               55.33917757                0.76979197                0.21008909                0.23202977               -0.77215690                0.00046910                0.01817415               -0.01734458
               3.81146041                7.07603622               56.55858496                0.77263153               -0.17435359               -0.19630390                0.65295952               -0.00036336                0.01523509                0.01780288
               4.80971687                7.07581040               56.43575125                0.52776080               -0.15301602               -0.15327069                0.51016801                0.00013347                0.04944378                0.01017714
               5.80840009                7.07557689               56.31352673                0.51070716               -0.11030537               -0.11024386                0.36749020                0.00003850                0.09372228                0.00623100
               6.80751076                7.07533320               56.19152201                0.50352343               -0.06751159               -0.06736039                0.22474025               -0.00014298                0.11333090                0.00359101
               7.80704985                7.07507942               56.06965150                0.49968870               -0.02465608               -0.02452920                0.08195010               -0.00023130                0.12363283                0.00163626
               8.80701764                7.07481633               55.94783312                0.49909541                0.01821203                0.01830481               -0.06086685               -0.00024021                0.12488452               -0.00007392
               9.80741410                7.07454466               55.82598644                0.50171247                0.06107970                0.06115112               -0.20370414               -0.00018993                0.11720347               -0.00190196
              10.80823924                7.07426502               55.70403171                0.50757796                0.10394201                0.10402149               -0.34655782               -0.00008371                0.10061904               -0.00422927
              11.80949294                7.07397787               55.58188908                0.51680290                0.14677669                0.14694988               -0.48941987                0.00006008                0.07514468               -0.00754107
              12.81117477                7.07368301               55.45947908                0.52956963                0.18957016                0.18997021               -0.63227416                0.00012609                0.04089770               -0.01245670
              13.81328434                7.07337897               55.33672418                0.76992144                0.21095686                0.23299525               -0.77509159                0.00052827                0.01909802               -0.01952338
               3.81146799                8.07407689               56.55608578                0.77245490               -0.17346864               -0.19566210                0.65003307               -0.00027168                0.01642112                0.01749846
               4.80973330                8.07428234               56.43321618                0.52752837               -0.15218612               -0.15225218                0.50723282                0.00018170                0.05277329                0.00845791
               5.80842427                8.07447936               56.31099904                0.51061151               -0.10949903               -0.10926083                0.36456235               -0.00006200                0.09992034                0.00498668
               6.80754332                8.07466419               56.18901614                0.50349157               -0.06663907               -0.06648297                0.22181861               -0.00023932                0.12057403                0.00285660
               7.80709148                8.07483849               56.06717427                0.49971222               -0.02375575               -0.02366705                0.07903297               -0.00027792                0.13130811                0.00130661
               8.80706821                8.07500370               55.94538676                0.49916885                0.01909537                0.01916793               -0.06378107               -0.00025627                0.13258299               -0.00003302
               9.80747339                8.07516045               55.82356956                0.50182973                0.06194946                0.06201450               -0.20661652               -0.00020999                0.12454912               -0.00147872
              10.80830720                8.07530939               55.70163902                0.50773487                0.10482588                0.10487013               -0.34946884               -0.00011373                0.10714232               -0.00338492
              11.80956991                8.07545143               55.57950981                0.51699427                0.14768728                0.14775124               -0.49233044                0.00005908                0.08017664               -0.00627254
              12.81126094                8.07558708               55.45709456                0.52979823                0.19045726                0.19080131               -0.63518777                0.00021594                0.04367356               -0.01109698
              13.81337905                8.07571394               55.33430836                0.77005092                0.21181134                0.23407928               -0.77801346                0.00062727                0.02055256               -0.01928944
               3.81104408                9.07212298               56.55352852                0.77227697               -0.17260379               -0.19531588                0.64708671               -0.00031588                0.01809972                0.01291732
               4.80931804                9.07276536               56.43061866                0.52730374               -0.15135417               -0.15103789                0.50427556               -0.00000716                0.05782134                0.00432578
               5.80801700                9.07339167               56.30842903                0.51053287               -0.10856014               -0.10846907                0.36161971               -0.00021630                0.10893123                0.00274751
               6.80714684                9.07400354               56.18648547                0.50347945               -0.06561043               -0.06566023                0.21888755               -0.00027354                0.13036972                0.00157314
               7.80670479                9.07460608               56.06468728                0.49975926               -0.02281384               -0.02282255                0.07611133               -0.00021177                0.14137768                0.00072542
               8.80669056                9.07519969               55.94294502                0.49926530                0.01997081                0.02003533               -0.06669422               -0.00018172                0.14265596               -0.00000351
               9.80710421                9.07578495               55.82117196                0.50196883                0.06277096                0.06289915               -0.20952205               -0.00015799                0.13433562               -0.00079689
              10.80794598                9.07636242               55.69928130                0.50790949                0.10561114                0.10576086               -0.35236731               -0.00012889                0.11624138               -0.00187189
              11.80921643                9.07693289               55.57718283                0.51720043                0.14852967                0.14862540               -0.49522309               -0.00000533                0.08778386               -0.00358253
              12.81091658                9.07749903               55.45477797                0.53003145                0.19133660                0.19152735               -0.63807849                0.00019275                0.04815934               -0.00670161
              13.81304316                9.07806056               55.33196047                0.77017858                0.21265838                0.23539247               -0.78091210                0.00062868                0.02293557               -0.01406702
               3.81017691               10.07017058               56.55085367                0.88607998               -0.17124412               -0.19523994                0.64410502                0.02238314                0.02395161                0.01123657
               4.80846447               10.07126158               56.42793574                0.76358097               -0.14975755               -0.15037755                0.50129068                0.02161213                0.06723481                0.00328803
               5.80718176               10.07230998               56.30580985                0.75524750               -0.10705114               -0.10816947                0.35865783                0.02094591                0.12167674                0.00261077
               6.80632344               10.07335099               56.18392565                0.75174327               -0.06453252               -0.06525578                0.21594283                0.02126357                0.14295881                0.00151189
               7.80589111               10.07438204               56.06218860                0.74990253               -0.02188706               -0.02240354                0.07318277                0.02130255                0.15405484                0.00061417
               8.80588570               10.07540440               55.94050787                0.74967157                0.02081982                0.02047167               -0.06960697                0.02133314                0.15530696               -0.00022436
               9.80630750               10.07641843               55.81879582                0.75103772                0.06354873                0.06334814               -0.21241939                0.02133967                0.14685576               -0.00109832
              10.80715668               10.07742461               55.69696444                0.75401915                0.10628428                0.10621869               -0.35524963                0.02134453                0.12846647               -0.00212779
              11.80843319               10.07842393               55.57492139                0.75867432                0.14902277                0.14910435               -0.49809089                0.02132687                0.09940297               -0.00352801
              12.81013713               10.07941762               55.45256394                0.76509693                0.19176986                0.19185901               -0.64093315                0.02194823                0.05719844               -0.00571681
              13.81226858               10.08042179               55.32975042                0.88513268                0.21314530                0.23612327               -0.78376407                0.02295890                0.02979225               -0.01227284
               3.92301062                0.09237588               57.58243101                0.88877888               -0.17613825               -0.19864099                0.65865577               -0.02257647                0.01976135               -0.00501304
               4.92124924                0.08914439               57.45830489                0.76840017               -0.15522053               -0.15502668                0.51896134               -0.02133665                0.04665142               -0.00479286
               5.91990621                0.08592884               57.33463884                0.75858498               -0.11347544               -0.11345429                0.37934950               -0.02075775                0.08424861               -0.00196781
               6.91897973                0.08270573               57.21120543                0.75325521               -0.07177970               -0.07150524                0.23972663               -0.02090048                0.10474680               -0.00110252
               7.91847062                0.07947505               57.08790854                0.75030721               -0.03000813               -0.02960109                0.10009138               -0.02091932                0.11555853               -0.00045708
               8.91837957                0.07623572               56.96466901                0.74969802                0.01180858                0.01231535               -0.03955503               -0.02093643                0.11769803                0.00007257
               9.91870679                0.07298744               56.84141103                0.75141516                0.05363873                0.05423273               -0.17921409               -0.02093778                0.11139603                0.00055946
              10.91945235                0.06972988               56.71806008                0.75547465                0.09546245                0.09614471               -0.31888782               -0.02094328                0.09669445                0.00104895
              11.92061604                0.06646205               56.59454118                0.76191956                0.13728529                0.13809078               -0.45857695               -0.02090130                0.07347239                0.00159837
              12.92219805                0.06318337               56.47077738                0.77082496                0.17905363                0.17983384               -0.59827858               -0.02144410                0.04111463                0.00224905
              13.92419711                0.05987859               56.34668142                0.88900034                0.19990621                0.22333577               -0.73799111               -0.02148915                0.02007989                0.00409592
               3.92601634                1.09038947               57.57999196                0.77502572               -0.17569507               -0.19784727                0.65585780               -0.00053584                0.01601016               -0.00374851
               4.92425939                1.08759413               57.45584569                0.53223688               -0.15491856               -0.15474311                0.51615725               -0.00011413                0.04420979               -0.00460012
               5.92291797                1.08479430               57.33218588                0.51396201               -0.11308828               -0.11293216                0.37654229                0.00003750                0.08213485               -0.00153675
               6.92199763                1.08199067               57.20873895                0.50506994               -0.07107698               -0.07105341                0.23690432                0.00011858                0.10151369               -0.00058897
               7.92149643                1.07917904               57.08542618                0.50016758               -0.02918057               -0.02916149                0.09725287                0.00007786                0.11212252               -0.00024730
               8.92141401                1.07635887               56.96216942                0.49915705                0.01269514                0.01274341               -0.04240990                0.00005159                0.11414429               -0.00017125
               9.92175033                1.07352976               56.83889359                0.50200991                0.05457966                0.05465283               -0.18208551                0.00003140                0.10778175               -0.00020700
              10.92250561                1.07069132               56.71552461                0.50875856                0.09649726                0.09656291               -0.32177608                0.00000918                0.09306779               -0.00024780
              11.92368028                1.06784295               56.59198804                0.51949516                0.13848657                0.13848676               -0.46148219               -0.00012263                0.06987792               -0.00017050
              12.92527534                1.06498171               56.46820735                0.53437868                0.18033643                0.18045633               -0.60120039               -0.00017269                0.03809791                0.00024122
              13.92728701                1.06211195               56.34410586                0.77318943                0.20116687                0.22337147               -0.74091861                0.00046509                0.01760364                0.00174702
               3.92859059                2.08841893               57.57749053                0.77244980               -0.17484619               -0.19648997                0.65305245               -0.00058509                0.01299640               -0.00253643
               4.92684212                2.08604953               57.45332194                0.52762555               -0.15400837               -0.15412676                0.51335232               -0.00023569                0.04376270               -0.00321810
               5.92551042                2.08367020               57.32969153                0.51074486               -0.11223783               -0.11205019                0.37375599               -0.00008795                0.08311588               -0.00129515
               6.92459737                2.08128466               57.20625128                0.50362801               -0.07032191               -0.07017549                0.23410282                0.00004979                0.10083709               -0.00035755
               7.92410398                2.07889182               57.08293508                0.49972169               -0.02837435               -0.02829107                0.09442803                0.00007299                0.11070624               -0.00013939
               8.92402988                2.07649059               56.95967056                0.49892349                0.01354930                0.01360460               -0.04526035                0.00004558                0.11239221               -0.00027636
               9.92437497                2.07408049               56.83638495                0.50120140                0.05547292                0.05550976               -0.18496253                0.00000405                0.10589306               -0.00058936
              10.92513934                2.07166114               56.71300585                0.50658483                0.09741168                0.09742762               -0.32468028               -0.00007679                0.09121940               -0.00094704
              11.92632320                2.06923178               56.58946073                0.51517133                0.13931333                0.13938067               -0.46441223               -0.00020610                0.06835341               -0.00119349
              12.92792560                2.06679250               56.46567681                0.52712645                0.18113743                0.18153848               -0.60415014               -0.00027795                0.03732963               -0.00105993
              13.92994595                2.06434602               56.34158221                0.76838731                0.20203431                0.22374488               -0.74386899                0.00024299                0.01732147               -0.00027286
               3.93074344                3.08645967               57.57498874                0.77227598               -0.17400314               -0.19545130                0.65023506               -0.00050523                0.01335412                0.00249993
               4.92900341                3.08451159               57.45082224                0.52738343               -0.15311757               -0.15338971                0.51053962               -0.00017298                0.04409886                0.00156328
               5.92768109                3.08255330               57.32719386                0.51061578               -0.11132021               -0.11131084                0.37094242               -0.00016181                0.08356521                0.00106129
               6.92677700                3.08058716               57.20375838                0.50354460               -0.06945616               -0.06934597                0.23128266               -0.00005201                0.10117322                0.00081143
               7.92629196                3.07861322               57.08044234                0.49968399               -0.02753735               -0.02743491                0.09159350               -0.00000808                0.11063698                0.00037504
               8.92622625                3.07663096               56.95717485                0.49893088                0.01439510                0.01447151               -0.04811274               -0.00001697                0.11205228               -0.00025402
               9.92657986                3.07463996               56.83388437                0.50125328                0.05632640                0.05638833               -0.18783433               -0.00005915                0.10539027               -0.00103735
              10.92735278                3.07263988               56.71049942                0.50668593                0.09824631                0.09833155               -0.32757125               -0.00012810                0.09066049               -0.00193979
              11.92854479                3.07063057               56.58694868                0.51532243                0.14013802                0.14034036               -0.46732022               -0.00020235                0.06787848               -0.00290522
              12.93015554                3.06861248               56.46316095                0.52732709                0.18200212                0.18242533               -0.60706859               -0.00017481                0.03705864               -0.00385298
              13.93218483                3.06658684               56.33906518                0.76850268                0.20292904                0.22447365               -0.74678822                0.00033668                0.01716242               -0.00474007
               3.93247663                4.08450990               57.57250157                0.77210602               -0.17315980               -0.19453517                0.64741083               -0.00046186                0.01355321                0.00789084
               4.93074503                4.08298174               57.44832628                0.52714904               -0.15225098               -0.15256286                0.50771561               -0.00009529                0.04469407                0.00509883
               5.92943161                4.08144398               57.32469742                0.51049356               -0.11043129               -0.11052257                0.36811644               -0.00012514                0.08465327                0.00340818
               6.92853641                4.07989774               57.20126341                0.50347019               -0.06857955               -0.06852906                0.22845115               -0.00009402                0.10236557                0.00208575
               7.92806002                4.07834312               57.07794938                0.49965512               -0.02668026               -0.02658561                0.08875269               -0.00007659                0.11178195                0.00094214
               8.92800280                4.07678002               56.95468279                0.49894799                0.01524247                0.01533713               -0.05096610               -0.00008315                0.11304554               -0.00020934
               9.92836487                4.07520826               56.83139166                0.50131697                0.05716832                0.05726824               -0.19070158               -0.00010411                0.10619551               -0.00148523
              10.92914617                4.07362777               56.70800424                0.50679711                0.09908390                0.09923210               -0.33045201               -0.00013010                0.09126117               -0.00297619
              11.93034655                4.07203859               56.58444912                0.51548335                0.14098324                0.14124273               -0.47021264               -0.00013834                0.06827291               -0.00475581
              12.93196583                4.07044101               56.46065517                0.52753797                0.18287059                0.18327988               -0.60996850               -0.00009704                0.03725357               -0.00687996
              13.93400396                4.06883549               56.33655141                0.76862604                0.20381264                0.22527895               -0.74968898                0.00038375                0.01724975               -0.00938398
               3.93379053                5.08256896               57.57002155                0.77193707               -0.17231143               -0.19367029                0.64457862               -0.00043432                0.01391193                0.01245663
               4.93206742                5.08146033               57.44582982                0.52691765               -0.15139754               -0.15171381                0.50488143               -0.00002602                0.04569904                0.00798174
               5.93076258                5.08034285               57.32219781                0.51037598               -0.10957181               -0.10968413                0.36528118               -0.00006078                0.08655582                0.00521703
               6.92987598                5.07921658               57.19876568                0.50340427               -0.06772147               -0.06768539                0.22561235               -0.00009428                0.10463435                0.00312203
               7.92940815                5.07808151               57.07545620                0.49963742               -0.02582638               -0.02573211                0.08590775               -0.00012293                0.11419329                0.00141759
               8.92935946                5.07693770               56.95219473                0.49897588                0.01609391                0.01619799               -0.05381956               -0.00013664                0.11540026               -0.00015930
               9.92973003                5.07578532               56.82890740                0.50139053                0.05801976                0.05813507               -0.19356455               -0.00013145                0.10832219               -0.00184596
              10.93051985                5.07462452               56.70552091                0.50691542                0.09993756                0.10010342               -0.33332440               -0.00010738                0.09301217               -0.00385902
              11.93172878                5.07345542               56.58196246                0.51564725                0.14184244                0.14211160               -0.47309310               -0.00006998                0.06952122               -0.00640483
              12.93335670                5.07227808               56.45815977                0.52775097                0.18373795                0.18413751               -0.61285493               -0.00003126                0.03790233               -0.00966836
              13.93540354                5.07109242               56.33404108                0.76874843                0.20468420                0.22612574               -0.75257846                0.00041924                0.01756956               -0.01377992
               3.93468520                6.08063650               57.56754004                0.77176976               -0.17145725               -0.19284185                0.64173859               -0.00040440                0.01445409                0.01593590
               4.93297063                6.07994746               57.44332442                0.52668921               -0.15055265               -0.15085586                0.50203710                0.00004646                0.04724750                0.00982510
               5.93167415                6.07925030               57.31968902                0.51026669               -0.10873834               -0.10880345                0.36243735                0.00000455                0.08950956                0.00626264
               6.93079586                6.07854403               57.19626149                0.50334772               -0.06688547               -0.06680957                0.22276745               -0.00009533                0.10820521                0.00367978
               7.93033644                6.07782848               57.07296134                0.49963089               -0.02498045               -0.02486903                0.08305983               -0.00016766                0.11806284                0.00167639
               8.93029625                6.07710398               56.94971081                0.49901620                0.01694941                0.01705269               -0.05667236               -0.00018618                0.11926766               -0.00011437
               9.93067543                6.07637096               56.82643315                0.50147495                0.05888346                0.05898383               -0.19642345               -0.00015555                0.11190542               -0.00201822
              10.93147392                6.07562983               56.70305230                0.50704212                0.10080800                0.10094607               -0.33618955               -0.00008446                0.09603634               -0.00435720
              11.93269159                6.07488082               56.57949273                0.51581720                0.14271424                0.14295564               -0.47596382               -0.00000077                0.07172223               -0.00747933
              12.93432821                6.07412376               56.45567960                0.52796575                0.18460357                0.18500052               -0.61573075                0.00003826                0.03906163               -0.01173645
              13.93638366                6.07335801               56.33153934                0.76887334                0.20554515                0.22701224               -0.75545937                0.00045874                0.01815300               -0.01740056
               3.93516052                7.07871213               57.56504434                0.77160128               -0.17059751               -0.19207384                0.63888939               -0.00035548                0.01525008                0.01785114
               4.93345454                7.07844322               57.44079810                0.52646377               -0.14972076               -0.14996992                0.49918127                0.00013055                0.04952939                0.01020714
               5.93216610                7.07816678               57.31716218                0.51016278               -0.10793235               -0.10787230                0.35958464                0.00003757                0.09383911                0.00625557
               6.93129590                7.07788039               57.19374534                0.50330231               -0.06606250               -0.06591482                0.21991671               -0.00013994                0.11339906                0.00360928
               7.93084485                7.07758413               57.07046232                0.49963853               -0.02413227               -0.02400834                0.08020932               -0.00022614                0.12367188                0.00164673
               8.93081325                7.07727876               56.94723116                0.49907118                0.01781032                0.01790097               -0.05952424               -0.00023464                0.12490126               -0.00007291
               9.93120106                7.07696500               56.82397150                0.50157290                0.05975244                0.05982233               -0.19927763               -0.00018550                0.11719953               -0.00191128
              10.93200830                7.07664344               56.70060362                0.50717896                0.10168913                0.10176723               -0.33904687               -0.00008194                0.10059678               -0.00424960
              11.93323484                7.07631453               56.57704776                0.51599226                0.14359891                0.14376885               -0.47882457                0.00005874                0.07511295               -0.00757313
              12.93488028                7.07597809               56.45322461                0.52818295                0.18546885                0.18586053               -0.61859552                0.00012367                0.04087586               -0.01250217
              13.93694422                7.07563267               56.32905693                0.76899716                0.20639411                0.22795684               -0.75833045                0.00051708                0.01907902               -0.01958588
               3.93521591                8.07679502               57.56251622                0.77143229               -0.16973205               -0.19144623                0.63602728               -0.00026587                0.01643919                0.01754555
               4.93351859                8.07694806               57.43823400                0.52624097               -0.14890910               -0.14897356                0.49631034                0.00017741                0.05286981                0.00848125
               5.93223772                8.07709286               57.31460553                0.51007220               -0.10714365               -0.10691076                0.35672064               -0.00006101                0.10005564                0.00500683
               6.93137571                8.07722573               57.19121057                0.50327325               -0.06520891               -0.06505660                0.21705875               -0.00023413                0.12065965                0.00287222
               7.93093355                8.07734831               57.06795624                0.49966351               -0.02325144               -0.02316501                0.07735574               -0.00027160                0.13136283                0.00131574
               8.93091068                8.07746199               56.94475597                0.49914353                0.01867439                0.01874530               -0.06237504               -0.00025027                0.13261399               -0.00003182
               9.93130703                8.07756741               56.82152582                0.50168681                0.06060311                0.06066693               -0.20212649               -0.00020506                0.12455861               -0.00148619
              10.93212275                8.07766518               56.69818214                0.50732973                0.10255378                0.10259745               -0.34189447               -0.00011108                0.10713234               -0.00340153
              11.93335811                8.07775620               56.57463970                0.51617553                0.14448993                0.14455304               -0.48167253                0.00005812                0.08015509               -0.00629949
              12.93501255                8.07784097               56.45081127                0.52840235                0.18633668                0.18667363               -0.62144581                0.00021181                0.04365789               -0.01113764
              13.93708484                8.07791714               56.32661220                0.76911934                0.20722980                0.22901703               -0.76118769                0.00061401                0.02053694               -0.01935114
               3.93484912                9.07488320               57.55992981                0.77126198               -0.16888616               -0.19110790                0.63314539               -0.00030921                0.01812217                0.01295218
               4.93316026                9.07546375               57.43560723                0.52602846               -0.14809533               -0.14778542                0.49341740               -0.00000749                0.05793474                0.00433674
               5.93188721                9.07602856               57.31200640                0.50999955               -0.10622507               -0.10613642                0.35384187               -0.00021182                0.10909481                0.00276029
               6.93103576                9.07657926               57.18865092                0.50326655               -0.06420260               -0.06425180                0.21419141               -0.00026739                0.13048113                0.00158333
               7.93060316                9.07712083               57.06544035                0.49971075               -0.02233016               -0.02233886                0.07449767               -0.00020680                0.14145648                0.00073123
               8.93058915                9.07765366               56.94228542                0.49923974                0.01953069                0.01959388               -0.06522482               -0.00017740                0.14271006               -0.00000249
               9.93099378                9.07817834               56.81909947                0.50182328                0.06140674                0.06153238               -0.20496890               -0.00015414                0.13436744               -0.00080137
              10.93181729                9.07869539               56.69579576                0.50750028                0.10332207                0.10346886               -0.34473008               -0.00012560                0.11625299               -0.00188218
              11.93306022                9.07920560               56.57228411                0.51637463                0.14531409                0.14540825               -0.48450238               -0.00000469                0.08778129               -0.00359918
              12.93472357                9.07971156               56.44846608                0.52862639                0.18719679                0.18738394               -0.62427336                0.00018902                0.04815567               -0.00672713
              13.93680415                9.08021301               56.32423564                0.76924279                0.20805818                0.23030132               -0.76402230                0.00061519                0.02292663               -0.01411161
               3.93404863               10.07297286               57.55722547                0.88557508               -0.16755571               -0.19103374                0.63022821                0.02190027                0.02399046                0.01126919
               4.93237307               10.07399235               57.43289479                0.76294646               -0.14653282               -0.14713918                0.49049708                0.02114485                0.06737737                0.00329753
               5.93111798               10.07497013               57.30935794                0.75498264               -0.10474864               -0.10584349                0.35094451                0.02049337                0.12187895                0.00262349
               6.93027810               10.07594070               57.18606197                0.75163681               -0.06314856               -0.06385612                0.21131083                0.02080496                0.14310494                0.00152121
               7.92985500               10.07690154               57.06291269                0.74987832               -0.02142393               -0.02192889                0.07163271                0.02084304                0.15416780                0.00061884
               8.92984962               10.07785387               56.93981946                0.74965856                0.02036112                0.02002077               -0.06807422                0.02087287                0.15539491               -0.00022413
               9.93026223               10.07879805               56.81669467                0.75096394                0.06216769                0.06197163               -0.20780318                0.02087937                0.14692085               -0.00110307
              10.93109298               10.07973456               56.69345037                0.75381294                0.10398075                0.10391674               -0.34754975                0.02088429                0.12851103               -0.00213790
              11.93234184               10.08066436               56.56999430                0.75825905                0.14579675                0.14587674               -0.48730759                0.02086707                0.09943268               -0.00354352
              12.93400891               10.08158865               56.44622382                0.76439030                0.18762071                0.18770844               -0.62706543                0.02147450                0.05722105               -0.00573895
              13.93609426               10.08252317               56.32199738                0.88466268                0.20853436                0.23101605               -0.76681166                0.02246253                0.02980401               -0.01231261
               4.04803303                0.09477876               58.58894489                0.88814651               -0.17224466               -0.19424910                0.64409264               -0.02207651                0.01979800               -0.00501750
               5.04631059                0.09156970               58.46343726                0.76754179               -0.15179033               -0.15160034                0.50749221               -0.02086383                0.04674310               -0.00479072
               6.04499723                0.08837622               58.33839052                0.75816747               -0.11096996               -0.11094927                0.37097266               -0.02029792                0.08438649               -0.00195650
               7.04409119                0.08517533               58.21357632                0.75307981               -0.07019760               -0.06992902                0.23444166               -0.02043776                0.10488070               -0.00109365
               8.04359327                0.08196706               58.08889851                0.75026497               -0.02935089               -0.02895284                0.09789874               -0.02045617                0.11568536               -0.00045167
               9.04350417                0.07875031               57.96427795                0.74968450                0.01153986                0.01203526               -0.03865499               -0.02047297                0.11781412                0.00007461
              10.04382407                0.07552482               57.83963882                0.75132375                0.05244367                0.05302448               -0.17522134               -0.02047433                0.11149655                0.00055812
              11.04455304                0.07229025               57.71490657                0.75519942                0.09334126                0.09400846               -0.31180207               -0.02047961                0.09677496                0.00104345
              12.04569090                0.06904565               57.59000622                0.76135319                0.13423816                0.13502566               -0.44839793               -0.02043851                0.07353018                0.00158889
              13.04723781                0.06579045               57.46486084                0.76985570                0.17508163                0.17584445               -0.58500623               -0.02096917                0.04114896                0.00223695
              14.04919253                0.06250972               57.33938319                0.88835350                0.19547236                0.21838291               -0.72162453               -0.02101311                0.02009382                0.00409196
               4.05102133                1.09283627               58.58647817                0.77386857               -0.17181143               -0.19347303                0.64135736               -0.00052374                0.01602970               -0.00374068
               5.04930322                1.09005369               58.46095033                0.53071631               -0.15149521               -0.15132336                0.50475078               -0.00011161                0.04428577               -0.00458609
               6.04799143                1.08726673               58.33590981                0.51326370               -0.11059136               -0.11043879                0.36822816                0.00003664                0.08225267               -0.00150588
               7.04709139                1.08447604               58.21108194                0.50477808               -0.06951027               -0.06948744                0.23168241                0.00011590                0.10162104               -0.00056369
               8.04660122                1.08167753               58.08638808                0.50009723               -0.02854162               -0.02852313                0.09512352                0.00007587                0.11222208               -0.00023227
               9.04652056                1.07887067               57.96175014                0.49913320                0.01240673                0.01245377               -0.04144612                0.00005014                0.11423293               -0.00016758
              10.04684936                1.07605506               57.83709299                0.50185790                0.05336366                0.05343521               -0.17802862                0.00003041                0.10785435               -0.00021495
              11.04758783                1.07323034               57.71234254                0.50830109                0.09435288                0.09441737               -0.31462594                0.00000870                0.09312010               -0.00026792
              12.04873642                1.07039591               57.58742435                0.51855007                0.13541233                0.13541291               -0.45123831               -0.00012005                0.06990810               -0.00020223
              13.05029608                1.06754889               57.46226192                0.53275382                0.17633550                0.17645315               -0.58786259               -0.00016870                0.03811042                0.00020192
              14.05226312                1.06469355               57.33677869                0.77210406                0.19670469                0.21841759               -0.72448664                0.00045497                0.01760117                0.00171486
               4.05358771                2.09090930               58.58394900                0.77140186               -0.17098162               -0.19214609                0.63861546               -0.00057202                0.01300843               -0.00252318
               5.05187790                2.08854323               58.45839885                0.52630161               -0.15060520               -0.15072114                0.50200870               -0.00023064                0.04384024               -0.00319627
               6.05057561                2.08616744               58.33338791                0.51018468               -0.10975961               -0.10957649                0.36550383               -0.00008617                0.08322763               -0.00125838
               7.04968270                2.08378558               58.20856657                0.50339388               -0.06877195               -0.06862923                0.22894356                0.00004857                0.10091755               -0.00032534
               8.04920017                2.08139659               58.08386905                0.49966665               -0.02775335               -0.02767226                0.09236188                0.00007103                0.11077356               -0.00011960
               9.04912764                2.07899939               57.95922308                0.49890470                0.01324184                0.01329574               -0.04423304                0.00004409                0.11244714               -0.00027203
              10.04946501                2.07659352               57.83455590                0.50107888                0.05423690                0.05427305               -0.18084147                0.00000356                0.10593129               -0.00060135
              11.05021237                2.07417860               57.70979507                0.50621794                0.09524683                0.09526277               -0.31746501               -0.00007542                0.09123738               -0.00097535
              12.05136994                2.07175391               57.58486806                0.51441190                0.13622062                0.13628696               -0.45410302               -0.00020169                0.06835309               -0.00123660
              13.05293679                2.06931951               57.45970222                0.52581668                0.17711851                0.17751111               -0.59074621               -0.00027173                0.03732444               -0.00111145
              14.05491231                2.06687807               57.33422588                0.76751028                0.19755256                0.21878238               -0.72737041                0.00023755                0.01731083               -0.00031841
               4.05574203                3.08899335               58.58141935                0.77123589               -0.17015740               -0.19113059                0.63586073               -0.00049382                0.01336687                0.00251883
               5.05404046                3.08703927               58.45587134                0.52607068               -0.14973431               -0.15000060                0.49925894               -0.00016903                0.04417414                0.00158794
               6.05274735                3.08507520               58.33086241                0.51006027               -0.10886244               -0.10885363                0.36275306               -0.00015840                0.08366887                0.00108741
               7.05186321                3.08310346               58.20604577                0.50331436               -0.06792545               -0.06781817                0.22618617               -0.00005111                0.10123890                0.00083443
               8.05138884                3.08112408               58.08134829                0.49962847               -0.02693503               -0.02683523                0.08959079               -0.00000826                0.11068392                0.00038949
               9.05132451                3.07913658               57.95669917                0.49891020                0.01406877                0.01414333               -0.04702188               -0.00001709                0.11208415               -0.00025162
              10.05167022                3.07714052               57.83202692                0.50112847                0.05507138                0.05513204               -0.18364930               -0.00005825                0.10540483               -0.00104832
              11.05242594                3.07513559               57.70726005                0.50631489                0.09606287                0.09614650               -0.32029150               -0.00012538                0.09065594               -0.00196394
              12.05359147                3.07312164               57.58232726                0.51455749                0.13702695                0.13722514               -0.45694601               -0.00019786                0.06785948               -0.00294007
              13.05516648                3.07109911               57.45715750                0.52600838                0.17796396                0.17837802               -0.59359965               -0.00017121                0.03704249               -0.00389357
              14.05715075                3.06906920               57.33167998                0.76762061                0.19842737                0.21949493               -0.73022438                0.00032884                0.01714549               -0.00477836
               4.05748599                4.08708669               58.57890424                0.77107402               -0.16933268               -0.19023477                0.63309887               -0.00045149                0.01356557                0.00791873
               5.05579267                4.08554322               58.45334745                0.52584719               -0.14888705               -0.14919214                0.49649786               -0.00009313                0.04476755                0.00512548
               6.05450825                4.08399037               58.32833803                0.50994407               -0.10799349               -0.10808296                0.35999034               -0.00012246                0.08475189                0.00343289
               7.05363280                4.08242922               58.20352281                0.50324360               -0.06706844               -0.06701945                0.22341787               -0.00009212                0.10242264                0.00210552
               8.05316688                4.08085989               58.07882723                0.49960248               -0.02609711               -0.02600482                0.08681329               -0.00007508                0.11181680                0.00095394
               9.05311085                4.07928225               57.95417890                0.49892634                0.01489723                0.01498967               -0.04981161               -0.00008149                0.11306289               -0.00020812
              10.05346483                4.07769616               57.82950585                0.50118965                0.05589469                0.05599231               -0.18645254               -0.00010199                0.10619478               -0.00149582
              11.05422875                4.07610153               57.70473637                0.50642035                0.09688192                0.09702699               -0.32310838               -0.00012726                0.09124266               -0.00299832
              12.05540247                4.07449841               57.57979910                0.51471094                0.13785315                0.13810718               -0.45977345               -0.00013535                0.06824322               -0.00478735
              13.05698581                4.07288707               57.45462304                0.52620914                0.17881290                0.17921335               -0.59643434               -0.00009534                0.03723170               -0.00691813
              14.05897872                4.07126797               57.32913753                0.76773774                0.19929130                0.22028245               -0.73306151                0.00037472                0.01723029               -0.00942433
               4.05881995                5.08518865               58.57639623                0.77091286               -0.16850334               -0.18938926                0.63033023               -0.00042467                0.01392385                0.01249242
               5.05713491                5.08405543               58.45082297                0.52562637               -0.14805267               -0.14836206                0.49372708               -0.00002560                0.04577280                0.00801057
               6.05585889                5.08291354               58.32581038                0.50983263               -0.10715315               -0.10726322                0.35721836               -0.00005959                0.08665409                0.00524192
               7.05499185                5.08176307               58.20099700                0.50318126               -0.06622950               -0.06619454                0.22064233               -0.00009235                0.10468833                0.00314092
               8.05453430                5.08060399               58.07630592                0.49958577               -0.02526222               -0.02517030                0.08403169               -0.00012031                0.11422253                0.00142838
               9.05448661                5.07943637               57.95166262                0.49895468                0.01572969                0.01583132               -0.05260140               -0.00013358                0.11541035               -0.00015854
              10.05484890                5.07826037               57.82699328                0.50126029                0.05672704                0.05683978               -0.18925160               -0.00012854                0.10831388               -0.00185638
              11.05562115                5.07707613               57.70222464                0.50653367                0.09771641                0.09787880               -0.32591649               -0.00010526                0.09298696               -0.00388026
              12.05680323                5.07588379               57.57728396                0.51486764                0.13869312                0.13895658               -0.46258937               -0.00006884                0.06948620               -0.00643607
              13.05839501                5.07468338               57.45209910                0.52641334                0.17966095                0.18005183               -0.59925630               -0.00003075                0.03787725               -0.00970880
              14.06039645                5.07347485               57.32659862                0.76785516                0.20014353                0.22111040               -0.73588694                0.00040995                0.01754817               -0.01382819
               4.05974395                6.08329890               58.57388663                0.77075249               -0.16766827               -0.18857939                0.62755371               -0.00039552                0.01446732                0.01597816
               5.05806727                6.08257598               58.44828944                0.52540895               -0.14722667               -0.14752327                0.49094618                0.00004527                0.04732470                0.00985513
               6.05679942                6.08184511               58.32327348                0.50972728               -0.10633835               -0.10640212                0.35443792                0.00000431                0.08961266                0.00628756
               7.05594050                6.08110533               58.19846468                0.50312727               -0.06541220               -0.06533823                0.21786087               -0.00009336                0.10826228                0.00369837
               8.05549117                6.08035648               58.07378290                0.49957982               -0.02443512               -0.02432648                0.08124725               -0.00016405                0.11809336                0.00168697
               9.05545180                6.07959888               57.94915049                0.49899415                0.01656617                0.01666693               -0.05539052               -0.00018205                0.11927741               -0.00011355
              10.05582250                6.07883296               57.82449076                0.50134137                0.05757136                0.05766958               -0.19204655               -0.00015213                0.11189606               -0.00202814
              11.05660323                6.07805911               57.69972770                0.50665501                0.09856728                0.09870261               -0.32871749               -0.00008291                0.09601019               -0.00437816
              12.05779384                6.07727754               57.57478584                0.51502927                0.13954562                0.13978200               -0.46539658               -0.00000112                0.07168642               -0.00751150
              13.05939414                6.07648811               57.44959049                0.52661878                0.18050754                0.18089591               -0.60206893                0.00003744                0.03903571               -0.01178006
              14.06140399                6.07569018               57.32406838                0.76797371                0.20098549                0.22197732               -0.73870382                0.00044881                0.01813037               -0.01745666
               4.06025789                7.08141706               58.57136275                0.77059150               -0.16682770               -0.18782845                0.62476807               -0.00034765                0.01526555                0.01789803
               5.05858962                7.08110496               58.44573487                0.52519340               -0.14641334               -0.14665699                0.48815379                0.00012767                0.04961339                0.01023628
               6.05732963                7.08078550               58.32071842                0.50962934               -0.10555038               -0.10549171                0.35164873                0.00003676                0.09395330                0.00627976
               7.05647861                7.08045631               58.19592034                0.50308531               -0.06460765               -0.06446356                0.21507398               -0.00013684                0.11346590                0.00362740
               8.05603747                7.08011746               58.07125569                0.49958849               -0.02360588               -0.02348506                0.07846043               -0.00022104                0.12371040                0.00165702
               9.05600649                7.07976971               57.94664264                0.49904801                0.01740784                0.01749630               -0.05817881               -0.00022931                0.12491767               -0.00007188
              10.05638563                7.07941376               57.82200089                0.50143541                0.05842087                0.05848946               -0.19483720               -0.00018132                0.11719596               -0.00192040
              11.05717491                7.07905019               57.69725077                0.50678672                0.09942875                0.09950564               -0.33151121               -0.00008004                0.10057566               -0.00426956
              12.05837420                7.07867943               57.57231259                0.51519727                0.14041069                0.14057738               -0.46819415                0.00005760                0.07508148               -0.00760491
              13.05998312                7.07830130               57.44710716                0.52682591                0.18135370                0.18173707               -0.60487066                0.00012111                0.04085277               -0.01254664
              14.06200128                7.07791439               57.32155757                0.76809235                0.20181569                0.22290125               -0.74151160                0.00050572                0.01905805               -0.01964622
               4.06036120                8.07954233               58.56880632                0.77043030               -0.16598142               -0.18721481                0.62196967               -0.00025990                0.01645783                0.01759185
               5.05870139                8.07964284               58.44314239                0.52498183               -0.14561977               -0.14568267                0.48534687                0.00017347                0.05296489                0.00850434
               6.05744881                8.07973527               58.31813345                0.50954463               -0.10477935               -0.10455177                0.34884903               -0.00005981                0.10018814                0.00502723
               7.05660580                8.07981606               58.19335731                0.50305951               -0.06377318               -0.06362465                0.21228004               -0.00022893                0.12074315                0.00288774
               8.05617334                8.07988678               58.06872139                0.49961490               -0.02274479               -0.02266058                0.07567053               -0.00026522                0.13141636                0.00132467
               9.05615091                8.07994881               57.94413926                0.49912027                0.01825255                0.01832178               -0.06096588               -0.00024427                0.13264417               -0.00003059
              10.05653840                8.08000275               57.81952704                0.50154684                0.05925261                0.05931533               -0.19762277               -0.00020010                0.12456797               -0.00149360
              11.05733596                8.08004922               57.69480113                0.50693258                0.10027425                0.10031756               -0.33429597               -0.00010812                0.10712307               -0.00341831
              12.05854388                8.08008909               57.56987636                0.51537376                0.14128183                0.14134418               -0.47097879                0.00005741                0.08013395               -0.00632679
              13.06016160                8.08012285               57.44466564                0.52703595                0.18220201                0.18253202               -0.60765709                0.00020760                0.04364220               -0.01117745
              14.06218792                8.08014820               57.31908460                0.76820931                0.20263252                0.22393770               -0.74430450                0.00060051                0.02052132               -0.01941007
               4.06005169                9.07767277               58.56619142                0.77026752               -0.16515452               -0.18688419                0.61915206               -0.00030227                0.01814485                0.01298664
               5.05840015                9.07819131               58.44048701                0.52477844               -0.14482427               -0.14452080                0.48251868               -0.00000785                0.05804650                0.00434711
               6.05715521                9.07869446               58.31550586                0.50947813               -0.10388130               -0.10379499                0.34603471               -0.00020764                0.10925492                0.00277240
               7.05632252                9.07918381               58.19076930                0.50305568               -0.06278928               -0.06283772                0.20947644               -0.00026151                0.13058967                0.00159287
               8.05589942                9.07966425               58.06617724                0.49966495               -0.02184405               -0.02185283                0.07287623               -0.00020182                0.14153350                0.00073684
               9.05588564                9.08013615               57.94164052                0.49921479                0.01908970                0.01915144               -0.06375209               -0.00017294                0.14276271               -0.00000153
              10.05628121                9.08060007               57.81707258                0.50168089                0.06003831                0.06016141               -0.20040160               -0.00015018                0.13439845               -0.00080555
              11.05708641                9.08105654               57.69238670                0.50709868                0.10102552                0.10116942               -0.33706817               -0.00012235                0.11626439               -0.00189211
              12.05830172                9.08150631               57.56749278                0.51556586                0.14208766                0.14218017               -0.47374533               -0.00000415                0.08777886               -0.00361552
              13.05992816                9.08195194               57.44229250                0.52725082                0.18304267                0.18322627               -0.61042060                0.00018532                0.04815267               -0.00675201
              14.06196258                9.08239315               57.31668002                0.76832586                0.20344195                0.22519259               -0.74707392                0.00060166                0.02291929               -0.01415437
               4.05931808               10.07580465               58.56345824                0.88508004               -0.16385390               -0.18681184                0.61630020                0.02141574                0.02402779                0.01130169
               5.05767954               10.07675242               58.43774568                0.76232616               -0.14329640               -0.14388884                0.47966368                0.02067556                0.06751685                0.00330603
               6.05645215               10.07765937               58.31282874                0.75472298               -0.10243764               -0.10350875                0.34320183                0.02003879                0.12207687                0.00263488
               7.05563079               10.07855930               58.18815187                0.75153297               -0.06175894               -0.06245072                0.20665962                0.02034434                0.14324780                0.00152968
               8.05521697               10.07944973               58.06362125                0.74985533               -0.02095814               -0.02145198                0.07007514                0.02038176                0.15427844                0.00062328
               9.05521162               10.08033184               57.93914639                0.74964606                0.01990150                0.01956882               -0.06653804                0.02041108                0.15548091               -0.00022396
              10.05561500               10.08120598               57.81463976                0.75089107                0.06078225                0.06059077               -0.20317244                0.02041744                0.14698474               -0.00110740
              11.05642727               10.08207261               57.69001344                0.75361074                0.10166963                0.10160714               -0.33982419                0.02042218                0.12855483               -0.00214720
              12.05764840               10.08293269               57.56517523                0.75785265                0.14255987                0.14263805               -0.47648746                0.02040528                0.09946162               -0.00355821
              13.05927847               10.08378737               57.44002263                0.76369994                0.18345727                0.18354341               -0.61314991                0.02099901                0.05724359               -0.00576022
              14.06131754               10.08465206               57.31441419                0.88420300                0.20390735                0.22589092               -0.74980013                0.02196443                0.02981731               -0.01235013
               4.17442184                0.09720895               59.59531287                0.88752649               -0.16833725               -0.18984179                0.62947801               -0.02157485                0.01983476               -0.00502219
               5.17273847                0.09402243               59.46845473                0.76670164               -0.14834781               -0.14816188                0.49598226               -0.02038956                0.04683346               -0.00478926
               6.17145488                0.09085115               59.34205829                0.75775924               -0.10845523               -0.10843514                0.36256548               -0.01983663                0.08452153               -0.00194576
               7.17056936                0.08767262               59.21589426                0.75290861               -0.06860946               -0.06834694                0.22913696               -0.01997347                0.10501150               -0.00108507
               8.17008269                0.08448687               59.08986651                0.75022449               -0.02869093               -0.02830191                0.09569690               -0.01999156                0.11580928               -0.00044646
               9.16999554                0.08129284               58.96389591                0.74967036                0.01127060                0.01175483               -0.03775367               -0.02000793                0.11792777                0.00007656
              10.17030811                0.07809026               58.83790660                0.75123418                0.05124492                0.05181244               -0.17121614               -0.02000916                0.11159481                0.00055664
              11.17102044                0.07487882               58.71182404                0.75492961                0.09121337                0.09186520               -0.30469345               -0.02001444                0.09685331                0.00103853
              12.17213237                0.07165757               58.58557322                0.76079876                0.13118110                0.13195050               -0.43818558               -0.01997435                0.07358687                0.00158044
              13.17364406                0.06842596               58.45907726                0.76890635                0.17109614                0.17184147               -0.57168875               -0.02049280                0.04118332                0.00222484
              14.17555430                0.06516942               58.33224893                0.88771992                0.19102322                0.21341317               -0.70520202               -0.02053536                0.02010863                0.00408619
               4.17739261                1.09531054               59.59281911                0.77273412               -0.16791408               -0.18908336                0.62680575               -0.00051160                0.01604970               -0.00373308
               5.17571347                1.09254081               59.46594070                0.52922711               -0.14805959               -0.14789145                0.49330369               -0.00010909                0.04436091               -0.00457269
               6.17443142                1.08976680               59.33955044                0.51258055               -0.10808522               -0.10793633                0.35988368                0.00003557                0.08236823               -0.00147628
               7.17355177                1.08698915               59.21337260                0.50449185               -0.06793761               -0.06791555                0.22644085                0.00011300                0.10172587               -0.00053929
               8.17307267                1.08420385               59.08732865                0.50002759               -0.02790001               -0.02788212                0.09298535                0.00007373                0.11231949               -0.00021765
               9.17299377                1.08141039               58.96134050                0.49910943                0.01211776                0.01216370               -0.04048094                0.00004850                0.11431992               -0.00016393
              10.17331502                1.07860839               58.83533302                0.50170811                0.05214386                0.05221386               -0.17395926                0.00002933                0.10792556               -0.00022282
              11.17403665                1.07579747               58.70923209                0.50785221                0.09220165                0.09226483               -0.30745248                0.00000823                0.09317116               -0.00028735
              12.17515906                1.07297707               58.58296327                0.51762394                0.13232808                0.13232899               -0.44096081               -0.00011779                0.06993736               -0.00023305
              13.17668321                1.07014438               58.45645009                0.53116438                0.17232124                0.17243659               -0.57448014               -0.00016517                0.03812227                0.00016291
              14.17860548                1.06730355               58.32961612                0.77104194                0.19222754                0.21344713               -0.70799941                0.00044485                0.01759830                0.00168202
               4.17995105                2.09342729               59.59026284                0.77037586               -0.16710330               -0.18778669                0.62412700               -0.00055895                0.01302061               -0.00250950
               5.17828002                2.09106460               59.46336212                0.52500538               -0.14718998               -0.14730330                0.49062473               -0.00022553                0.04391622               -0.00317450
               6.17700725                2.08869243               59.33700161                0.50963436               -0.10727248               -0.10709379                0.35722188               -0.00008444                0.08333700               -0.00122272
               7.17613457                2.08631431               59.21083015                0.50316516               -0.06721609               -0.06707709                0.22376463                0.00004709                0.10099645               -0.00029412
               8.17566293                2.08392923               59.08478232                0.49961153               -0.02712968               -0.02705081                0.09028692                0.00006895                0.11083967               -0.00010023
               9.17559198                2.08153611               58.95878590                0.49888576                0.01293384                0.01298633               -0.04320397                0.00004258                0.11250102               -0.00026777
              10.17592161                2.07913454               58.83276812                0.50095813                0.05299719                0.05303263               -0.17670797                0.00000300                0.10596888               -0.00061317
              11.17665192                2.07672412               58.70665655                0.50585828                0.09307504                0.09309099               -0.31022675               -0.00007398                0.09125491               -0.00100314
              12.17778311                2.07430414               58.58037867                0.51366959                0.13311772                0.13318303               -0.44375992               -0.00019733                0.06835208               -0.00127892
              13.17931428                2.07187469               58.45386188                0.52453521                0.17308642                0.17347050               -0.57729847               -0.00026577                0.03731859               -0.00116196
              14.18124484                2.06943836               58.32703480                0.76665150                0.19305629                0.21380364               -0.71081811                0.00023193                0.01729982               -0.00036282
               4.18210680                3.09155480               59.58770596                0.77021768               -0.16629791               -0.18679450                0.62143537               -0.00048259                0.01337958                0.00253767
               5.18044382                3.08959475               59.46080742                0.52478693               -0.14633896               -0.14659932                0.48793788               -0.00016532                0.04424758                0.00161224
               6.17918002                3.08762492               59.33444892                0.50951672               -0.10639583               -0.10638748                0.35453408               -0.00015484                0.08376988                0.00111332
               7.17831591                3.08564761               59.20828210                0.50308847               -0.06638893               -0.06628458                0.22107056               -0.00005010                0.10130319                0.00085711
               8.17785225                3.08366283               59.08223416                0.49957578               -0.02632999               -0.02623292                0.08757916               -0.00000836                0.11072977                0.00040364
               9.17778931                3.08167011               58.95623441                0.49888987                0.01374186                0.01381453               -0.04592900               -0.00001699                0.11211512               -0.00024939
              10.17812708                3.07966904               58.83021138                0.50100601                0.05381256                0.05387191               -0.17945146               -0.00005720                0.10541911               -0.00105909
              11.17886556                3.07765929               58.70409359                0.50595092                0.09387246                0.09395441               -0.31298852               -0.00012275                0.09065139               -0.00198758
              12.18000453                3.07564073               58.57780976                0.51380846                0.13390561                0.13409949               -0.44653730               -0.00019351                0.06784062               -0.00297380
              13.18154367                3.07361379               58.45128896                0.52471885                0.17391239                0.17431722               -0.58008579               -0.00016732                0.03702679               -0.00393272
              14.18348278                3.07157963               58.32446069                0.76675775                0.19391082                0.21449975               -0.71360615                0.00032128                0.01712974               -0.00481615
               4.18386151                4.08969140               59.58516354                0.77006311               -0.16549207               -0.18591912                0.61873670               -0.00044125                0.01357783                0.00794535
               5.18220659                4.08813262               59.45825624                0.52457305               -0.14551101               -0.14580926                0.48523966               -0.00009108                0.04483950                0.00515111
               6.18095129                4.08656468               59.33189723                0.50940548               -0.10554668               -0.10563431                0.35183430               -0.00011971                0.08484835                0.00345691
               7.18009566                4.08498862               59.20573177                0.50302203               -0.06555160               -0.06550403                0.21836555               -0.00009014                0.10247821                0.00212477
               8.17964026                4.08340457               59.07968564                0.49955020               -0.02551127               -0.02542145                0.08486516               -0.00007364                0.11185054                0.00096539
               9.17958543                4.08181240               58.95368656                0.49890549                0.01455138                0.01464151               -0.04865495               -0.00007999                0.11307985               -0.00020693
              10.17993129                4.08021198               58.82766261                0.50106333                0.05461700                0.05471247               -0.18219059               -0.00010005                0.10619434               -0.00150596
              11.18067777                4.07860320               58.70154207                0.50605156                0.09467270                0.09481466               -0.31574053               -0.00012473                0.09122478               -0.00301984
              12.18182474                4.07698613               58.57525365                0.51395282                0.13471296                0.13496136               -0.44930022               -0.00013245                0.06821407               -0.00481806
              13.18337203                4.07536104               58.44872648                0.52491060                0.17474211                0.17513344               -0.58285596               -0.00009305                0.03720909               -0.00695524
              14.18531959                4.07372836               58.32189018                0.76686896                0.19475523                0.21526925               -0.71637845                0.00036638                0.01720900               -0.00946477
               4.18521554                5.08783642               59.58262816                0.76990966               -0.16468159               -0.18509277                0.61603098               -0.00041498                0.01393628                0.01252734
               5.18356873                5.08667856               59.45570436                0.52436357               -0.14469568               -0.14499801                0.48253196               -0.00002502                0.04584522                0.00803866
               6.18232163                5.08551224               59.32934217                0.50929958               -0.10472565               -0.10483320                0.34912558               -0.00005828                0.08675012                0.00526604
               7.18147421                5.08433753               59.20317853                0.50296159               -0.06473196               -0.06469794                0.21565346               -0.00009040                0.10474121                0.00315937
               8.18102699                5.08315441               59.07713683                0.49953473               -0.02469559               -0.02460600                0.08214717               -0.00011778                0.11425127                0.00143894
               9.18098030                5.08196294               58.95114270                0.49893194                0.01536472                0.01546392               -0.05138081               -0.00013080                0.11542055               -0.00015771
              10.18133428                5.08076329               58.82512237                0.50113053                0.05543032                0.05554059               -0.18492573               -0.00012594                0.10830607               -0.00186628
              11.18208891                5.07955558               58.69900258                0.50615917                0.09548826                0.09564712               -0.31848502               -0.00010303                0.09296226               -0.00390115
              12.18324405                5.07833996               58.57271067                0.51410350                0.13553393                0.13579154               -0.45205267               -0.00006715                0.06945199               -0.00646741
              13.18479959                5.07711646               58.44617465                0.52510512                0.17557087                0.17595284               -0.58561387               -0.00002987                0.03785189               -0.00974856
              14.18675547                5.07588501               58.31932335                0.76698217                0.19558798                0.21607834               -0.71913915                0.00040058                0.01752516               -0.01387402
               4.18616893                6.08598954               59.58009111                0.76975675               -0.16386565               -0.18430144                0.61331815               -0.00038638                0.01448026                0.01602049
               5.18453028                6.08523266               59.45314334                0.52415510               -0.14388859               -0.14417845                0.47981475                0.00004419                0.04740019                0.00988482
               6.18329116                6.08446801               59.32677778                0.50919949               -0.10392952               -0.10399192                0.34640905                0.00000406                0.08971369                0.00631232
               7.18245169                6.08369466               59.20061871                0.50291179               -0.06393340               -0.06386134                0.21293605               -0.00009133                0.10831838                0.00371712
               8.18201249                6.08291245               59.07458629                0.49953088               -0.02388745               -0.02378153                0.07942659               -0.00016022                0.11812331                0.00169743
               9.18197394                6.08212168               58.94860300                0.49897068                0.01618200                0.01628044               -0.05410620               -0.00017775                0.11928739               -0.00011276
              10.18233613                6.08132279               58.82259222                0.50120943                0.05625537                0.05635146               -0.18765678               -0.00014849                0.11188724               -0.00203801
              11.18309904                6.08051615               58.69647795                0.50627668                0.09631981                0.09645216               -0.32122214               -0.00008075                0.09598410               -0.00439915
              12.18426253                6.07970197               58.57018479                0.51425917                0.13636693                0.13659802               -0.45479540               -0.00000097                0.07165132               -0.00754401
              13.18582638                6.07888010               58.44363822                0.52530088                0.17639789                0.17677750               -0.58836164                0.00003652                0.03901120               -0.01182347
              14.18779049                6.07804993               58.31676527                0.76709476                0.19641041                0.21692532               -0.72189141                0.00043845                0.01810943               -0.01751057
               4.18672159                7.08415039               59.57753970                0.76960325               -0.16304456               -0.18356794                0.61059683               -0.00033959                0.01527991                0.01794426
               5.18509114                7.08379499               59.45056117                0.52394987               -0.14309405               -0.14333218                0.47708697                0.00012460                0.04969536                0.01026488
               6.18385970                7.08343240               59.32419516                0.50910829               -0.10315956               -0.10310256                0.34368422                0.00003564                0.09406538                0.00630354
               7.18302795                7.08306030               59.19804682                0.50287356               -0.06314711               -0.06300677                0.21021285               -0.00013369                0.11353129                0.00364531
               8.18259676                7.08267877               59.07203153                0.49954127               -0.02307714               -0.02295937                0.07670346               -0.00021567                0.12374766                0.00166713
               9.18256641                7.08228855               58.94606759                0.49902453                0.01700438                0.01709083               -0.05683060               -0.00022365                0.12493372               -0.00007083
              10.18293685                7.08189032               58.82007475                0.50130105                0.05708547                0.05715259               -0.19038370               -0.00017674                0.11719235               -0.00192958
              11.18370812                7.08148463               58.69397339                0.50640431                0.09716146                0.09723676               -0.32395168               -0.00007791                0.10055407               -0.00428960
              12.18488008                7.08107192               58.56768388                0.51442059                0.13721199                0.13737516               -0.45752846                0.00005624                0.07505035               -0.00763618
              13.18645235                7.08065201               58.44112720                0.52549950                0.17722466                0.17759947               -0.59109941                0.00011813                0.04083111               -0.01259068
              14.18842457                7.08022352               58.31422670                0.76720783                0.19722173                0.21782813               -0.72463503                0.00049409                0.01903880               -0.01970627
               4.18687294                8.08231818               59.57495561                0.76944889               -0.16221783               -0.18296851                0.60786259               -0.00025397                0.01647538                0.01763686
               5.18525076                8.08236601               59.44794094                0.52374791               -0.14231877               -0.14238013                0.47434456                0.00016937                0.05305776                0.00852693
               6.18402656                8.08240596               59.32158251                0.50902902               -0.10240616               -0.10218414                0.34094836               -0.00005862                0.10031808                0.00504710
               7.18320264                8.08243453               59.19545617                0.50285017               -0.06233168               -0.06218706                0.20748262               -0.00022351                0.12082488                0.00290279
               8.18277993                8.08245326               59.06946965                0.49956812               -0.02223577               -0.02215377                0.07397749               -0.00025889                0.13146856                0.00133346
               9.18275792                8.08246350               58.94353665                0.49909558                0.01782977                0.01789740               -0.05955392               -0.00023835                0.13267371               -0.00002934
              10.18313652                8.08246584               58.81757336                0.50141078                0.05789814                0.05795948               -0.19310523               -0.00019514                0.12457666               -0.00150083
              11.18391588                8.08246088               58.69149622                0.50654423                0.09798748                0.09803012               -0.32667272               -0.00010543                0.10711330               -0.00343467
              12.18509627                8.08244947               58.56522013                0.51458944                0.13806305                0.13812460               -0.46024949                0.00005607                0.08011311               -0.00635291
              13.18667715                8.08243208               58.43865813                0.52569909                0.17805351                0.17837643               -0.59382213                0.00020253                0.04362681               -0.01121603
              14.18865734                8.08240649               58.31172611                0.76731951                0.19801992                0.21884106               -0.72736463                0.00058650                0.02050592               -0.01946803
               4.18662085                9.08049102               59.57231285                0.76929455               -0.16140974               -0.18264547                0.60510901               -0.00029548                0.01816688                0.01302029
               5.18500675                9.08094739               59.44525760                0.52355695               -0.14154142               -0.14124442                0.47158070               -0.00000791                0.05815576                0.00435805
               6.18379002                9.08138872               59.31892710                0.50896848               -0.10152864               -0.10144467                0.33819809               -0.00020292                0.10941161                0.00278489
               7.18297618                9.08181656               59.19284045                0.50285012               -0.06137045               -0.06141807                0.20474318               -0.00025528                0.13069594                0.00160220
               8.18256261                9.08223570               59.06689787                0.49961879               -0.02135589               -0.02136447                0.07124726               -0.00019699                0.14160895                0.00074247
               9.18254906                9.08264650               58.94101037                0.49918927                0.01864774                0.01870811               -0.06227643               -0.00016886                0.14281447               -0.00000063
              10.18293557                9.08304951               58.81509144                0.50154093                0.05866593                0.05878617               -0.19582042               -0.00014649                0.13442861               -0.00080964
              11.18372238                9.08344523               58.68905439                0.50670578                0.09872158                0.09886246               -0.32938139               -0.00011920                0.11627511               -0.00190156
              12.18491000                9.08383441               58.56280920                0.51477486                0.13885033                0.13894139               -0.46295250               -0.00000399                0.08777651               -0.00363144
              13.18649938                9.08421953               58.43625767                0.52590421                0.17887485                0.17905498               -0.59652241                0.00018083                0.04815002               -0.00677602
              14.18848749                9.08460034               58.30929416                0.76743091                0.19881088                0.22006751               -0.73007165                0.00058768                0.02291272               -0.01419572
               4.18595429               10.07866527               59.56955147                0.88459657               -0.16013847               -0.18257478                0.60232169                0.02092936                0.02406522                0.01133347
               5.18435291               10.07954112               59.44248806                0.76171912               -0.14004794               -0.14062663                0.46879044                0.02020524                0.06765369                0.00331572
               6.18315333               10.08037707               59.31622198                0.75447011               -0.10011787               -0.10116502                0.33542965                0.01958326                0.12226995                0.00264713
               7.18235055               10.08120616               59.19019516                0.75143161               -0.06036411               -0.06103987                0.20199067                0.01988238                0.14338739                0.00153781
               8.18194605               10.08202597               59.06431420                0.74983328               -0.02049059               -0.02097277                0.06851025                0.01991883                0.15438685                0.00062785
               9.18194074               10.08283766               58.93848870                0.74963272                0.01944086                0.01911597               -0.06499856                0.01994734                0.15556526               -0.00022391
              10.18233487               10.08364156               58.81263122                0.75082103                0.05939295                0.05920573               -0.19852815                0.01995364                0.14704752               -0.00111169
              11.18312860               10.08443813               58.68665389                0.75341227                0.09935108                0.09929010               -0.33207419                0.01995843                0.12859726               -0.00215590
              12.18432189               10.08522830               58.56046455                0.75745432                0.13931182                0.13938862               -0.46563121                0.01994193                0.09948984               -0.00357262
              13.18591483               10.08601318               58.43396082                0.76302381                0.17928000                0.17936497               -0.59918917                0.02052192                0.05726636               -0.00578086
              14.18790749               10.08680784               58.30700138                0.88375377                0.19926562                0.22075001               -0.73273560                0.02146501                0.02983143               -0.01238637
               4.30214599                0.09966583               60.60153445                0.88691959               -0.16441627               -0.18541928                0.61481304               -0.02107142                0.01987038               -0.00502619
               5.30050183                0.09650197               60.47335690                0.76587925               -0.14489316               -0.14471132                0.48443171               -0.01991367                0.04692170               -0.00478750
               6.29924813                0.09335301               60.34564183                0.75735937               -0.10593144               -0.10591184                0.35412774               -0.01937387                0.08465357               -0.00193551
               7.29838320                0.09019696               60.21815906                0.75274022               -0.06701552               -0.06675898                0.22381271               -0.01950766                0.10513948               -0.00107680
               8.29790782                0.08703385               60.09081245                0.75018424               -0.02802829               -0.02764826                0.09348603               -0.01952513                0.11593062               -0.00044114
               9.29782263                0.08386266               59.96352288                0.74965616                0.01100108                0.01147395               -0.03685101               -0.01954114                0.11803923                0.00007844
              10.29812784                0.08068312               59.83621450                0.75114532                0.05004290                0.05059701               -0.16719967               -0.01954244                0.11169111                0.00055507
              11.29882349                0.07749492               59.70881270                0.75466715                0.08907875                0.08971508               -0.29756219               -0.01954766                0.09692976                0.00103361
              12.29990941                0.07429715               59.58124251                0.76025602                0.12811383                0.12886509               -0.42793923               -0.01950850                0.07364234                0.00157184
              13.30138577                0.07108927               59.45342707                0.76797738                0.16709766                0.16782550               -0.55832801               -0.02001448                0.04121684                0.00221269
              14.30325137                0.06785705               59.32527915                0.88710065                0.18655988                0.20842713               -0.68872656               -0.02005593                0.02012259                0.00408110
               4.30509914                1.09781164               60.59901429                0.77162487               -0.16400328               -0.18467848                0.61220391               -0.00049918                0.01606836               -0.00372528
               5.30345910                1.09505486               60.47081641                0.52776968               -0.14461200               -0.14444748                0.48181652               -0.00010636                0.04443366               -0.00455913
               6.30220690                1.09229389               60.34310748                0.51191167               -0.10557011               -0.10542482                0.35150930                0.00003455                0.08248092               -0.00144680
               7.30134770                1.08952937               60.21561075                0.50421204               -0.06635905               -0.06633782                0.22117991                0.00011003                0.10182861               -0.00051525
               8.30087971                1.08675737               60.08824779                0.49996301               -0.02725564               -0.02723841                0.09083816                0.00007180                0.11241467               -0.00020319
               9.30080259                1.08397740               59.96094052                0.49908695                0.01182835                0.01187317               -0.03951416                0.00004714                0.11440489               -0.00016037
              10.30111628                1.08118909               59.83361380                0.50156115                0.05092058                0.05098899               -0.16987832                0.00002821                0.10799536               -0.00023065
              11.30182100                1.07839207               59.70619349                0.50741342                0.09004368                0.09010549               -0.30025655                0.00000750                0.09322082               -0.00030653
              12.30291716                1.07558580               59.57860514                0.51671801                0.12923376                0.12923495               -0.43064979               -0.00011534                0.06996595               -0.00026317
              13.30440567                1.07276753               59.45077232                0.52960982                0.16829382                0.16840683               -0.56105409               -0.00016118                0.03813421                0.00012458
              14.30628303                1.06994132               59.32261870                0.77000303                0.18773571                0.20846004               -0.69145759                0.00043478                0.01759573                0.00165010
               4.30764957                2.09597226               60.59643154                0.76937215               -0.16321165               -0.18341214                0.60958828               -0.00054572                0.01303206               -0.00249658
               5.30601745                2.09361302               60.46821135                0.52373831               -0.14376287               -0.14387346                0.47920113               -0.00022023                0.04399045               -0.00315342
               6.30477431                2.09124451               60.34053235                0.50909824               -0.10477648               -0.10460223                0.34891074               -0.00008261                0.08344371               -0.00118742
               7.30392192                2.08887020               60.21304186                0.50294107               -0.06565437               -0.06551916                0.21856656                0.00004556                0.10107328               -0.00026324
               8.30346122                2.08648908               60.08567479                0.49955849               -0.02650325               -0.02642670                0.08820310                0.00006676                0.11090403               -0.00008142
               9.30339186                2.08410012               59.95835901                0.49886685                0.01262523                0.01267642               -0.04217316                0.00004097                0.11255346               -0.00026355
              10.30371373                2.08170290               59.83102174                0.50084078                0.05175373                0.05178851               -0.17256235                0.00000229                0.10600557               -0.00062477
              11.30442693                2.07929703               59.70359053                0.50550634                0.09089648                0.09091244               -0.30296609               -0.00007287                0.09127208               -0.00103036
              12.30553166                2.07688185               59.57599286                0.51294324                0.13000484                0.13006919               -0.43338371               -0.00019314                0.06835125               -0.00131972
              13.30702703                2.07445741               59.44815625                0.52328228                0.16904111                0.16941671               -0.56380674               -0.00025991                0.03731297               -0.00121109
              14.30891248                2.07202625               59.32000952                0.76581383                0.18854515                0.20880851               -0.69421113                0.00022633                0.01728891               -0.00040657
               4.30980670                3.09414340               60.59384806                0.76922134               -0.16242512               -0.18244329                0.60695997               -0.00047131                0.01339168                0.00255596
               5.30818245                3.09217739               60.46563009                0.52352978               -0.14293178               -0.14318604                0.47657730               -0.00016149                0.04431962                0.00163565
               6.30694806                3.09020184               60.33795310                0.50898431               -0.10392043               -0.10391255                0.34628625               -0.00015130                0.08386905                0.00113815
               7.30610404                3.08821898               60.21046719                0.50286805               -0.06484681               -0.06474531                0.21593619               -0.00004924                0.10136589                0.00087925
               8.30565113                3.08622883               60.08309987                0.49952301               -0.02572245               -0.02562802                0.08555895               -0.00000875                0.11077445                0.00041732
               9.30558959                3.08423093               59.95578059                0.49886986                0.01341438                0.01348515               -0.04483420               -0.00001717                0.11214561               -0.00024717
              10.30591942                3.08222486               59.82843789                0.50088564                0.05255006                0.05260806               -0.17524143               -0.00005632                0.10543309               -0.00106963
              11.30664059                3.08021032               59.70100028                0.50559394                0.09167516                0.09175554               -0.30566301               -0.00012027                0.09064732               -0.00201039
              12.30775292                3.07818718               59.57339651                0.51307481                0.13077424                0.13096406               -0.43609594               -0.00018912                0.06782265               -0.00300691
              13.30925608                3.07615586               59.44555578                0.52345774                0.16984794                0.17024354               -0.56652907               -0.00016325                0.03701096               -0.00397126
              14.31114988                3.07411749               59.31740786                0.76591496                0.18938007                0.20948875               -0.69693539                0.00031384                0.01711286               -0.00485244
               4.31157215                4.09232340               60.59127897                0.76907489               -0.16163812               -0.18158837                0.60432449               -0.00043091                0.01358907                0.00797193
               5.30995577                4.09074930               60.46305225                0.52332694               -0.14212323               -0.14241445                0.47394219               -0.00008899                0.04490955                0.00517625
               6.30872969                4.08916626               60.33537472                0.50887932               -0.10309129               -0.10317697                0.34364975               -0.00011699                0.08494282                0.00348027
               7.30789395                4.08757529               60.20789012                0.50280341               -0.06402921               -0.06398309                0.21329488               -0.00008812                0.10253286                0.00214367
               8.30744910                4.08597652               60.08052453                0.49949902               -0.02492293               -0.02483563                0.08290877               -0.00007214                0.11188374                0.00097664
               9.30739549                4.08436983               59.95320580                0.49888552                0.01420497                0.01429270               -0.04749607               -0.00007837                0.11309645               -0.00020573
              10.30773320                4.08275506               59.82586204                0.50094084                0.05333562                0.05342882               -0.17791622               -0.00009786                0.10619406               -0.00151623
              11.30846220                4.08113214               59.69842156                0.50569033                0.09245673                0.09259546               -0.30835019               -0.00012191                0.09120721               -0.00304111
              12.30958234                4.07950113               59.57081309                0.51321389                0.13156294                0.13180557               -0.43879421               -0.00012916                0.06818523               -0.00484908
              13.31109346                4.07786228               59.44296592                0.52364123                0.17065808                0.17104035               -0.56923369               -0.00009034                0.03718788               -0.00699255
              14.31299550                4.07621602               59.31480996                0.76602113                0.19020412                0.21023969               -0.69964019                0.00035802                0.01719015               -0.00950343
               4.31294627                5.09051163               60.58871685                0.76892849               -0.16084661               -0.18078137                0.60168194               -0.00040529                0.01394741                0.01256142
               5.31133780                5.08932910               60.46047361                0.52312673               -0.14132699               -0.14162223                0.47129792               -0.00002454                0.04591573                0.00806608
               6.31011973                5.08813830               60.33279289                0.50877915               -0.10228947               -0.10239462                0.34100443               -0.00005701                0.08684446                0.00528996
               7.30929202                5.08693932               60.20531007                0.50274792               -0.06322883               -0.06319588                0.21064636               -0.00008823                0.10479306                0.00317776
               8.30885515                5.08573212               60.07794886                0.49948405               -0.02412646               -0.02403933                0.08025474               -0.00011499                0.11427941                0.00144939
               9.30880949                5.08451678               59.95063500                0.49891086                0.01499924                0.01509581               -0.05015797               -0.00012781                0.11543039               -0.00015692
              10.30915514                5.08329344               59.82329477                0.50100561                0.05412992                0.05423753               -0.18058719               -0.00012304                0.10829815               -0.00187629
              11.30989208                5.08206223               59.69585494                0.50579350                0.09325317                0.09340838               -0.31103032               -0.00010052                0.09293778               -0.00392208
              12.31102020                5.08082330               59.56824291                0.51335639                0.13236465                0.13261632               -0.44148218               -0.00006550                0.06941815               -0.00649780
              13.31253938                5.07957667               59.44038683                0.52382621                0.17146733                0.17184052               -0.57192681               -0.00002922                0.03782833               -0.00978726
              14.31444955                5.07832228               59.31221584                0.76612820                0.19101721                0.21102968               -0.70233585                0.00039123                0.01750543               -0.01392008
               4.31392910                6.08870777               60.58615299                0.76878257               -0.16004984               -0.18000867                0.59903301               -0.00037741                0.01449246                0.01606140
               5.31232860                6.08791686               60.45788573                0.52292946               -0.14053883               -0.14082192                0.46864454                0.00004304                0.04747415                0.00991413
               6.31111833                6.08711837               60.33020166                0.50868500               -0.10151198               -0.10157309                0.33835162                0.00000382                0.08981293                0.00633679
               7.31029836                6.08631138               60.20272340                0.50270093               -0.06244899               -0.06237887                0.20799258               -0.00008920                0.10837311                0.00373514
               8.30986935                6.08549574               60.07537143                0.49948202               -0.02333737               -0.02323417                0.07759793               -0.00015637                0.11815230                0.00170763
               9.30983162                6.08467174               59.94806837                0.49894919                0.01579724                0.01589317               -0.05281932               -0.00017354                0.11929688               -0.00011193
              10.31018529                6.08383981               59.82073762                0.50108051                0.05493561                0.05502946               -0.18325444               -0.00014502                0.11187846               -0.00204758
              11.31093033                6.08300031               59.69330326                0.50590526                0.09406518                0.09419468               -0.31370354               -0.00007873                0.09595906               -0.00441919
              12.31206659                6.08215346               59.56568993                0.51350495                0.13317794                0.13340388               -0.44416045               -0.00000082                0.07161731               -0.00757429
              13.31359389                6.08129909               59.43782326                0.52401362                0.17227503                0.17264584               -0.57461040                0.00003549                0.03898668               -0.01186500
              14.31551209                6.08043662               59.30963055                0.76623616                0.19182068                0.21185693               -0.70502440                0.00042785                0.01808791               -0.01756441
               4.31452055                7.08691145               60.58357469                0.76863696               -0.15924796               -0.17929243                0.59637553               -0.00033167                0.01529424                0.01798975
               5.31292807                7.08651266               60.45527661                0.52273463               -0.13976296               -0.13999552                0.46598080                0.00012167                0.04977587                0.01029364
               6.31172529                7.08610684               60.32759211                0.50859853               -0.10076018               -0.10070459                0.33569062                0.00003469                0.09417464                0.00632698
               7.31091286                7.08569174               60.20012460                0.50266629               -0.06168123               -0.06154431                0.20533298               -0.00013054                0.11359471                0.00366248
               8.31049166                7.08526744               60.07278976                0.49949216               -0.02254612               -0.02243130                0.07493871               -0.00021042                0.12378424                0.00167704
               9.31046194                7.08483464               59.94550603                0.49900171                0.01660029                0.01668453               -0.05547970               -0.00021814                0.12494937               -0.00006978
              10.31082367                7.08439402               59.81819322                0.50116974                0.05574619                0.05581175               -0.18591711               -0.00017231                0.11718911               -0.00193821
              11.31157686                7.08394613               59.69077174                0.50602723                0.09488712                0.09496083               -0.31636914               -0.00007592                0.10053418               -0.00430857
              12.31272141                7.08349137               59.56316202                0.51366051                0.13400314                0.13416253               -0.44682854                0.00005486                0.07501994               -0.00766643
              13.31425693                7.08302958               59.43528518                0.52420312                0.17308203                0.17344811               -0.57728221                0.00011507                0.04080879               -0.01263351
              14.31618305                7.08255942               59.30706487                0.76634402                0.19261240                0.21273805               -0.70770220                0.00048208                0.01901921               -0.01976463
               4.31472005                8.08512192               60.58096358                0.76849001               -0.15844055               -0.17870711                0.59370533               -0.00024810                0.01649293                0.01768122
               5.31313565                8.08511695               60.45262928                0.52254402               -0.13900592               -0.13906571                0.46330276                0.00016529                0.05314847                0.00854922
               6.31193994                8.08510428               60.32495242                0.50852441               -0.10002452               -0.09980777                0.33301886               -0.00005735                0.10044438                0.00506637
               7.31113516                8.08508049               60.19750696                0.50264715               -0.06088491               -0.06074390                0.20266687               -0.00021815                0.12090438                0.00291763
               8.31072224                8.08504711               60.07020094                0.49952241               -0.02172454               -0.02164460                0.07227671               -0.00025245                0.13151958                0.00134224
               9.31070067                8.08500543               59.94294818                0.49907200                0.01740622                0.01747221               -0.05813915               -0.00023226                0.13270270               -0.00002826
              10.31107036                8.08495605               59.81566493                0.50127636                0.05653973                0.05659963               -0.18857454               -0.00019014                0.12458561               -0.00150772
              11.31183146                8.08489953               59.68826767                0.50616527                0.09569361                0.09573534               -0.31902537               -0.00010289                0.10710411               -0.00345074
              12.31298423                8.08483671               59.56067137                0.51382192                0.13483402                0.13489436               -0.44948528                0.00005427                0.08009252               -0.00637902
              13.31452814                8.08476805               59.43278920                0.52439272                0.17389145                0.17420702               -0.57994144                0.00019718                0.04361146               -0.01125416
              14.31646206                8.08469138               59.30453731                0.76645057                0.19339207                0.21372735               -0.71036874                0.00057265                0.02049068               -0.01952563
               4.31452553                9.08333731               60.57829361                0.76834234               -0.15765146               -0.17839181                0.59101638               -0.00028878                0.01818858                0.01305272
               5.31294902                9.08373135               60.44991862                0.52236144               -0.13824679               -0.13795631                0.46060347               -0.00000821                0.05826244                0.00436757
               6.31176060                9.08411069               60.32226982                0.50846873               -0.09916755               -0.09908580                0.33033304               -0.00019839                0.10956457                0.00279622
               7.31096567                9.08447687               60.19486417                0.50264929               -0.05994618               -0.05999307                0.19999205               -0.00024924                0.13079985                0.00161141
               8.31056167                9.08483455               60.06760218                0.49957422               -0.02086530               -0.02087383                0.06961056               -0.00019211                0.14168247                0.00074797
               9.31054836                9.08518409               59.94039499                0.49916577                0.01820485                0.01826390               -0.06079766               -0.00016448                0.14286496                0.00000027
              10.31092577                9.08552602               59.81315618                0.50140420                0.05728928                0.05740695               -0.19122602               -0.00014286                0.13445846               -0.00081393
              11.31169414                9.08586083               59.68579907                0.50631929                0.09641030                0.09654821               -0.32167042               -0.00011652                0.11628600               -0.00191094
              12.31285397                9.08618926               59.55823373                0.51399957                0.13560275                0.13569232               -0.45212544               -0.00000413                0.08777401               -0.00364640
              13.31440620                9.08651372               59.43036205                0.52458862                0.17469383                0.17487037               -0.58258005                0.00017633                0.04814614               -0.00679984
              14.31634785                9.08683397               59.30207859                0.76655703                0.19416511                0.21492592               -0.71301471                0.00057384                0.02290374               -0.01423780
               4.31392621               10.08155408               60.57550467                0.88412235               -0.15640989               -0.17832288                0.58829424                0.02044134                0.02410136                0.01136377
               5.31236211               10.08235782               60.44712149                0.76112373               -0.13678797               -0.13735275                0.45787814                0.01973303                0.06778720                0.00332329
               6.31119045               10.08312256               60.31953734                0.75422273               -0.09778970               -0.09881281                0.32762946                0.01912579                0.12245951                0.00265758
               7.31040631               10.08388063               60.19219168                0.75133150               -0.05896374               -0.05962376                0.19730426                0.01941860                0.14352454                0.00154579
               8.31001117               10.08462963               60.06499146                0.74981143               -0.02002043               -0.02049130                0.06693788                0.01945425                0.15449284                0.00063213
               9.31000591               10.08537071               59.93784642                0.74962089                0.01897931                0.01866216               -0.06345579                0.01948224                0.15564742               -0.00022365
              10.31039076               10.08610418               59.81066919                0.75075113                0.05799910                0.05781669               -0.19386997                0.01948830                0.14710892               -0.00111638
              11.31116589               10.08683049               59.68337196                0.75321859                0.09702504                0.09696599               -0.32430077                0.01949274                0.12864018               -0.00216453
              12.31233126               10.08755055               59.55586261                0.75706444                0.13605370                0.13612924               -0.45474192                0.01947685                0.09951751               -0.00358525
              13.31388696               10.08826546               59.42803885                0.76236262                0.17508964                0.17517338               -0.58518426                0.02004334                0.05728657               -0.00580116
              14.31583305               10.08898990               59.29975947                0.88331480                0.19460913                0.21559282               -0.71561664                0.02096399                0.02984226               -0.01242360
               4.43117433                0.10214875               61.60760913                0.88632625               -0.16048174               -0.18098143                0.60009775               -0.02056638                0.01990487               -0.00503090
               5.42956951                0.09900768               61.47814337                0.76507494               -0.14142659               -0.14124882                0.47284140               -0.01943607                0.04700777               -0.00478582
               6.42834580                0.09588115               61.34914085                0.75696892               -0.10339881               -0.10337979                0.34566071               -0.01890935                0.08478275               -0.00192493
               7.42750154                0.09274770               61.22037052                0.75257703               -0.06541571               -0.06516526                0.21846910               -0.01904030                0.10526461               -0.00106890
               8.42703749                0.08960736               61.09173623                0.75014567               -0.02736293               -0.02699190                0.09126613               -0.01905753                0.11604886               -0.00043630
               9.42695428                0.08645913               60.96315889                0.74964285                0.01073105                0.01119261               -0.03594691               -0.01907309                0.11814766                0.00008041
              10.42725211                0.08330275               60.83456261                0.75105990                0.04883719                0.04937805               -0.16317156               -0.01907423                0.11178536                0.00055379
              11.42793102                0.08013792               60.70587279                0.75440797                0.08693741                0.08755858               -0.29040937               -0.01907926                0.09700539                0.00102871
              12.42899085                0.07696375               60.57701444                0.75972498                0.12503699                0.12577018               -0.41766127               -0.01904103                0.07369646                0.00156293
              13.43043176                0.07377972               60.44791070                0.76706893                0.16308651                0.16379686               -0.54492501               -0.01953488                0.04124902                0.00220087
              14.43225258                0.07057193               60.31847439                0.88649385                0.18208221                0.20342541               -0.67219828               -0.01957520                0.02013604                0.00407700
               4.43410974                1.10033894               61.60506319                0.77054018               -0.16007873               -0.18025830                0.59755137               -0.00048691                0.01608672               -0.00371798
               5.43250895                1.09759519               61.47557704                0.52634570               -0.14115231               -0.14099149                0.47028929               -0.00010359                0.04450510               -0.00454573
               6.43128669                1.09484735               61.34658063                0.51125882               -0.10304621               -0.10290451                0.34310552                0.00003373                0.08259110               -0.00141792
               7.43044803                1.09209605               61.21779620                0.50393692               -0.06477495               -0.06475438                0.21589994                0.00010714                0.10192865               -0.00049212
               8.42999120                1.08933744               61.08914541                0.49989609               -0.02660878               -0.02659204                0.08868221                0.00006952                0.11250756               -0.00018935
               9.42991585                1.08657106               60.96055022                0.49906451                0.01153855                0.01158215               -0.03854580                0.00004552                0.11448772               -0.00015684
              10.43022197                1.08379653               60.83193545                0.50141867                0.04969377                0.04976051               -0.16578546                0.00002718                0.10806353               -0.00023804
              11.43090973                1.08101351               60.70322696                0.50698324                0.08787899                0.08793953               -0.29303865                0.00000697                0.09326993               -0.00032542
              12.43197955                1.07822145               60.57435028                0.51583345                0.12612970                0.12613117               -0.42030634               -0.00011282                0.06999373               -0.00029325
              13.43343232                1.07541769               60.44522901                0.52808926                0.16425365                0.16436434               -0.54758535               -0.00015732                0.03814578                0.00008694
              14.43526462                1.07260619               60.31578697                0.76898817                0.18322963                0.20345745               -0.67486388                0.00042453                0.01759409                0.00161870
               4.43665209                2.09854359               61.60245460                0.76839201               -0.15930610               -0.17902239                0.59499879               -0.00053245                0.01304353               -0.00248342
               5.43505903                2.09618785               61.47294614                0.52250160               -0.14032359               -0.14043155                0.46773695               -0.00021497                0.04406301               -0.00313233
               6.43384562                2.09382306               61.34397982                0.50857327               -0.10227178               -0.10210175                0.34056968               -0.00008080                0.08354753               -0.00115283
               7.43301359                2.09145261               61.21520149                0.50272222               -0.06408738               -0.06395555                0.21334987                0.00004419                0.10114816               -0.00023320
               8.43256387                2.08907552               61.08654638                0.49950565               -0.02587449               -0.02580002                0.08611087                0.00006475                0.11096718               -0.00006300
               9.43249610                2.08669077               60.95794243                0.49884925                0.01231637                0.01236598               -0.04114070                0.00003949                0.11260478               -0.00025951
              10.43281020                2.08429796               60.82931687                0.50072612                0.05050689                0.05054068               -0.16840442                0.00000166                0.10604117               -0.00063596
              11.43350624                2.08189672               60.70059723                0.50516325                0.08871123                0.08872702               -0.29568256               -0.00007165                0.09128861               -0.00105712
              12.43458442                2.07948638               60.57171099                0.51223326                0.12688218                0.12694544               -0.42297447               -0.00018862                0.06835011               -0.00136044
              13.43604388                2.07706701               60.44258575                0.52206028                0.16498289                0.16534995               -0.55027175               -0.00025344                0.03730720               -0.00125986
              14.43788408                2.07464108               60.31315057                0.76499573                0.18401953                0.20379733               -0.67755113                0.00022100                0.01727824               -0.00045085
               4.43881057                3.09675849               61.59984516                0.76824821               -0.15853872               -0.17807709                0.59243431               -0.00045987                0.01340332                0.00257394
               5.43722518                3.09478656               61.47033897                0.52230229               -0.13951264               -0.13976090                0.46517697               -0.00015772                0.04438983                0.00165857
               6.43602031                3.09280532               61.34137465                0.50846705               -0.10143630               -0.10142880                0.33800878               -0.00014787                0.08396533                0.00116291
               7.43519645                3.09081694               61.21260083                0.50265269               -0.06329913               -0.06320034                0.21078273               -0.00004823                0.10142667                0.00090135
               8.43475433                3.08882144               61.08394534                0.49947168               -0.02511247               -0.02502060                0.08353053               -0.00000874                0.11081811                0.00043086
               9.43469420                3.08681838               60.95533773                0.49885181                0.01308631                0.01315522               -0.04373748               -0.00001718                0.11217529               -0.00024502
              10.43501606                3.08480734               60.82670655                0.50076731                0.05128386                0.05134057               -0.17101912               -0.00005554                0.10544661               -0.00107991
              11.43571988                3.08278805               60.69798033                0.50524529                0.08947126                0.08954997               -0.29831500               -0.00011771                0.09064292               -0.00203279
              12.43680548                3.08076036               60.56908784                0.51235889                0.12763331                0.12781890               -0.42562215               -0.00018464                0.06780425               -0.00303934
              13.43827255                3.07872469               60.43995838                0.52222765                0.16577031                0.16615676               -0.55292847               -0.00015934                0.03699449               -0.00400858
              14.44012089                3.07668213               60.31052198                0.76509206                0.18483414                0.20446117               -0.68020865                0.00030630                0.01709495               -0.00488791
               4.44058675                4.09498204               61.59725003                0.76810847               -0.15777071               -0.17724294                0.58986264               -0.00042061                0.01360037                0.00799712
               5.43900904                4.09339263               61.46773508                0.52211043               -0.13872355               -0.13900802                0.46260553               -0.00008701                0.04497851                0.00520055
               6.43781228                4.09179448               61.33877022                0.50836536               -0.10062709               -0.10071106                0.33543610               -0.00011435                0.08503515                0.00350307
               7.43699650                4.09018861               61.20999767                0.50259214               -0.06250125               -0.06245657                0.20820531               -0.00008624                0.10258555                0.00216213
               8.43656225                4.08857511               61.08134382                0.49944837               -0.02433234               -0.02424730                0.08094426               -0.00007066                0.11191582                0.00098775
               9.43650985                4.08695388               60.95273664                0.49886593                0.01385771                0.01394333               -0.04633507               -0.00007679                0.11311274               -0.00020459
              10.43683941                4.08532477               60.82410428                0.50081929                0.05205055                0.05214166               -0.17362969               -0.00009579                0.10619371               -0.00152594
              11.43755087                4.08368771               60.69537507                0.50533781                0.09023407                0.09036968               -0.30093775               -0.00011904                0.09118996               -0.00306162
              12.43864409                4.08204275               60.56647777                0.51248963                0.12840289                0.12863998               -0.42825505               -0.00012625                0.06815719               -0.00487882
              13.44011892                4.08039014               60.43734181                0.52239990                0.16656102                0.16693442               -0.55556822               -0.00008857                0.03716681               -0.00702776
              14.44197531                4.07873031               60.30789738                0.76519292                0.18563868                0.20519434               -0.68284956                0.00034923                0.01717077               -0.00954020
               4.44198098                5.09321363               61.59466180                0.76796888               -0.15699829               -0.17645545                0.58728407               -0.00039555                0.01395951                0.01259493
               5.44041100                5.09200640               61.46513032                0.52191979               -0.13794655               -0.13823491                0.46002499               -0.00002412                0.04598527                0.00809301
               6.43922205                5.09079110               61.33616226                0.50827008               -0.09984469               -0.09994757                0.33285457               -0.00005594                0.08693636                0.00531294
               7.43841410                5.08956781               61.20739145                0.50253851               -0.06172015               -0.06168835                0.20562083               -0.00008632                0.10484343                0.00319527
               8.43798765                5.08833650               61.07874193                0.49943544               -0.02355499               -0.02347020                0.07835425               -0.00011235                0.11430673                0.00145958
               9.43794300                5.08709724               60.95013954                0.49889092                0.01463285                0.01472705               -0.04893281               -0.00012475                0.11544005               -0.00015611
              10.43828030                5.08585018               60.82151062                0.50088166                0.05282570                0.05293077               -0.17623610               -0.00012002                0.10829064               -0.00188606
              11.43899952                5.08459544               60.69278198                0.50543638                0.09101129                0.09116274               -0.30355260               -0.00009820                0.09291363               -0.00394236
              12.44010053                5.08333316               60.56388103                0.51262678                0.12918522                0.12943082               -0.43087744               -0.00006394                0.06938504               -0.00652793
              13.44158322                5.08206338               60.43473611                0.52257796                0.16735080                0.16771511               -0.55819633               -0.00002830                0.03780475               -0.00982579
              14.44344755                5.08078602               60.30527663                0.76529535                0.18643228                0.20596517               -0.68548018                0.00038186                0.01748471               -0.01396479
               4.44299330                6.09145293               61.59207177                0.76783087               -0.15622081               -0.17570130                0.58469892               -0.00036836                0.01450475                0.01610215
               5.44143110                6.09062793               61.46251623                0.52173142               -0.13717749               -0.13745390                0.45743580                0.00004186                0.04754642                0.00994266
               6.44024975                6.08979553               61.33354481                0.50818225               -0.09908597               -0.09914578                0.33026555                0.00000356                0.08990934                0.00636044
               7.43944938                6.08895484               61.20477856                0.50249503               -0.06095910               -0.06089095                0.20303061               -0.00008709                0.10842626                0.00375282
               8.43903057                6.08810570               61.07613824                0.49943323               -0.02278488               -0.02268449                0.07576156               -0.00015261                0.11818085                0.00171762
               9.43899368                6.08724842               60.94754661                0.49892837                0.01541173                0.01550514               -0.05152997               -0.00016925                0.11930612               -0.00011107
              10.43933881                6.08638339               60.81892713                0.50095642                0.05361193                0.05370345               -0.17883860               -0.00014147                0.11186952               -0.00205710
              11.44006592                6.08551097               60.69020388                0.50554289                0.09180368                0.09193002               -0.30616121               -0.00007706                0.09593376               -0.00443969
              12.44117488                6.08463137               60.56130158                0.51276878                0.12997911                0.13019953               -0.43349172               -0.00000082                0.07158329               -0.00760483
              13.44266550                6.08374444               60.43214602                0.52275561                0.16813891                0.16850089               -0.56081463                0.00003496                0.03896314               -0.01190562
              14.44453766                6.08284961               60.30266478                0.76539693                0.18721589                0.20677215               -0.68810235                0.00041780                0.01806807               -0.01761583
               4.44362362                7.08969960               61.58946721                0.76769187               -0.15543822               -0.17500224                0.58210531               -0.00032390                0.01530803                0.01803382
               5.44206924                7.08925732               61.45988079                0.52154698               -0.13642028               -0.13664729                0.45483596                0.00011855                0.04985420                0.01032105
               6.44089521                7.08880818               61.33090897                0.50810022               -0.09835229               -0.09829814                0.32766851                0.00003386                0.09428130                0.00634966
               7.44010219                7.08834999               61.20215348                0.50246195               -0.06020988               -0.06007655                0.20043542               -0.00012741                0.11365692                0.00367947
               8.43969102                7.08788281               61.07353030                0.49944670               -0.02201272               -0.02190102                0.07316658               -0.00020533                0.12382020                0.00168672
               9.43966194                7.08740734               60.94495799                0.49897925                0.01619537                0.01627744               -0.05412630               -0.00021275                0.12496472               -0.00006879
              10.44001492                7.08692425               60.81635641                0.50104133                0.05440289                0.05446692               -0.18143706               -0.00016811                0.11718507               -0.00194671
              11.44074999                7.08643404               60.68764601                0.50566054                0.09260575                0.09267794               -0.30876304               -0.00007412                0.10051378               -0.00432723
              12.44186704                7.08593715               60.55874731                0.51291501                0.13078439                0.13094028               -0.43609667                0.00005338                0.07499142               -0.00769543
              13.44336568                7.08543339               60.42958155                0.52293500                0.16892669                0.16928410               -0.56342316                0.00011225                0.04078880               -0.01267449
              14.44524557                7.08492146               60.30007265                0.76550057                0.18798895                0.20763234               -0.69071692                0.00047073                0.01900128               -0.01982167
               4.44387139                8.08795289               61.58682972                0.76755168               -0.15465032               -0.17443107                0.57949980               -0.00024222                0.01651012                0.01772432
               5.44232489                8.08789499               61.45720699                0.52136676               -0.13568145               -0.13573967                0.45222205                0.00016115                0.05323731                0.00857072
               6.44115776                8.08782957               61.32824288                0.50803123               -0.09763437               -0.09742290                0.32506106               -0.00005610                0.10056822                0.00508533
               7.44037220                8.08775331               61.19950951                0.50244771               -0.05943286               -0.05929553                0.19783384               -0.00021296                0.12098235                0.00293230
               8.43996911                8.08766768               61.07091518                0.49947599               -0.02121096               -0.02113327                0.07056867               -0.00024631                0.13156966                0.00135059
               9.43994798                8.08757397               60.94237387                0.49904985                0.01698185                0.01704614               -0.05672159               -0.00022655                0.13273110               -0.00002704
              10.44030874                8.08747273               60.81380187                0.50114454                0.05517724                0.05523595               -0.18403081               -0.00018535                0.12459433               -0.00151455
              11.44105153                8.08736453               60.68511571                0.50579313                0.09339272                0.09343387               -0.31135529               -0.00010012                0.10709545               -0.00346565
              12.44217660                8.08725018               60.55623042                0.51307149                0.13159525                0.13165444               -0.43868891                0.00005303                0.08007300               -0.00640393
              13.44368343                8.08713013               60.42705930                0.52311754                0.16971671                0.17002482               -0.56601851                0.00019252                0.04359653               -0.01129231
              14.44557093                8.08700226               60.29751874                0.76560078                0.18874996                0.20859781               -0.69331905                0.00055905                0.02047529               -0.01958327
               4.44373458                9.08621098               61.58413318                0.76741153               -0.15388029               -0.17412352                0.57687566               -0.00028167                0.01820966                0.01308519
               5.44219578                9.08654253               61.45446967                0.52119327               -0.13494068               -0.13465680                0.44958798               -0.00000821                0.05836693                0.00437764
               6.44103577                9.08685972               61.32553376                0.50798160               -0.09679806               -0.09671860                0.32244026               -0.00019388                0.10971452                0.00280808
               7.44025982                9.08716408               61.19684029                0.50245227               -0.05851689               -0.05856278                0.19522345               -0.00024331                0.13090130                0.00162060
               8.43986543                9.08746014               61.06829008                0.49952933               -0.02037270               -0.02038099                0.06796668               -0.00018736                0.14175455                0.00075332
               9.43985236                9.08774827               60.93979442                0.49914149                0.01776119                0.01781875               -0.05931588               -0.00016046                0.14291459                0.00000125
              10.44022065                9.08802897               60.81126692                0.50126920                0.05590889                0.05602385               -0.18661855               -0.00013927                0.13448772               -0.00081764
              11.44097054                9.08830272               60.68262098                0.50594402                0.09409227                0.09422705               -0.31393643               -0.00011341                0.11629666               -0.00192045
              12.44210250                9.08857024               60.55376670                0.51324157                0.13234550                0.13243309               -0.44126510               -0.00000383                0.08777108               -0.00366236
              13.44361745                9.08883389               60.42460607                0.52330445                0.17049966                0.17067230               -0.56859338                0.00017232                0.04814203               -0.00682380
              14.44551249                9.08909342               60.29503387                0.76570240                0.18950416                0.20976707               -0.69590047                0.00056027                0.02289473               -0.01427921
               4.44320267               10.08447042               61.58131736                0.88365929               -0.15266856               -0.17405634                0.57421898                0.01995196                0.02413696                0.01139428
               5.44167599               10.08520185               61.45164562                0.76054381               -0.13351671               -0.13406769                0.44692888                0.01925957                0.06791827                0.00333177
               6.44053234               10.08589520               61.32277457                0.75398081               -0.09545337               -0.09645246                0.31980244                0.01866697                0.12264487                0.00266906
               7.43976692               10.08658205               61.19414125                0.75123433               -0.05755844               -0.05820235                0.19260061                0.01895332                0.14365811                0.00155376
               8.43938117               10.08726006               61.06565296                0.74978910               -0.01954846               -0.02000765                0.06535852                0.01898819                0.15459653                0.00063651
               9.43937595               10.08793034               60.93721958                0.74960965                0.01851679                0.01820744               -0.06190995                0.01901543                0.15572837               -0.00022351
              10.43975150               10.08859320               60.80875382                0.75068386                0.05660171                0.05642372               -0.18919877                0.01902128                0.14716863               -0.00112012
              11.44050798               10.08924907               60.68016788                0.75302867                0.09469248                0.09463470               -0.31650344                0.01902589                0.12868050               -0.00217422
              12.44164535               10.08989884               60.55136971                0.75668425                0.13278585                0.13285958               -0.44381926                0.01901050                0.09954473               -0.00360031
              13.44316370               10.09054357               60.42225714                0.76171854                0.17088622                0.17096824               -0.57113556                0.01956287                0.05730713               -0.00582122
              14.44506308               10.09119760               60.29268905                0.88288548                0.18993775                0.21041773               -0.69844017                0.02046093                0.02985222               -0.01245984
               4.56147560                0.10465709               62.61353640                0.88574578               -0.15653419               -0.17652884                0.58533369               -0.02005977                0.01993889               -0.00503480
               5.55991026                0.10153892               62.48281373                0.76428827               -0.13794854               -0.13777482                0.46121272               -0.01895698                0.04709193               -0.00478400
               6.55871663                0.09843495               62.35255505                0.75658684               -0.10085771               -0.10083913                0.33716518               -0.01844334                0.08490865               -0.00191499
               7.55789311                0.09532422               62.22252844                0.75241619               -0.06381036               -0.06356586                0.21310662               -0.01857117                0.10538652               -0.00106079
               8.55744043                0.09220676               62.09263777                0.75010671               -0.02669492               -0.02633302                0.08903763               -0.01858801                0.11616452               -0.00043108
               9.55735921                0.08908161               61.96280394                0.74963048                0.01046073                0.01091081               -0.03504142               -0.01860334                0.11825374                0.00008217
              10.55764964                0.08594851               61.83295107                0.75097567                0.04762819                0.04815554               -0.15913171               -0.01860454                0.11187695                0.00055257
              11.55831177                0.08280717               61.70300452                0.75415636                0.08478990                0.08539558               -0.28323518               -0.01860937                0.09707850                0.00102419
              12.55934544                0.07965672               61.57288929                0.75920604                0.12195089                0.12266586               -0.40735238               -0.01857214                0.07374963                0.00155487
              13.56075079                0.07649666               61.44252857                0.76618144                0.15906282                0.15975568               -0.53148039               -0.01905396                0.04128118                0.00218946
              14.56252669                0.07331343               61.31183518                0.88590258                0.17759039                0.19840811               -0.65561803               -0.01909291                0.02014958                0.00407178
               4.56439317                1.10289180               62.61096531                0.76948014               -0.15614111               -0.17582345                0.58285018               -0.00047480                0.01610495               -0.00371073
               5.56283176                1.10016117               62.48022219                0.52495401               -0.13768110               -0.13752400                0.45872353               -0.00010089                0.04457468               -0.00453287
               6.56163955                1.09742656               62.34996959                0.51062006               -0.10051374               -0.10037562                0.33467309                0.00003310                0.08269865               -0.00138978
               7.56082149                1.09468856               62.21992875                0.50366964               -0.06318517               -0.06316532                0.21060129                0.00010456                0.10202656               -0.00046898
               8.56037585                1.09194343               62.09002144                0.49983263               -0.02595930               -0.02594314                0.08651787                0.00006761                0.11259839               -0.00017546
               9.56030230                1.08919072               61.96016960                0.49904250                0.01124818                0.01129072               -0.03757596                0.00004402                0.11456876               -0.00015350
              10.56060081                1.08643006               61.83029809                0.50127662                0.04846347                0.04852863               -0.16168101                0.00002609                0.10813000               -0.00024516
              11.56127157                1.08366113               61.70033271                0.50656341                0.08570804                0.08576719               -0.28579946                0.00000652                0.09331751               -0.00034339
              12.56231497                1.08088338               61.57019901                0.51496783                0.12301625                0.12301800               -0.40993155               -0.00011041                0.07002109               -0.00032191
              13.56373190                1.07809421               61.43982061                0.52660452                0.16020100                0.16030938               -0.53407505               -0.00015367                0.03815673                0.00005040
              14.56551899                1.07529751               61.30912143                0.76799623                0.17870967                0.19843941               -0.65821885                0.00041425                0.01759084                0.00158796
               4.56692736                2.10114062               62.60833152                0.76743362               -0.15538745               -0.17461799                0.58036083               -0.00051939                0.01305485               -0.00247095
               5.56537349                2.09878844               62.47756608                0.52129336               -0.13687264               -0.13697804                0.45623399               -0.00020973                0.04413391               -0.00311191
               6.56418991                2.09642744               62.34734374                0.50806183               -0.09975832               -0.09959274                0.33219996               -0.00007873                0.08364948               -0.00111901
               7.56337832                2.09406091               62.21730886                0.50250823               -0.06251465               -0.06238647                0.20811480                0.00004291                0.10122151               -0.00020387
               8.56293962                2.09168790               62.08739701                0.49945572               -0.02524329               -0.02517081                0.08401035                0.00006274                0.11102853               -0.00004501
               9.56287346                2.08930742               61.95753619                0.49882997                0.01200660                0.01205515               -0.04010661                0.00003802                0.11265507               -0.00025547
              10.56317975                2.08691908               61.82765365                0.50061276                0.04925640                0.04928955               -0.16423540                0.00000116                0.10607649               -0.00064690
              11.56385859                2.08452252               61.69767688                0.50482744                0.08651962                0.08653518               -0.28837785               -0.00007023                0.09130489               -0.00108322
              12.56491014                2.08211708               61.56753337                0.51153949                0.12375005                0.12381212               -0.41253354               -0.00018422                0.06834896               -0.00140000
              13.56633359                2.07970285               61.43715081                0.52086634                0.16091223                0.16127064               -0.53669525               -0.00024709                0.03730124               -0.00130680
              14.56812839                2.07728222               61.30645849                0.76419623                0.17948006                0.19877068               -0.66083948                0.00021559                0.01726709               -0.00049177
               4.56908715                3.09939944               62.60569674                0.76729743               -0.15463906               -0.17369620                0.57786008               -0.00044843                0.01341536                0.00259171
               5.56754076                3.09742161               62.47493363                0.52110417               -0.13608176               -0.13632406                0.45373741               -0.00015398                0.04445855                0.00168125
               6.56636551                3.09543470               62.34471327                0.50795907               -0.09894362               -0.09893644                0.32970255               -0.00014454                0.08405942                0.00118682
               7.56556188                3.09344083               62.21468284                0.50244202               -0.06174600               -0.06164991                0.20561131               -0.00004743                0.10148627                0.00092229
               8.56513059                3.09144002               62.08477048                0.49942219               -0.02450008               -0.02441066                0.08149380               -0.00000890                0.11086072                0.00044386
               9.56507188                3.08943182               61.95490584                0.49883344                0.01275759                0.01282478               -0.04263892               -0.00001709                0.11220423               -0.00024277
              10.56538574                3.08741585               61.82501750                0.50065222                0.05001421                0.05006953               -0.16678508               -0.00005449                0.10545974               -0.00109027
              11.56607217                3.08539183               61.69503398                0.50490599                0.08726082                0.08733764               -0.29094479               -0.00011514                0.09063840               -0.00205516
              12.56713096                3.08335962               61.56488407                0.51165854                0.12448266                0.12466383               -0.41511557               -0.00018023                0.06778707               -0.00307129
              13.56856182                3.08131963               61.43449721                0.52102478                0.16168008                0.16205722               -0.53928575               -0.00015530                0.03698019               -0.00404563
              14.57036456                3.07927292               61.30380368                0.76428886                0.18027418                0.19941783               -0.66342958                0.00029881                0.01708016               -0.00492269
               4.57087405                4.09766670               62.60307623                0.76716443               -0.15389033               -0.17288296                0.57535259               -0.00041008                0.01361133                0.00802274
               5.56933515                4.09606196               62.47230436                0.52092073               -0.13531244               -0.13559004                0.45123036               -0.00008508                0.04504541                0.00522439
               6.56816781                4.09444871               62.34208344                0.50786466               -0.09815452               -0.09823655                0.32719390               -0.00011191                0.08512491                0.00352542
               7.56737206                4.09282791               62.21205422                0.50238390               -0.06096784               -0.06092446                0.20309748               -0.00008439                0.10263724                0.00218039
               8.56694845                4.09119969               62.08214342                0.49939993               -0.02373919               -0.02365652                0.07897172               -0.00006920                0.11194740                0.00099845
               9.56689728                4.08956392               61.95227910                0.49884688                0.01350996                0.01359330               -0.04517212               -0.00007518                0.11312830               -0.00020342
              10.56721865                4.08792047               61.82238945                0.50070264                0.05076184                0.05085072               -0.16933076               -0.00009372                0.10619294               -0.00153589
              11.56791251                4.08626927               61.69240281                0.50499107                0.08800467                0.08813717               -0.29350298               -0.00011655                0.09117311               -0.00308173
              12.56897874                4.08461036               61.56224799                0.51178341                0.12523325                0.12546472               -0.41768372               -0.00012341                0.06812963               -0.00490764
              13.57041718                4.08294399               61.43185456                0.52119018                0.16245140                0.16281572               -0.54186080               -0.00008640                0.03714599               -0.00706369
              14.57222777                4.08127057               61.30115297                0.76438514                0.18105907                0.20013307               -0.66600638                0.00034068                0.01715197               -0.00957824
               4.57228842                5.09594178               62.60046253                0.76703177               -0.15313728               -0.17211519                0.57283861               -0.00038577                0.01396987                0.01262766
               5.57075705                5.09470981               62.46967410                0.52073988               -0.13455478               -0.13483625                0.44871425               -0.00002366                0.04605252                0.00811934
               6.56959732                5.09346997               62.33944998                0.50777319               -0.09739146               -0.09749208                0.32467669               -0.00005473                0.08702634                0.00533569
               7.56880922                5.09222234               62.20942249                0.50233352               -0.06020614               -0.06017534                0.20057727               -0.00008442                0.10489256                0.00321266
               8.56839320                5.09096689               62.07951595                0.49938850               -0.02298118               -0.02289872                0.07644597               -0.00010981                0.11433327                0.00146958
               9.56834959                5.08970369               61.94965635                0.49887038                0.01426590                0.01435761               -0.04770551               -0.00012186                0.11544920               -0.00015545
              10.56867852                5.08843287               61.81977004                0.50076157                0.05151773                0.05162033               -0.17187272               -0.00011723                0.10828309               -0.00189528
              11.56937995                5.08715457               61.68978389                0.50508562                0.08876257                0.08891072               -0.29605324               -0.00009599                0.09289072               -0.00396183
              12.57045377                5.08586892               61.55962536                0.51191312                0.12599637                0.12623614               -0.42024188               -0.00006262                0.06935233               -0.00655688
              13.57189987                5.08457594               61.42922290                0.52135768                0.16322179                0.16357721               -0.54442425               -0.00002778                0.03778115               -0.00986225
              14.57371821                5.08327559               61.29850624                0.76448185                0.18183305                0.20088502               -0.66857191                0.00037234                0.01746508               -0.01400751
               4.57333028                6.09422439               62.59784697                0.76689995               -0.15237903               -0.17137977                0.57031767               -0.00035921                0.01451684                0.01614120
               5.57180649                6.09336524               62.46703445                0.52056181               -0.13380481               -0.13407461                0.44618929                0.00004083                0.04761692                0.00997072
               6.57065419                6.09249887               62.33680697                0.50768960               -0.09665166               -0.09671019                0.32215199                0.00000337                0.09000355                0.00638366
               7.56987346                6.09162440               62.20678401                0.50229285               -0.05946395               -0.05939784                0.19805165               -0.00008512                0.10847847                0.00376996
               8.56946491                6.09074171               62.07688666                0.49938784               -0.02223008               -0.02213253                0.07391759               -0.00014893                0.11820864                0.00172748
               9.56942886                6.08985107               61.94703777                0.49890739                0.01502538                0.01511644               -0.05023831               -0.00016503                0.11931518               -0.00011042
              10.56976541                6.08895288               61.81716085                0.50083198                0.05228444                0.05237387               -0.17441071               -0.00013781                0.11186113               -0.00206595
              11.57047455                6.08804748               61.68718004                0.50518908                0.08953539                0.08965881               -0.29859681               -0.00007504                0.09590942               -0.00445908
              12.57155612                6.08713508               61.55702010                0.51204824                0.12677048                0.12698563               -0.42279069               -0.00000096                0.07155079               -0.00763505
              13.57300996                6.08621553               61.42660696                0.52152753                0.16399035                0.16434353               -0.54697734                0.00003390                0.03894034               -0.01194564
              14.57483593                6.08528827               61.29586850                0.76457918                0.18259739                0.20167204               -0.67112931                0.00040745                0.01804867               -0.01766700
               4.57399955                7.09251419               62.59521679                0.76676884               -0.15161589               -0.17069788                0.56778822               -0.00031580                0.01532216                0.01807756
               5.57248339                7.09202832               62.46437333                0.52038686               -0.13306644               -0.13328788                0.44365399                0.00011571                0.04993105                0.01034802
               6.57133822                7.09153577               62.33414548                0.50761339               -0.09593619               -0.09588359                0.31961949                0.00003294                0.09438566                0.00637186
               7.57056467                7.09103438               62.20413330                0.50226428               -0.05873332               -0.05860369                0.19552086               -0.00012428                0.11371784                0.00369629
               8.57016356                7.09052423               62.07425309                0.49940105               -0.02147709               -0.02136848                0.07138688               -0.00020011                0.12385509                0.00169617
               9.57013513                7.09000601               61.94442350                0.49895711                0.01578970                0.01586959               -0.05277034               -0.00020726                0.12497968               -0.00006782
              10.57047935                7.08948035               61.81456447                0.50091653                0.05305584                0.05311839               -0.17694477               -0.00016359                0.11718174               -0.00195523
              11.57119624                7.08894775               61.68459648                0.50530229                0.09031747                0.09038805               -0.30113349               -0.00007199                0.10049343               -0.00434570
              12.57228570                7.08840863               61.55444009                0.51218985                0.12755580                0.12770802               -0.42533100                0.00005229                0.07496190               -0.00772478
              13.57374736                7.08786281               61.42401671                0.52169902                0.16475869                0.16510748               -0.54952190                0.00010968                0.04076791               -0.01271647
              14.57558087                7.08730903               61.29325053                0.76467640                0.18335137                0.20251104               -0.67367946                0.00045914                0.01898283               -0.01987830
               4.57429570                8.09081044               62.59255357                0.76663652               -0.15084741               -0.17014067                0.56524658               -0.00023624                0.01652600                0.01776699
               5.57278723                8.09069948               62.46167372                0.52021581               -0.13234592               -0.13240250                0.44110445                0.00015706                0.05332362                0.00859180
               6.57164878                8.09058119               62.33145364                0.50755033               -0.09523610               -0.09503007                0.31707676               -0.00005496                0.10068941                0.00510380
               7.57088251                8.09045233               62.20146364                0.50225204               -0.05797554               -0.05784201                0.19298359               -0.00020762                0.12105870                0.00294659
               8.57048927                8.09031434               62.07161231                0.49943384               -0.02069526               -0.02061975                0.06885337               -0.00023979                0.13161827                0.00135882
               9.57046860                8.09016846               61.94181375                0.49902675                0.01655666                0.01661927               -0.05530134               -0.00022046                0.13275864               -0.00002584
              10.57082041                8.09001525               61.81198431                0.50101670                0.05381109                0.05386839               -0.17947429               -0.00018041                0.12460267               -0.00152155
              11.57154482                8.08985524               61.68204057                0.50542914                0.09108503                0.09112543               -0.30366201               -0.00009716                0.10708621               -0.00348091
              12.57264211                8.08968924               61.55189759                0.51233950                0.12834651                0.12840469               -0.42785933                0.00005244                0.08005285               -0.00642826
              13.57411175                8.08951768               61.42146883                0.52187181                0.16552888                0.16582982               -0.55205241                0.00018809                0.04358201               -0.01132873
              14.57595268                8.08933850               61.29067093                0.76477271                0.18409319                0.20345248               -0.67621671                0.00054507                0.02046165               -0.01963729
               4.57421674                9.08911138               62.58983112                0.76650162               -0.15009658               -0.16984094                0.56268762               -0.00027480                0.01822978                0.01311592
               5.57271578                9.08938027               62.45891038                0.52005230               -0.13162359               -0.13134623                0.43853580               -0.00000864                0.05846876                0.00438724
               6.57158427                9.08963517               62.32871863                0.50750556               -0.09442047               -0.09434333                0.31452075               -0.00018955                0.10986098                0.00281947
               7.57082737                9.08987754               62.19876863                0.50226148               -0.05708211               -0.05712734                0.19043750               -0.00023717                0.13100054                0.00162947
               8.57044263                9.09011184               62.06896151                0.49948715               -0.01987770               -0.01988610                0.06631584               -0.00018229                0.14182479                0.00075858
               9.57042981                9.09033840               61.93920868                0.49911950                0.01731657                0.01737276               -0.05783131               -0.00015596                0.14296263                0.00000220
              10.57078896                9.09055771               61.80942381                0.50113968                0.05452452                0.05463677               -0.18199778               -0.00013534                0.13451605               -0.00082193
              11.57152030                9.09077026               61.67952035                0.50557478                0.09176740                0.09189907               -0.30617980               -0.00011010                0.11630702               -0.00192938
              12.57262431                9.09097672               61.54940843                0.51250365                0.12907815                0.12916385               -0.43037132               -0.00000316                0.08776815               -0.00367705
              13.57410187                9.09117941               61.41899018                0.52205112                0.16629213                0.16646095               -0.55456205                0.00016836                0.04813884               -0.00684696
              14.57595015                9.09137808               61.28816058                0.76486922                0.18482838                0.20459235               -0.67873301                0.00054636                0.02288823               -0.01431875
               4.57375241               10.08741362               62.58698905                0.88320773               -0.14891502               -0.16977570                0.56009766                0.01946080                0.02417201                0.01142280
               5.57226326               10.08807255               62.45606007                0.75997639               -0.13023466               -0.13077166                0.43594302                0.01878419                0.06804638                0.00333992
               6.57114772               10.08869433               62.32593338                0.75374507               -0.09310881               -0.09408386                0.31194789                0.01820655                0.12282593                0.00268013
               7.57040109               10.08930978               62.19604369                0.75114022               -0.05614760               -0.05677577                0.18787955                0.01848671                0.14378860                0.00156174
               8.57002477               10.08991662               62.06629863                0.74976852               -0.01907406               -0.01952197                0.06377213                0.01852074                0.15469756                0.00064076
               9.57001961               10.09051592               61.93660822                0.74959670                0.01805349                0.01775181               -0.06036101                0.01854738                0.15580654               -0.00022330
              10.57038584               10.09110798               61.80688522                0.75061708                0.05520017                0.05502669               -0.18451399                0.01855329                0.14722701               -0.00112482
              11.57112361               10.09169323               61.67704189                0.75284265                0.09235273                0.09229658               -0.30868277                0.01855754                0.12872066               -0.00218268
              12.57223289               10.09227252               61.54698622                0.75631202                0.12950783                0.12957951               -0.43286161                0.01854244                0.09956986               -0.00361403
              13.57371377               10.09284690               61.41661613                0.76108839                0.16666919                0.16674938               -0.55704081                0.01908120                0.05732692               -0.00584235
              14.57556628               10.09343034               61.28579067                0.88246694                0.18525104                0.20522665               -0.68120889                0.01995664                0.02986438               -0.01249566
               4.69301845                0.10719023               63.61931580                0.88517814               -0.15257410               -0.17206233                0.57052310               -0.01955162                0.01997238               -0.00503918
               5.69149271                0.10409508               63.48736762                0.76352076               -0.13445918               -0.13428976                0.44954649               -0.01847659                0.04717414               -0.00478276
               6.69032926                0.10101377               63.35588415                0.75621338               -0.09830802               -0.09829015                0.32864144               -0.01797605                0.08503138               -0.00190521
               7.68952655                0.09792587               63.22463265                0.75225895               -0.06219942               -0.06196125                0.20772641               -0.01810087                0.10550568               -0.00105290
               8.68908528                0.09483141               63.09351698                0.75007071               -0.02602436               -0.02567169                0.08680084               -0.01811725                0.11627749               -0.00042629
               9.68900606                0.09172945               62.96245806                0.74961782                0.01018988                0.01062867               -0.03413471               -0.01813215                0.11835715                0.00008398
              10.68928907                0.08861974               62.83137998                0.75089342                0.04641572                0.04692978               -0.15508097               -0.01813325                0.11196663                0.00055106
              11.68993437                0.08550201               62.70020809                0.75390888                0.08263611                0.08322634               -0.27604032               -0.01813797                0.09715020                0.00101925
              12.69094179                0.08237540               62.56886739                0.75869825                0.11885577                0.11955242               -0.39701297               -0.01810162                0.07380146                0.00154699
              13.69231149                0.07923943               62.43728109                0.76531410                0.15502745                0.15570248               -0.51799618               -0.01857085                0.04131257                0.00217773
              14.69404234                0.07608088               62.30536203                0.88532468                0.17308555                0.19337532               -0.63898862               -0.01860887                0.02016321                0.00406583
               4.69591808                1.10546961               63.61672019                0.76844359               -0.15219114               -0.17137468                0.56810294               -0.00046253                0.01612325               -0.00370371
               5.69439617                1.10275218               63.48475151                0.52359526               -0.13419870               -0.13404541                0.44712072               -0.00009825                0.04464308               -0.00452055
               6.69323411                1.10003087               63.35327409                0.50999613               -0.09797281               -0.09783845                0.32621307                0.00003213                0.08280377               -0.00136251
               7.69243672                1.09730625               63.22200823                0.50340844               -0.06158992               -0.06157095                0.20528491                0.00010163                0.10212213               -0.00044656
               8.69200231                1.09457469               63.09087577                0.49977150               -0.02530728               -0.02529174                0.08434510                0.00006561                0.11268694               -0.00016209
               9.69193057                1.09183574               62.95979870                0.49902074                0.01095738                0.01099886               -0.03660466                0.00004262                0.11464756               -0.00015017
              10.69222146                1.08908904               62.82870183                0.50114090                0.04722972                0.04729340               -0.15756539                0.00002519                0.10819487               -0.00025252
              11.69287516                1.08633428               62.69751097                0.50615176                0.08353069                0.08358858               -0.27853934                0.00000620                0.09336449               -0.00036149
              12.69389207                1.08357093               62.56615165                0.51412218                0.11989379                0.11989569               -0.39952675               -0.00010766                0.07004787               -0.00035024
              13.69527304                1.08079645               62.43454751                0.52515705                0.15613638                0.15624208               -0.52052447               -0.00014963                0.03816711                0.00001412
              14.69701480                1.07801464               62.30262260                0.76702947                0.17417597                0.19340548               -0.64152206                0.00040396                0.01758780                0.00155723
               4.69844405                2.10376274               63.61406182                0.76649785               -0.15145671               -0.17019969                0.56567714               -0.00050606                0.01306608               -0.00245814
               5.69692948                2.10141417               63.48207082                0.52011341               -0.13341082               -0.13351350                0.44469465               -0.00020438                0.04420327               -0.00309214
               6.69577583                2.09905700               63.35062382                0.50756263               -0.09723659               -0.09707551                0.32380300               -0.00007687                0.08374903               -0.00108610
               7.69498475                2.09669445               63.21936378                0.50229967               -0.06093645               -0.06081192                0.20286162                0.00004163                0.10129312               -0.00017491
               8.69455710                2.09432558               63.08822659                0.49940517               -0.02460943               -0.02453907                0.08190128                0.00006076                0.11108831               -0.00002751
               9.69449256                2.09194943               62.95714030                0.49881319                0.01169660                0.01174375               -0.03907074                0.00003656                0.11270367               -0.00025156
              10.69479104                2.08956561               62.82603217                0.50050283                0.04800253                0.04803499               -0.16005493                0.00000071                0.10611063               -0.00065764
              11.69545261                2.08717379               62.69482967                0.50449921                0.08432156                0.08433713               -0.28105241               -0.00006879                0.09132125               -0.00110849
              12.69647747                2.08477332               62.56346032                0.51086346                0.12060872                0.12066961               -0.40206225               -0.00017994                0.06834792               -0.00143876
              13.69786479                2.08236427               62.43185184                0.51970147                0.15682940                0.15717894               -0.52307782               -0.00024136                0.03729517               -0.00135325
              14.69961406                2.07994899               62.29993379                0.76341802                0.17492682                0.19372850               -0.64407646                0.00020988                0.01725620               -0.00053271
               4.70060510                3.10206561               63.61140236                0.76636903               -0.15072732               -0.16930133                0.56323968               -0.00043689                0.01342632                0.00260918
               5.69909782                3.10008191               63.47941372                0.51993297               -0.13264006               -0.13287619                0.44226179               -0.00014991                0.04452553                0.00170346
               6.69795229                3.09808936               63.34796870                0.50746655               -0.09644260               -0.09643591                0.32136931               -0.00014085                0.08415184                0.00121061
               7.69716897                3.09609002               63.21671305                0.50223675               -0.06018745               -0.06009405                0.20042177               -0.00004630                0.10154431                0.00094316
               8.69674855                3.09408391               63.08557521                0.49937296               -0.02388532               -0.02379831                0.07944912               -0.00000898                0.11090211                0.00045669
               9.69669126                3.09207061               62.95448495                0.49881378                0.01242844                0.01249379               -0.04153867               -0.00001704                0.11223256               -0.00024068
              10.69699711                3.09004974               62.82337085                0.50054052                0.04874103                0.04879504               -0.16253950               -0.00005344                0.10547289               -0.00109979
              11.69766608                3.08802102               62.69216144                0.50457210                0.08504380                0.08511902               -0.28355366               -0.00011268                0.09063452               -0.00207662
              12.69869799                3.08598432               62.56078553                0.51097458                0.12132261                0.12149953               -0.40457828               -0.00017614                0.06776954               -0.00310248
              13.70009254                3.08394003               62.42917266                0.51985200                0.15757800                0.15794561               -0.52560339               -0.00015168                0.03696510               -0.00408139
              14.70184955                3.08188921               62.29725339                0.76350615                0.17570132                0.19435975               -0.64660278                0.00029103                0.01706487               -0.00495627
               4.70240272                4.10037671               63.60875708                0.76624292               -0.14999750               -0.16850872                0.56079563               -0.00039957                0.01362211                0.00804730
               5.70090274                4.09875665               63.47675969                0.51976126               -0.13189027               -0.13216081                0.43981840               -0.00008280                0.04511110                0.00524822
               6.69976491                4.09712828               63.34531410                0.50737554               -0.09567370               -0.09575380                0.31892456               -0.00010908                0.08521286                0.00354747
               7.69898927                4.09549257               63.21405962                0.50218125               -0.05942917               -0.05938711                0.19797215               -0.00008245                0.10268746                0.00219784
               8.69857633                4.09384961               63.08292325                0.49935347               -0.02314384               -0.02306342                0.07699138               -0.00006765                0.11197794                0.00100911
               9.69852639                4.09219930               62.95183320                0.49882749                0.01316156                0.01324274               -0.04400740               -0.00007345                0.11314379               -0.00020240
              10.69883956                4.09054151               62.82071767                0.50058838                0.04946957                0.04955617               -0.16501990               -0.00009161                0.10619227               -0.00154511
              11.69951578                4.08887617               62.68950501                0.50465479                0.08576874                0.08589797               -0.28604606               -0.00011378                0.09115631               -0.00310174
              12.70055493                4.08720331               62.55812409                0.51109462                0.12205421                0.12228000               -0.40708135               -0.00012030                0.06810278               -0.00493687
              13.70195687                4.08552318               62.42650459                0.52000857                0.15832958                0.15868472               -0.52811244               -0.00008428                0.03712584               -0.00709803
              14.70372153                4.08383619               62.29457725                0.76359647                0.17646589                0.19505661               -0.64911295                0.00033176                0.01713386               -0.00961419
               4.70383723                5.09869544               63.60611857                0.76611703               -0.14926363               -0.16776062                0.55834574               -0.00037592                0.01398086                0.01265998
               5.70234460                5.09743869               63.47410460                0.51958801               -0.13115200               -0.13142632                0.43736662               -0.00002316                0.04611859                0.00814520
               6.70121419                5.09617428               63.34265579                0.50728910               -0.09493022               -0.09502837                0.31647171               -0.00005348                0.08711377                0.00535782
               7.70044599                5.09490227               63.21140300                0.50213381               -0.05868689               -0.05865716                0.19551631               -0.00008250                0.10494043                0.00322967
               8.70004045                5.09362264               63.08027085                0.49934188               -0.02240504               -0.02232497                0.07453000               -0.00010726                0.11435916                0.00147928
               9.69999789                5.09233547               62.94918543                0.49885148                0.01389821                0.01398754               -0.04647604               -0.00011898                0.11545822               -0.00015474
              10.70031842                5.09104087               62.81807317                0.50064289                0.05020621                0.05030621               -0.16749724               -0.00011443                0.10827558               -0.00190474
              11.70100202                5.08973898               62.68686091                0.50474440                0.08650750                0.08665192               -0.28853191               -0.00009348                0.09286713               -0.00398108
              12.70204857                5.08842992               62.55547619                0.51121818                0.12279779                0.12303183               -0.40957410               -0.00006098                0.06932065               -0.00658564
              13.70345797                5.08711373               62.42384762                0.52016762                0.15908017                0.15942685               -0.53061038               -0.00002731                0.03775919               -0.00989900
              14.70523017                5.08579034               62.29190519                0.76368867                0.17722015                0.19578943               -0.65161387                0.00036269                0.01744631               -0.01405028
               4.70490869                6.09702150               63.60347813                0.76599206               -0.14852494               -0.16704419                0.55588982               -0.00035020                0.01452788                0.01617998
               5.70342344                6.09612812               63.47144002                0.51942015               -0.13042120               -0.13068421                0.43490636                0.00003959                0.04768565                0.00999798
               6.70230026                6.09522771               63.33998785                0.50721049               -0.09420921               -0.09426654                0.31401175                0.00000318                0.09009574                0.00640631
               7.70153925                6.09431942               63.20873959                0.50209618               -0.05796370               -0.05789957                0.19305539               -0.00008301                0.10852917                0.00378704
               8.70114099                6.09340311               63.07761660                0.49934243               -0.02167320               -0.02157829                0.07206607               -0.00014516                0.11823548                0.00173694
               9.70110579                6.09247905               62.94654185                0.49888598                0.01463845                0.01472705               -0.04894433               -0.00016088                0.11932385               -0.00010966
              10.70143376                6.09154764               62.81543891                0.50071282                0.05095352                0.05104070               -0.16997098               -0.00013427                0.11185284               -0.00207511
              11.70212486                6.09060920               62.68423194                0.50484270                0.08726055                0.08738113               -0.29101098               -0.00007291                0.09588549               -0.00447792
              12.70317897                6.08966394               62.55284577                0.51134677                0.12355209                0.12376226               -0.41205792               -0.00000086                0.07151820               -0.00766363
              13.70459590                6.08871172               62.42120647                0.52032917                0.15982923                0.16017378               -0.53309900                0.00003289                0.03891773               -0.01198464
              14.70637555                6.08775198               62.28924219                0.76378135                0.17796519                0.19655665               -0.65410685                0.00039689                0.01802993               -0.01771639
               4.70561698                7.09535455               63.60082298                0.76586788               -0.14778118               -0.16637967                0.55342486               -0.00030787                0.01533498                0.01811903
               5.70413917                7.09482501               63.46875387                0.51925511               -0.12970158               -0.12991747                0.43243529                0.00011270                0.05000581                0.01037400
               6.70302295                7.09428895               63.33730136                0.50714007               -0.09351194               -0.09346095                0.31154344                0.00003195                0.09448753                0.00639366
               7.70226893                7.09374428               63.20606390                0.50207163               -0.05725164               -0.05712562                0.19058880               -0.00012111                0.11377685                0.00371238
               8.70187792                7.09319108               63.07495804                0.49935731               -0.02093940               -0.02083370                0.06959977               -0.00019478                0.12388879                0.00170540
               9.70185015                7.09263001               62.94390258                0.49893656                0.01538316                0.01546105               -0.05141185               -0.00020172                0.12499420               -0.00006695
              10.70218558                7.09206168               62.81281752                0.50079194                0.05170524                0.05176631               -0.17244060               -0.00015926                0.11717862               -0.00196341
              11.70288425                7.09148660               62.68162334                0.50495172                0.08802275                0.08809179               -0.29348293               -0.00006999                0.10047409               -0.00436342
              12.70394604                7.09090516               62.55024069                0.51148138                0.12431730                0.12446613               -0.41453284                0.00005115                0.07493332               -0.00775275
              13.70537060                7.09031720               62.41859111                0.52049117                0.16057779                0.16091820               -0.53557782                0.00010698                0.04074829               -0.01275581
              14.70715759                7.08972147               62.28659906                0.76387407                0.17869974                0.19737429               -0.65659146                0.00044745                0.01896622               -0.01993281
               4.70596162                8.09369390               63.59813465                0.76574082               -0.14703216               -0.16583654                0.55094742               -0.00023024                0.01654282                0.01780778
               5.70449130                8.09352977               63.46602908                0.51909311               -0.12899945               -0.12905450                0.42995074                0.00015295                0.05340906                0.00861221
               6.70338163                8.09335849               63.33458442                0.50708200               -0.09282978               -0.09262916                0.30906548               -0.00005382                0.10080781                0.00512192
               7.70263470                8.09317691               63.20336918                0.50206133               -0.05651316               -0.05638329                0.18811582               -0.00020238                0.12113259                0.00296023
               8.70225137                8.09298644               63.07229225                0.49938977               -0.02017745               -0.02010406                0.06713082               -0.00023358                0.13166557                0.00136683
               9.70223115                8.09278828               62.94126784                0.49900571                0.01613056                0.01619159               -0.05387822               -0.00021462                0.13278551               -0.00002467
              10.70257398                8.09258296               62.81021239                0.50089040                0.05244112                0.05249717               -0.17490553               -0.00017559                0.12461115               -0.00152800
              11.70327998                8.09237104               62.67904247                0.50507384                0.08877074                0.08881036               -0.29594709               -0.00009458                0.10707763               -0.00349612
              12.70434939                8.09215327               62.54767323                0.51162339                0.12508794                0.12514514               -0.41699704                0.00005143                0.08003353               -0.00645229
              13.70578173                8.09193008               62.41601825                0.52065700                0.16132841                0.16162221               -0.53804406                0.00018391                0.04356765               -0.01136412
              14.70757596                8.09169946               62.28399441                0.76396531                0.17942271                0.19829170               -0.65906400                0.00053159                0.02044727               -0.01969189
               4.70594065                9.09203782               63.59538693                0.76561454               -0.14630054               -0.16554460                0.54845397               -0.00026794                0.01825027                0.01314771
               5.70447764                9.09224392               63.46324039                0.51893955               -0.12829557               -0.12802491                0.42744758               -0.00000884                0.05856884                0.00439735
               6.70337474                9.09243637               63.33182417                0.50704166               -0.09203494               -0.09196001                0.30657443               -0.00018495                0.11000384                0.00283047
               7.70263694                9.09261662               63.20064904                0.50207367               -0.05564262               -0.05568680                0.18563480               -0.00023118                0.13109698                0.00163801
               8.70226188                9.09278900               63.06961640                0.49944499               -0.01938088               -0.01938904                0.06465796               -0.00017759                0.14189333                0.00076361
               9.70224933                9.09295384               62.93863779                0.49909551                0.01687113                0.01692587               -0.05634374               -0.00015188                0.14300976                0.00000323
              10.70259931                9.09311162               62.80762697                0.50101084                0.05313653                0.05324587               -0.17736451               -0.00013182                0.13454347               -0.00082536
              11.70331206                9.09326281               62.67649739                0.50521584                0.08943593                0.08956428               -0.29840067               -0.00010709                0.11631686               -0.00193882
              12.70438803                9.09340807               62.54515927                0.51178096                0.12580116                0.12588513               -0.41944577               -0.00000251                0.08776604               -0.00369193
              13.70582808                9.09354964               62.41351483                0.52082830                0.16207207                0.16223716               -0.54048926                0.00016485                0.04813519               -0.00686895
              14.70762947                9.09368730               62.28145921                0.76405572                0.18013868                0.19940209               -0.66151442                0.00053263                0.02287986               -0.01435743
               4.70554407               10.09038301               63.59251931                0.88276613               -0.14514893               -0.16548118                0.54592990                0.01896803                0.02420509                0.01145347
               5.70409258               10.09096927               63.46036448                0.75942323               -0.12694166               -0.12746479                0.42492043                0.01830771                0.06817062                0.00334892
               6.70300524               10.09151929               63.32901352                0.75351481               -0.09075660               -0.09170722                0.30406690                0.01774497                0.12300201                0.00269060
               7.70227745               10.09206317               63.19789884                0.75104687               -0.05473218               -0.05534416                0.18314195                0.01801842                0.14391570                0.00156932
               8.70191059               10.09259866               63.06692840                0.74974756               -0.01859791               -0.01903415                0.06217900                0.01805166                0.15479628                0.00064472
               9.70190549               10.09312679               62.93601236                0.74958571                0.01758902                0.01729530               -0.05880901                0.01807756                0.15588376               -0.00022304
              10.70226237               10.09364788               62.80506354                0.75055263                0.05379504                0.05362580               -0.17981649                0.01808319                0.14728366               -0.00112826
              11.70298139               10.09416233               62.67399422                0.75266174                0.09000677                0.08995164               -0.30083984                0.01808768                0.12875905               -0.00219137
              12.70406251               10.09467097               62.54271248                0.75594873                0.12622018                0.12629019               -0.42187236                0.01807317                0.09959621               -0.00362741
              13.70550579               10.09517483               62.41111632                0.76047327                0.16243931                0.16251802               -0.54290362                0.01859805                0.05734685               -0.00586049
              14.70731129               10.09568750               62.27906487                0.88205928                0.18055003                0.20001983               -0.66392563                0.01945052                0.02987506               -0.01252844
               4.82577141                0.10974753               64.62494686                0.88462525               -0.14860128               -0.16758163                0.55566567               -0.01904195                0.02000405               -0.00504318
               5.82428539                0.10667550               64.49180466                0.76277149               -0.13095866               -0.13079342                0.43784278               -0.01799475                0.04725375               -0.00478127
               6.82315223                0.10361697               64.35912788                0.75584840               -0.09575023               -0.09573294                0.32009063               -0.01750725                0.08515133               -0.00189538
               7.82237039                0.10055201               64.22668297                0.75210627               -0.06058325               -0.06035128                0.20232855               -0.01762893                0.10562213               -0.00104526
               8.82194057                0.09748066               64.09437379                0.75003428               -0.02535134               -0.02500774                0.08455541               -0.01764499                0.11638735               -0.00042171
               9.82186336                0.09440201               63.96212125                0.74960549                0.00991874                0.01034610               -0.03322674               -0.01765942                0.11845799                0.00008570
              10.82213894                0.09131581               63.82984945                0.75081319                0.04520011                0.04570077               -0.15101956               -0.01766057                0.11205387                0.00054984
              11.82276736                0.08822180               63.69748371                0.75366871                0.08047624                0.08105106               -0.26882525               -0.01766526                0.09721969                0.00101498
              12.82374847                0.08511914               63.56494903                0.75820335                0.11575168                0.11643016               -0.38664411               -0.01762968                0.07385174                0.00153886
              13.82508240                0.08200737               63.43216864                0.76446812                0.15098023                0.15163758               -0.50447289               -0.01808654                0.04134272                0.00216718
              14.82676807                0.07887362               63.29905541                0.88476073                0.16856742                0.18832809               -0.62231070               -0.01812363                0.02017571                0.00406222
               4.82865301                1.10807171               64.62232737                0.76743377               -0.14822849               -0.16691179                0.55330897               -0.00045012                0.01613969               -0.00369668
               5.82717073                1.10536757               64.48916461                0.52226961               -0.13070514               -0.13055567                0.43548070               -0.00009567                0.04470898               -0.00450830
               6.82603891                1.10265964               64.35649385                0.50938968               -0.09542374               -0.09529305                0.31772561                0.00003110                0.08290623               -0.00133548
               7.82526225                1.09994850               64.22403445                0.50315350               -0.05998954               -0.05997121                0.19995082                0.00009893                0.10221534               -0.00042460
               8.82483912                1.09723059               64.09170834                0.49970974               -0.02465293               -0.02463783                0.08216411                0.00006376                0.11277316               -0.00014913
               9.82476919                1.09450547               63.95943751                0.49900122                0.01066622                0.01070653               -0.03563189                0.00004137                0.11472463               -0.00014691
              10.82505244                1.09177282               63.82714679                0.50100666                0.04599274                0.04605481               -0.15343866                0.00002438                0.10825805               -0.00025952
              11.82568905                1.08903231               63.69476193                0.50575214                0.08134728                0.08140376               -0.27125856                0.00000580                0.09340941               -0.00037891
              12.82667939                1.08628344               63.56220847                0.51329793                0.11676226                0.11676434               -0.38909177               -0.00010501                0.07007396               -0.00037763
              13.82802429                1.08352374               63.42941012                0.52374340                0.15205978                0.15216306               -0.50693443               -0.00014565                0.03817849               -0.00002041
              14.82972058                1.08075690               63.29629099                0.76608757                0.16962900                0.18835718               -0.62477712                0.00039350                0.01758644                0.00152822
               4.83117069                2.10640929               64.61964506                0.76558577               -0.14751345               -0.16576751                0.55094684               -0.00049269                0.01307579               -0.00244641
               5.82969555                2.10406439               64.48645998                0.51896282               -0.12993796               -0.13003802                0.43311875               -0.00019915                0.04427050               -0.00307247
               6.82857193                2.10171111               64.35381980                0.50707636               -0.09470672               -0.09455012                0.31537876               -0.00007515                0.08384603               -0.00105375
               7.82780142                2.09935258               64.22136609                0.50209627               -0.05935307               -0.05923203                0.19759067                0.00004024                0.10136264               -0.00014720
               8.82738487                2.09698791               64.08903504                0.49935676               -0.02397325               -0.02390499                0.07978441                0.00005895                0.11114665               -0.00001026
               9.82732195                2.09461614               63.95675478                0.49879626                0.01138611                0.01143186               -0.03803329                0.00003534                0.11275131               -0.00024777
              10.82761259                2.09223691               63.82445255                0.50039795                0.04674520                0.04677686               -0.15586240                0.00000038                0.10614348               -0.00066816
              11.82825686                2.08984988               63.69205583                0.50417926                0.08211727                0.08213262               -0.27370528               -0.00006729                0.09133653               -0.00113344
              12.82925493                2.08745443               63.55949213                0.51020297                0.11745840                0.11751791               -0.39156055               -0.00017543                0.06834722               -0.00147608
              13.83060603                2.08505063               63.42668926                0.51856735                0.15273453                0.15307525               -0.50942033               -0.00023511                0.03728989               -0.00139860
              14.83230962                2.08264077               63.29357697                0.76265915                0.17035996                0.18867143               -0.62726380                0.00020425                0.01724613               -0.00057370
               4.83333296                3.10475636               64.61696154                0.76546325               -0.14680321               -0.16489284                0.54857358               -0.00042551                0.01343785                0.00262557
               5.83186493                3.10276681               64.48377887                0.51879429               -0.12918748               -0.12941755                0.43074991               -0.00014603                0.04459104                0.00172518
               6.83074921                3.10076864               64.35114066                0.50698357               -0.09393365               -0.09392732                0.31300903               -0.00013725                0.08424107                0.00123354
               7.82998625                3.09876385               64.21869128                0.50203591               -0.05862358               -0.05853303                0.19521491               -0.00004540                0.10160090                0.00096310
               8.82957674                3.09675249               64.08635946                0.49932705               -0.02326795               -0.02318367                0.07739654               -0.00000918                0.11094273                0.00046936
               9.82952090                3.09473411               63.95407507                0.49879594                0.01209870                0.01216228               -0.04043660               -0.00001711                0.11225999               -0.00023874
              10.82981871                3.09270836               63.82176671                0.50043075                0.04746431                0.04751707               -0.15828211               -0.00005249                0.10548517               -0.00110931
              11.83047018                3.09067496               63.68936290                0.50424788                0.08282060                0.08289410               -0.27614131               -0.00010991                0.09063027               -0.00209728
              12.83147512                3.08863380               63.55679250                0.51030896                0.11815358                0.11832616               -0.39401094               -0.00017172                0.06775268               -0.00313298
              13.83283325                3.08658525               63.42398514                0.51870895                0.15346356                0.15382181               -0.51188003               -0.00014805                0.03695010               -0.00411702
              14.83454440                3.08453033               63.29087163                0.76274263                0.17111424                0.18928637               -0.62972474                0.00028327                0.01704893               -0.00499009
               4.83514128                4.10311143               64.61429214                0.76534375               -0.14609237               -0.16412103                0.54619350               -0.00038916                0.01363309                0.00807142
               5.83368036                4.10147604               64.48110073                0.51862921               -0.12845724               -0.12872087                0.42837019               -0.00008053                0.04517500                0.00527102
               6.83257214                4.09983256               64.34846193                0.50689790               -0.09318495               -0.09326312                0.31062836               -0.00010612                0.08529818                0.00356894
               7.83181666                4.09818192               64.21601367                0.50198338               -0.05788538               -0.05784473                0.19282995               -0.00008042                0.10273672                0.00221546
               8.83141443                4.09652423               64.08368324                0.49930552               -0.02254602               -0.02246805                0.07500331               -0.00006627                0.11200798                0.00101933
               9.83136574                4.09485939               63.95139895                0.49880970                0.01281266                0.01289161               -0.04284058               -0.00007200                0.11315893               -0.00020121
              10.83167068                4.09318725               63.81908905                0.50047471                0.04817384                0.04825842               -0.16069820               -0.00008947                0.10619217               -0.00155440
              11.83232922                4.09150776               63.68668189                0.50432598                0.08352660                0.08365268               -0.27856858               -0.00011082                0.09113985               -0.00312087
              12.83334121                4.08982095               63.55410637                0.51042195                0.11886596                0.11908610               -0.39644809               -0.00011740                0.06807597               -0.00496431
              13.83470653                4.08812707               63.42129231                0.51885814                0.15419559                0.15454170               -0.51432375               -0.00008253                0.03710587               -0.00713150
              14.83642513                4.08642649               63.28817071                0.76282815                0.17185915                0.18996534               -0.63217009                0.00032290                0.01711553               -0.00965001
               4.83659597                5.10147394               64.61162945                0.76522501               -0.14537762               -0.16339245                0.54380747               -0.00036599                0.01399150                0.01269162
               5.83514219                5.10019239               64.47842144                0.51846686               -0.12773825               -0.12800553                0.42598251               -0.00002236                0.04618288                0.00817065
               6.83404120                5.09890337               64.34577942                0.50681684               -0.09246097               -0.09255674                0.30824010               -0.00005204                0.08719922                0.00537987
               7.83329297                5.09760696               64.21333281                0.50193971               -0.05716266               -0.05713392                0.19043855               -0.00008034                0.10498705                0.00324658
               8.83289795                5.09630313               64.08100655                0.49929670               -0.02182675               -0.02174889                0.07260640               -0.00010444                0.11438442                0.00148882
               9.83285644                5.09499194               63.94872683                0.49883143                0.01353004                0.01361687               -0.04524446               -0.00011594                0.11546705               -0.00015397
              10.83316855                5.09367353               63.81642010                0.50053022                0.04889134                0.04898870               -0.16311030               -0.00011149                0.10826828               -0.00191391
              11.83383426                5.09234802               63.68401325                0.50441095                0.08424590                0.08438673               -0.28098897               -0.00009108                0.09284508               -0.00400032
              12.83485347                5.09101552               63.55143388                0.51053928                0.11958989                0.11981801               -0.39887481               -0.00005948                0.06928947               -0.00661300
              13.83622606                5.08967608               63.41861069                0.51900846                0.15492656                0.15526431               -0.51675598               -0.00002665                0.03773584               -0.00993394
              14.83795200                5.08832964               63.28547396                0.76291646                0.17259381                0.19067902               -0.63460577                0.00035317                0.01742549               -0.01409202
               4.83769706                6.09984359               64.60896477                0.76510755               -0.14465817               -0.16269457                0.54141526               -0.00034094                0.01453918                0.01621762
               5.83625048                6.09891593               64.47573258                0.51830689               -0.12702663               -0.12728278                0.42358662                0.00003859                0.04775282                0.01002449
               6.83515653                6.09798142               64.34308720                0.50674341               -0.09175893               -0.09181484                0.30584460                0.00000294                0.09018516                0.00642835
               7.83441530                6.09703925               64.21064512                0.50190449               -0.05645837               -0.05639608                0.18804180               -0.00008087                0.10857823                0.00380338
               8.83402736                6.09608926               64.07832798                0.49929799               -0.02111408               -0.02102181                0.07020716               -0.00014129                0.11826161                0.00174631
               9.83399302                6.09513172               63.94605888                0.49886648                0.01425075                0.01433701               -0.04764812               -0.00015662                0.11933237               -0.00010905
              10.83431237                6.09416703               63.81376143                0.50059455                0.04961895                0.04970389               -0.16551913               -0.00013081                0.11184449               -0.00208396
              11.83498540                6.09319549               63.68135982                0.50450568                0.08497923                0.08509686               -0.28340316               -0.00007119                0.09586238               -0.00449663
              12.83601196                6.09221731               63.54877894                0.51065937                0.12032452                0.12052943               -0.40129421               -0.00000079                0.07148710               -0.00769204
              13.83739189                6.09123235               63.41594498                0.51916173                0.15565602                0.15599163               -0.51917970                0.00003246                0.03889476               -0.01202264
              14.83912508                6.09024007               63.28278637                0.76300361                0.17331927                0.19142597               -0.63703318                0.00038690                0.01800908               -0.01776537
               4.83844446                7.09822005               64.60628529                0.76498901               -0.14393397               -0.16204749                0.53901473               -0.00029987                0.01534748                0.01816020
               5.83700512                7.09764674               64.47302204                0.51815083               -0.12632597               -0.12653615                0.42118035                0.00010936                0.05007869                0.01039930
               6.83591794                7.09706708               64.34037635                0.50667818               -0.09108001               -0.09103032                0.30344091                0.00003078                0.09458669                0.00641447
               7.83518352                7.09647904               64.20794508                0.50188123               -0.05576498               -0.05564241                0.18563979               -0.00011803                0.11383447                0.00372789
               8.83480265                7.09588269               64.07564509                0.49931514               -0.02039946               -0.02029679                0.06780565               -0.00018964                0.12392188                0.00171434
               9.83477554                7.09527868               63.94339526                0.49891587                0.01497600                0.01505175               -0.05005085               -0.00019636                0.12500822               -0.00006594
              10.83510217                7.09466761               63.81111566                0.50067363                0.05035089                0.05041058               -0.16792425               -0.00015503                0.11717524               -0.00197158
              11.83578255                7.09404996               63.67872682                0.50460927                0.08572143                0.08578910               -0.28581071               -0.00006810                0.10045557               -0.00438114
              12.83681659                7.09342611               63.54614943                0.51078931                0.12106988                0.12121516               -0.40370511                0.00004993                0.07490582               -0.00778060
              13.83820395                7.09279592               63.41330516                0.51931714                0.15638512                0.15671656               -0.52159393                0.00010451                0.04072706               -0.01279553
              14.83994430                7.09215816               63.28011870                0.76309013                0.17403458                0.19222195               -0.63945178                0.00043602                0.01894591               -0.01998660
               4.83883769                8.09660264               64.60357252                0.76486862               -0.14320506               -0.16151907                0.53660386               -0.00022431                0.01655819                0.01784831
               5.83740564                8.09638521               64.47027273                0.51799822               -0.12564243               -0.12569593                0.41876164                0.00014855                0.05349140                0.00863242
               6.83632484                8.09616082               64.33763495                0.50662460               -0.09041563               -0.09022036                0.30102765               -0.00005271                0.10092274                0.00513945
               7.83559733                8.09592640               64.20522596                0.50187520               -0.05504578               -0.05491964                0.18323179               -0.00019708                0.12120500                0.00297379
               8.83522392                8.09568332               64.07295493                0.49934779               -0.01965753               -0.01958627                0.06540140               -0.00022728                0.13171215                0.00137466
               9.83520418                8.09543276               63.94073618                0.49898347                0.01570375                0.01576313               -0.05245252               -0.00020872                0.13281157               -0.00002352
              10.83553800                8.09517524               63.80848620                0.50076846                0.05106759                0.05112225               -0.17032442               -0.00017063                0.12461871               -0.00153452
              11.83622553                8.09491128               63.67612162                0.50472758                0.08644988                0.08648888               -0.28821042               -0.00009181                0.10706935               -0.00351081
              12.83726700                8.09464162               63.54355765                0.51092568                0.12182027                0.12187639               -0.40610451                0.00005003                0.08001469               -0.00647654
              13.83866193                8.09436668               63.41070795                0.51947286                0.15711598                0.15740214               -0.52399516                0.00017884                0.04355261               -0.01139902
              14.84040932                8.09408451               63.27748965                0.76317792                0.17473846                0.19311530               -0.64185922                0.00051762                0.02043192               -0.01974233
               4.83887484                9.09498967               64.60080020                0.76474861               -0.14249265               -0.16123501                0.53417581               -0.00026099                0.01826931                0.01317746
               5.83744991                9.09513282               64.46745933                0.51785331               -0.12495704               -0.12469313                0.41632406               -0.00000873                0.05866568                0.00440643
               6.83637570                9.09526267               64.33485012                0.50658871               -0.08964159               -0.08956894                0.29860213               -0.00018026                0.11014307                0.00284125
               7.83565708                9.09538065               64.20248133                0.50189078               -0.05419806               -0.05424145                0.18081596               -0.00022510                0.13119146                0.00164665
               8.83529174                9.09549096               64.07025467                0.49940318               -0.01888190               -0.01889000                0.06299343               -0.00017279                0.14196051                0.00076858
               9.83527944                9.09559394               63.93808180                0.49907511                0.01642493                0.01647815               -0.05485348               -0.00014755                0.14305568                0.00000400
              10.83562024                9.09569005               63.80587652                0.50088699                0.05174471                0.05185130               -0.17271894               -0.00012779                0.13457016               -0.00082937
              11.83631434                9.09577973               63.67355233                0.50486580                0.08709748                0.08722288               -0.29059915               -0.00010401                0.11632628               -0.00194750
              12.83736219                9.09586364               63.54101952                0.51107653                0.12251465                0.12259691               -0.40848877               -0.00000272                0.08776376               -0.00370671
              13.83876463                9.09594396               63.40818040                0.51963414                0.15784026                0.15800144               -0.52637731                0.00016013                0.04813297               -0.00689018
              14.84051899                9.09602046               63.27493029                0.76326497                0.17543606                0.19419701               -0.64424680                0.00051872                0.02287398               -0.01439316
               4.83854617               10.09337794               64.59790765                0.88233548               -0.14137077               -0.16117317                0.53171661                0.01847373                0.02423804                0.01148094
               5.83713246               10.09389134               64.46455848                0.75888338               -0.12363818               -0.12414744                0.41386252                0.01783012                0.06829247                0.00335622
               6.83607341               10.09436944               64.33201472                0.75329002               -0.08839668               -0.08932292                0.29616063                0.01728203                0.12317459                0.00270090
               7.83536453               10.09484157               64.19970653                0.75095698               -0.05331176               -0.05390776                0.17838846                0.01754874                0.14404016                0.00157676
               8.83500717               10.09530552               64.06754221                0.74972822               -0.01811954               -0.01854443                0.06057956                0.01758106                0.15489279                0.00064861
               9.83500214               10.09576232               63.93543204                0.74957454                0.01712415                0.01683786               -0.05725413                0.01760661                0.15595849               -0.00022296
              10.83534965               10.09621226               63.80328889                0.75048945                0.05238591                0.05222129               -0.17510660                0.01761234                0.14733910               -0.00113273
              11.83604986               10.09665573               63.67102509                0.75248546                0.08765315                0.08759999               -0.29297400                0.01761640                0.12879692               -0.00219974
              12.83710272               10.09709355               63.53854878                0.75559504                0.12292278                0.12299135               -0.41085162                0.01760210                0.09962153               -0.00364038
              13.83850831               10.09752671               63.40575806                0.75987437                0.15819821                0.15827536               -0.52872916                0.01811303                0.05736770               -0.00587853
              14.84026668               10.09796845               63.27251216                0.88166191                0.17583698                0.19479888               -0.64659570                0.01894303                0.02988833               -0.01256041
               4.95970293                0.11232835               65.63042911                0.88408553               -0.14461626               -0.16308711                0.54076230               -0.01853064                0.02003517               -0.00504761
               5.95825677                0.10927956               65.49612448                0.76204011               -0.12744740               -0.12728643                0.42610317               -0.01751136                0.04733204               -0.00477995
               6.95715398                0.10624391               65.36228596                0.75549447               -0.09318451               -0.09316775                0.31151303               -0.01703725                0.08526859               -0.00188667
               7.95639308                0.10320200               65.22867922                0.75195713               -0.05896194               -0.05873593                0.19691274               -0.01715584                0.10573508               -0.00103824
               8.95597474                0.10015388               65.09520809                0.74999798               -0.02467594               -0.02434141                0.08230201               -0.01717125                0.11649442               -0.00041697
               9.95589956                0.09709864               64.96179352                0.74959356                0.00964730                0.01006311               -0.03231755               -0.01718538                0.11855646                0.00008741
              10.95616769                0.09403606               64.82835958                0.75073485                0.04398139                0.04446854               -0.14694762               -0.01718651                0.11213899                0.00054857
              11.95677919                0.09096588               64.69483158                0.75343479                0.07831023                0.07886958               -0.26158978               -0.01719106                0.09728741                0.00101054
              12.95773389                0.08788728               64.56113451                0.75772038                0.11263855                0.11329869               -0.37624510               -0.01715671                0.07390066                0.00153182
              13.95903196                0.08479982               64.42719163                0.76364261                0.14692144                0.14756116               -0.49091102               -0.01760129                0.04137246                0.00215680
              14.96067232                0.08169098               64.29291582                0.88421085                0.16403653                0.18326677               -0.60558535               -0.01763692                0.02018843                0.00405731
               4.96256641                1.11069748               65.62778637                0.76644776               -0.14425358               -0.16243521                0.53846930               -0.00043784                0.01615641               -0.00369010
               5.96112387                1.10800670               65.49346112                0.52097609               -0.12720090               -0.12705524                0.42380497               -0.00009296                0.04477376               -0.00449618
               6.96002239                1.10531223               65.35962860                0.50879528               -0.09286683               -0.09273972                0.30921198                0.00003013                0.08300645               -0.00130979
               7.95926654                1.10261464               65.22600724                0.50290550               -0.05838392               -0.05836624                0.19459925                0.00009594                0.10230624               -0.00040370
               8.95885471                1.09991046               65.09251905                0.49965102               -0.02399618               -0.02398157                0.07997524                0.00006168                0.11285739               -0.00013631
               9.95878661                1.09719927               64.95908606                0.49897976                0.01037459                0.01041383               -0.03465778                0.00003984                0.11479986               -0.00014378
              10.95906220                1.09448075               64.82563306                0.50087649                0.04475259                0.04481303               -0.14930138                0.00002326                0.10831970               -0.00026606
              11.95968166                1.09175458               64.69208580                0.50536102                0.07915764                0.07921289               -0.26395746                0.00000515                0.09345371               -0.00039568
              12.96064536                1.08902027               64.55836981                0.51249253                0.11362167                0.11362410               -0.37862677               -0.00010255                0.07009934               -0.00040423
              13.96195410                1.08627543               64.42440882                0.52236557                0.14797191                0.14807264               -0.49330656               -0.00014176                0.03818869               -0.00005417
              14.96360480                1.08352365               64.29012705                0.76516762                0.16506973                0.18329498               -0.60798605                0.00038323                0.01758388                0.00149991
               4.96507573                2.10907964               65.62508076                0.76469732               -0.14355769               -0.16132165                0.53617072               -0.00047945                0.01308642               -0.00243408
               5.96364015                2.10673846               65.49073319                0.51784259               -0.12645437               -0.12655168                0.42150664               -0.00019387                0.04433615               -0.00305316
               6.96254664                2.10438912               65.35693140                0.50660091               -0.09216927               -0.09201683                0.30692860               -0.00007320                0.08394038               -0.00102239
               7.96179677                2.10203468               65.22331560                0.50189771               -0.05776463               -0.05764719                0.19230312                0.00003884                0.10143093               -0.00011990
               8.96139135                2.09967425               65.08982228                0.49930781               -0.02333478               -0.02326861                0.07765990                0.00005676                0.11120389                0.00000637
               9.96133007                2.09730692               64.95637963                0.49877794                0.01107501                0.01111959               -0.03699449                0.00003380                0.11279813               -0.00024411
              10.96161285                2.09493232               64.82291492                0.50029161                0.04548468                0.04551563               -0.15165974               -0.00000016                0.10617620               -0.00067817
              11.96223977                2.09255014               64.68935557                0.50386714                0.07990688                0.07992219               -0.26633821               -0.00006597                0.09135153               -0.00115733
              12.96321099                2.09015977               64.55562911                0.50955934                0.11429915                0.11435761               -0.38102961               -0.00017088                0.06834631               -0.00151294
              13.96452575                2.08776127               64.42166344                0.51746033                0.14862856                0.14896034               -0.49572572               -0.00022860                0.03728492               -0.00144257
              14.96618356                2.08535688               64.28738851                0.76192075                0.16578104                0.18360067               -0.61040576                0.00019889                0.01723689               -0.00061266
               4.96723919                3.10747104               65.62237383                0.76458090               -0.14286672               -0.16047073                0.53386186               -0.00041398                0.01344791                0.00264241
               5.96581052                3.10547567               65.48802871                0.51768158               -0.12572407               -0.12594805                0.41920170               -0.00014237                0.04465428                0.00174622
               6.96472471                3.10347190               65.35422888                0.50651446               -0.09141694               -0.09141090                0.30462285               -0.00013381                0.08432863                0.00125626
               7.96398218                3.10146170               65.22061735                0.50184076               -0.05705501               -0.05696706                0.18999174               -0.00004433                0.10165630                0.00098332
               8.96358361                3.09944509               65.08712314                0.49927960               -0.02264861               -0.02256674                0.07533644               -0.00000914                0.11098219                0.00048156
               9.96352921                3.09742166               64.95367622                0.49877953                0.01176854                0.01183023               -0.03933278               -0.00001688                0.11228719               -0.00023673
              10.96381898                3.09539106               64.82020521                0.50032377                0.04618444                0.04623587               -0.15401423               -0.00005129                0.10549775               -0.00111905
              11.96445290                3.09335302               64.68663861                0.50393192                0.08059126                0.08066308               -0.26870841               -0.00010694                0.09062607               -0.00211814
              12.96543080                3.09130742               64.55290531                0.50965824                0.11497570                0.11514387               -0.38341385               -0.00016687                0.06773620               -0.00316265
              13.96675241                3.08925464               64.41893506                0.51759552                0.14933790                0.14968652               -0.49811890               -0.00014371                0.03693615               -0.00415157
              14.96841756                3.08719566               64.28465890                0.76199866                0.16651479                0.18419885               -0.61279952                0.00027578                0.01703442               -0.00502337
               4.96905821                4.10587023               65.61968095                0.76446694               -0.14217542               -0.15972008                0.53154697               -0.00037855                0.01364264                0.00809469
               5.96763645                4.10421950               65.48532710                0.51752586               -0.12501370               -0.12527044                0.41688709               -0.00007856                0.04523706                0.00529347
               6.96655793                4.10256090               65.35152667                0.50643380               -0.09068830               -0.09076470                0.30230670               -0.00010358                0.08538206                0.00359025
               7.96582269                4.10089534               65.21791622                0.50179188               -0.05633648               -0.05629724                0.18767083               -0.00007841                0.10278460                0.00223246
               8.96543120                4.09922291               65.08442332                0.49926144               -0.02194608               -0.02187038                0.07300770               -0.00006454                0.11203680                0.00102947
               9.96538377                4.09754352               64.95097639                0.49879207                0.01246317                0.01253987               -0.04167174               -0.00007016                0.11317327               -0.00020017
              10.96568047                4.09585704               64.81750370                0.50036543                0.04687487                0.04695719               -0.15636504               -0.00008726                0.10619145               -0.00156350
              11.96632126                4.09416340               64.68393364                0.50400623                0.08127825                0.08140118               -0.27107051               -0.00010801                0.09112426               -0.00313993
              12.96730603                4.09246264               64.55019513                0.50976651                0.11566880                0.11588305               -0.38578462               -0.00011400                0.06805043               -0.00499145
              13.96863464                4.09075500               64.41621812                0.51773737                0.15005002                0.15038667               -0.50049596               -0.00007978                0.03708616               -0.00716436
              14.97030703                4.08904085               64.28193385                0.76208136                0.16723935                0.18485917               -0.61517785                0.00031442                0.01709724               -0.00968516
               4.97053308                5.10427664               65.61699472                0.76435504               -0.14147996               -0.15901112                0.52922524               -0.00035615                0.01400168                0.01272181
               5.96911828                5.10297026               65.48262425                0.51737258               -0.12431414               -0.12457442                0.41456393               -0.00002167                0.04624569                0.00819528
               6.96804680                5.10165660               65.34882060                0.50635717               -0.08998394               -0.09007735                0.29998281               -0.00005062                0.08728265                0.00540130
               7.96731860                5.10033575               65.21521177                0.50174876               -0.05563331               -0.05560556                0.18534395               -0.00007833                0.10503234                0.00326262
               8.96693413                5.09900768               65.08172298                0.49925136               -0.02124619               -0.02117067                0.07067567               -0.00010188                0.11440891                0.00149810
               9.96689368                5.09767246               64.94828054                0.49881253                0.01316114                0.01324564               -0.04401100               -0.00011300                0.11547578               -0.00015335
              10.96719736                5.09633020               64.81481096                0.50041713                0.04757283                0.04766778               -0.15871199               -0.00010869                0.10826128               -0.00192264
              11.96784514                5.09498104               64.68124113                0.50408575                0.08197826                0.08211546               -0.27342561               -0.00008904                0.09282323               -0.00401841
              12.96883692                5.09362508               64.54749870                0.50987552                0.11637359                0.11659544               -0.38814711               -0.00005796                0.06925938               -0.00664035
              13.97017261                5.09226237               64.41351250                0.51788000                0.15076133                0.15108983               -0.50286268               -0.00002550                0.03771377               -0.00996903
              14.97185215                5.09089284               64.27921307                0.76216365                0.16795392                0.18555358               -0.61754669                0.00034405                0.01740566               -0.01413277
               4.97166386                6.10269001               65.61430643                0.76424416               -0.14077961               -0.15833183                0.52689666               -0.00033184                0.01455040                0.01625387
               5.97025606                6.10172801               65.47991175                0.51722230               -0.12362158               -0.12387096                0.41223192                0.00003764                0.04781853                0.01005047
               6.96919142                6.10075935               65.34610475                0.50628777               -0.08930097               -0.08935541                0.29765189                0.00000297                0.09027282                0.00644998
               7.96847004                6.09978322               65.21250043                0.50171732               -0.05494818               -0.05488771                0.18301215               -0.00007872                0.10862626                0.00381939
               8.96809246                6.09879950               65.07902074                0.49925574               -0.02055273               -0.02046323                0.06834119               -0.00013752                0.11828715                0.00175549
               9.96805899                6.09780843               64.94558888                0.49884823                0.01386248                0.01394630               -0.04634966               -0.00015241                0.11934066               -0.00010833
              10.96836971                6.09681040               64.81212853                0.50048055                0.04828077                0.04836371               -0.16105587               -0.00012726                0.11183672               -0.00209275
              11.96902460                6.09580571               64.67856388                0.50417621                0.08269173                0.08280648               -0.27577466               -0.00006921                0.09583962               -0.00451476
              12.97002354                6.09479455               64.54481989                0.50999257                0.11708852                0.11728786               -0.39050168               -0.00000073                0.07145591               -0.00772034
              13.97136637                6.09377680               64.41082288                0.51802466                0.15147132                0.15179779               -0.50522187                0.00003159                0.03887259               -0.01206041
              14.97305297                6.09275193               64.27650153                0.76224672                0.16865998                0.18628062               -0.61990909                0.00037647                0.01799003               -0.01781151
               4.97245044                7.10111001               65.61160327                0.76413179               -0.14007497               -0.15770219                0.52456118               -0.00029178                0.01536093                0.01820062
               5.97104969                7.10049284               65.47717748                0.51707568               -0.12293984               -0.12314442                0.40989073                0.00010644                0.05015032                0.01042452
               6.96999164                7.09986949               65.34337018                0.50622717               -0.08864036               -0.08859206                0.29531310                0.00002998                0.09468355                0.00643499
               7.96927688                7.09923800               65.20977669                0.50169742               -0.05427349               -0.05415442                0.18067506               -0.00011474                0.11389063                0.00374330
               8.96890617                7.09859842               65.07631415                0.49927125               -0.01985747               -0.01975778                0.06600449               -0.00018443                0.12395412                0.00172318
               9.96887973                7.09795139               64.94290157                0.49889673                0.01456810                0.01464168               -0.04868739               -0.00019089                0.12502174               -0.00006506
              10.96919754                7.09729748               64.80945903                0.50055588                0.04899305                0.04905129               -0.16339593               -0.00015059                0.11717201               -0.00197946
              11.96985960                7.09663717               64.67590713                0.50427640                0.08341397                0.08348002               -0.27811725               -0.00006600                0.10043666               -0.00439843
              12.97086582                7.09597084               64.54216659                0.51011595                0.11781358                0.11795489               -0.39284670                0.00004872                0.07487827               -0.00780777
              13.97221587                7.09529833               64.40815923                0.51817080                0.15218044                0.15250302               -0.50757020                0.00010146                0.04070898               -0.01283297
              14.97390942                7.09461845               64.27381003                0.76232964                0.16935571                0.18705495               -0.62226221                0.00042389                0.01893122               -0.02003734
               4.97289236                8.09953596               65.60886673                0.76401935               -0.13936567               -0.15718798                0.52221511               -0.00021823                0.01657348                0.01788829
               5.97149870                8.09926512               65.47440432                0.51693171               -0.12227477               -0.12232673                0.40753716                0.00014458                0.05357183                0.00865225
               6.97044686                8.09898751               65.34060497                0.50617879               -0.08799394               -0.08780394                0.29296478               -0.00005132                0.10103494                0.00515663
               7.96973882                8.09870014               65.20703382                0.50169459               -0.05357378               -0.05345117                0.17833208               -0.00019172                0.12127554                0.00298696
               8.96937539                8.09840434               65.07360028                0.49930641               -0.01913563               -0.01906645                0.06366516               -0.00022101                0.13175726                0.00138225
               9.96935611                8.09810127               64.94021879                0.49896354                0.01527627                0.01533387               -0.05102437               -0.00020281                0.13283707               -0.00002254
              10.96968091                8.09779142               64.80680590                0.50064940                0.04969039                0.04974371               -0.16573121               -0.00016572                0.12462636               -0.00154069
              11.97034992                8.09747531               64.67327826                0.50439031                0.08412266                0.08416082               -0.28045183               -0.00008918                0.10706064               -0.00352515
              12.97136336                8.09715365               64.53955114                0.51024552                0.11854354                0.11859819               -0.39518105                0.00004852                0.07999644               -0.00649903
              13.97272079                8.09682686               64.40553835                0.51832021                0.15289143                0.15316994               -0.50990596                0.00017357                0.04353968               -0.01143303
              14.97442119                8.09649303               64.27115722                0.76241205                0.17004060                0.18792396               -0.62460453                0.00050340                0.02041908               -0.01979478
               4.97298776                9.09796625               65.60607045                0.76390539               -0.13867248               -0.15691161                0.51985217               -0.00025391                0.01828795                0.01320687
               5.97160104                9.09804630               65.47156687                0.51679603               -0.12160789               -0.12135073                0.40516520               -0.00000881                0.05876027                0.00441560
               6.97055560                9.09811342               65.33779622                0.50614768               -0.08724087               -0.08717024                0.29060488               -0.00017558                0.11027871                0.00285209
               7.96985622                9.09816898               65.20426536                0.50171130               -0.05274898               -0.05279132                0.17598149               -0.00021910                0.13128332                0.00165478
               8.96950062                9.09821709               65.07087627                0.49936434               -0.01838095               -0.01838899                0.06132225               -0.00016798                0.14202569                0.00077343
               9.96948860                9.09825806               64.93754073                0.49905219                0.01597786                0.01602967               -0.05336063               -0.00014343                0.14310038                0.00000484
              10.96982018                9.09829235               64.80417259                0.50076541                0.05034918                0.05045301               -0.16806099               -0.00012432                0.13459628               -0.00083271
              11.97049558                9.09832039               64.67068540                0.50452356                0.08475274                0.08487495               -0.28277605               -0.00010118                0.11633545               -0.00195587
              12.97151523                9.09834281               64.53698949                0.51039084                0.11921907                0.11929936               -0.39750080               -0.00000286                0.08776077               -0.00372053
              13.97287996                9.09836173               64.40298728                0.51847347                0.15359634                0.15375341               -0.51222452                0.00015544                0.04812888               -0.00691252
              14.97458716                9.09837693               64.26857427                0.76249382                0.17071978                0.18897686               -0.62692932                0.00050463                0.02286570               -0.01443161
               4.97272717               10.09639773               65.60315364                0.88191596               -0.13758106               -0.15685157                0.51746006                0.01797809                0.02427031                0.01150831
               5.97135135               10.09683811               65.46864173                0.75835805               -0.12032444               -0.12081967                0.40277048                0.01735067                0.06841141                0.00336394
               6.97032068               10.09724411               65.33493674                0.75307029               -0.08602947               -0.08693102                0.28822951                0.01681758                0.12334243                0.00271134
               7.96963077               10.09764431               65.20146661                0.75086848               -0.05188686               -0.05246665                0.17361965                0.01707757                0.14416114                0.00158386
               8.96928294               10.09803656               65.06813999                0.74970730               -0.01763938               -0.01805275                0.05897365                0.01710919                0.15498678                0.00065257
               9.96927798               10.09842186               64.93486728                0.74956337                0.01665797                0.01637973               -0.05569656                0.01713386                0.15603170               -0.00022270
              10.96961610               10.09880048               64.80156141                0.75042813                0.05097305                0.05081296               -0.17038405                0.01713924                0.14739327               -0.00113600
              11.97029744               10.09917281               64.66813474                0.75231362                0.08529358                0.08524186               -0.28508683                0.01714344                0.12883340               -0.00220740
              12.97132197               10.09953964               64.53449544                0.75524967                0.11961643                0.11968318               -0.39980001                0.01712959                0.09964479               -0.00365323
              13.97268977               10.09990193               64.40054174                0.75929136                0.15394493                0.15402022               -0.51451370                0.01762660                0.05738520               -0.00589800
              14.97440087               10.10027256               64.26613296                0.88127431                0.17111017                0.18956281               -0.62921631                0.01843418                0.02989765               -0.01259373
               5.09478138                0.11493206               66.63576211                0.88355987               -0.14061962               -0.15857944                0.52581489               -0.01801782                0.02006570               -0.00505116
               6.09337518                0.11190662               66.50032673                0.76132745               -0.12392591               -0.12376912                0.41432885               -0.01702668                0.04740795               -0.00477830
               7.09230286                0.10889396               66.36535814                0.75514864               -0.09061108               -0.09059471                0.30290918               -0.01656574                0.08538233               -0.00187716
               8.09156296                0.10587520               66.23062122                0.75181203               -0.05733535               -0.05711549                0.19147973               -0.01668134                0.10584539               -0.00103086
               9.09115615                0.10285040               66.09601983                0.74996364               -0.02399809               -0.02367277                0.08004079               -0.01669649                0.11659892               -0.00041264
              10.09108300                0.09981869               65.96147490                0.74958165                0.00937539                0.00977982               -0.03140725               -0.01671014                0.11865223                0.00008901
              11.09134366                0.09677983               65.82691049                0.75065865                0.04275952                0.04323318               -0.14286530               -0.01671117                0.11222205                0.00054742
              12.09193819                0.09373359               65.69225191                0.75320519                0.07613854                0.07668240               -0.25433530               -0.01671559                0.09735386                0.00100620
              13.09286643                0.09067917               65.55742412                0.75724970                0.10951721                0.11015904               -0.36581829               -0.01668201                0.07394818                0.00152383
              14.09412853                0.08761612               65.42235042                0.76283959                0.14285165                0.14347351               -0.47731190               -0.01711406                0.04140059                0.00214637
              15.09572347                0.08453230               65.28694370                0.88367530                0.15949316                0.17819101               -0.58881331               -0.01714874                0.02019988                0.00405324
               5.09762664                1.11334627               66.63309676                0.76548776               -0.14026718               -0.15794564                0.52358628               -0.00042554                0.01617258               -0.00368359
               6.09622397                1.11066893               66.49764071                0.51971664               -0.12368634               -0.12354454                0.41209491               -0.00009027                0.04483675               -0.00448462
               7.09515291                1.10798801               66.36267809                0.50821856               -0.09030219               -0.09017875                0.30067270                0.00002941                0.08310370               -0.00128400
               8.09441792                1.10530405               66.22792643                0.50266235               -0.05677332               -0.05675632                0.18923097                0.00009303                0.10239453               -0.00038269
               9.09401745                1.10261368               66.09330784                0.49959192               -0.02333710               -0.02332301                0.07777876                0.00005943                0.11293944               -0.00012402
              10.09395118                1.09991649               65.95874436                0.49895943                0.01008259                0.01012076               -0.03368247                0.00003824                0.11487324               -0.00014077
              11.09421910                1.09721217               65.82416076                0.50074782                0.04350927                0.04356820               -0.14515382                0.00002224                0.10838008               -0.00027272
              12.09482137                1.09450041               65.68948278                0.50498023                0.07696236                0.07701630               -0.25663741                0.00000490                0.09349686               -0.00041228
              13.09575835                1.09178076               65.55463594                0.51170915                0.11047289                0.11047553               -0.36813419               -0.00009973                0.07012359               -0.00043074
              14.09703083                1.08905086               65.41954399                0.52102536                0.14387269                0.14397089               -0.47964086               -0.00013780                0.03819825               -0.00008741
              15.09863580                1.08631421               65.28413126                0.76427372                0.16049739                0.17821830               -0.59114691                0.00037280                0.01758096                0.00147186
               5.10012754                2.11177315               66.63036847                0.76383090               -0.13959057               -0.15686289                0.52135185               -0.00046617                0.01309642               -0.00242299
               6.09873163                2.10943573               66.49489011                0.51675094               -0.12296039               -0.12305509                0.40986038               -0.00018849                0.04440058               -0.00303478
               7.09766833                2.10709038               66.35995837                0.50613968               -0.08962393               -0.08947606                0.29845322               -0.00007120                0.08403288               -0.00099168
               8.09693916                2.10474008               66.22521215                0.50170459               -0.05617137               -0.05605746                0.18699932                0.00003758                0.10149700               -0.00009322
               9.09654491                2.10238394               66.09058823                0.49926214               -0.02269410               -0.02262996                0.07552791                0.00005483                0.11125928                0.00002274
              10.09648527                2.10002110               65.95601489                0.49876185                0.01076364                0.01080685               -0.03595418                0.00003235                0.11284372               -0.00024052
              11.09676018                2.09765120               65.82141936                0.50018864                0.04422117                0.04425140               -0.14744730               -0.00000058                0.10620832               -0.00068825
              12.09736970                2.09527392               65.68672907                0.50356386                0.07769079                0.07770600               -0.25895243               -0.00006424                0.09136642               -0.00118096
              13.09831399                2.09288868               65.55187154                0.50893287                0.11113130                0.11118862               -0.37046995               -0.00016621                0.06834509               -0.00154884
              14.09959232                2.09049554               65.41677474                0.51638489                0.14451104                0.14483396               -0.48199309               -0.00022255                0.03727909               -0.00148583
              15.10120421                2.08809667               65.28136885                0.76120241                0.16118914                0.17851560               -0.59350023                0.00019317                0.01722586               -0.00065115
               5.10229215                3.11020901               66.62763877                0.76372170               -0.13891859               -0.15603543                0.51910643               -0.00040247                0.01345887                0.00265880
               6.10090297                3.10820783               66.49216290                0.51660083               -0.12225032               -0.12246815                0.40761913               -0.00013846                0.04471685                0.00176732
               7.09984714                3.10619849               66.35723311                0.50605806               -0.08889252               -0.08888680                0.29621098               -0.00013038                0.08441395                0.00127811
               8.09912512                3.10418290               66.22249111                0.50164954               -0.05548135               -0.05539609                0.18475178               -0.00004341                0.10170990                0.00100217
               9.09873752                3.10216108               66.08786619                0.49923421               -0.02202701               -0.02194763                0.07326919               -0.00000923                0.11102074                0.00049347
              10.09868457                3.10013262               65.95328841                0.49876193                0.01143779                0.01149772               -0.03822739               -0.00001684                0.11231352               -0.00023470
              11.09896627                3.09809719               65.81868643                0.50021941                0.04490148                0.04495148               -0.14973603               -0.00005032                0.10551008               -0.00112806
              12.09958260                3.09605453               65.68398874                0.50362285                0.07835617                0.07842615               -0.26125651               -0.00010445                0.09062233               -0.00213786
              13.10053340                3.09400453               65.54912423                0.50902765                0.11178900                0.11195280               -0.37278735               -0.00016236                0.06771946               -0.00319117
              14.10181838                3.09194754               65.41402277                0.51651323                0.14520065                0.14553975               -0.48431920               -0.00013963                0.03692151               -0.00418497
              15.10343741                3.08988452               65.27861564                0.76127674                0.16190253                0.17909731               -0.59582759                0.00026804                0.01701907               -0.00505440
               5.10412185                4.10865244               66.62492308                0.76361435               -0.13824650               -0.15530561                0.51685602               -0.00036815                0.01365267                0.00811824
               6.10273939                4.10698637               66.48943847                0.51645287               -0.12155976               -0.12180936                0.40536904               -0.00007663                0.04529765                0.00531589
               7.10169066                4.10531265               66.35450806                0.50598053               -0.08818430               -0.08825848                0.29395945               -0.00010097                0.08546275                0.00361075
               8.10097570                4.10363216               66.21976708                0.50160310               -0.05478295               -0.05474477                0.18249533               -0.00007651                0.10283087                0.00224884
               9.10059500                4.10194499               66.08514340                0.49921609               -0.02134403               -0.02127058                0.07100513               -0.00006307                0.11206547                0.00103922
              10.10054882                4.10025106               65.95056552                0.49877249                0.01211316                0.01218762               -0.04050140               -0.00006856                0.11318787               -0.00019915
              11.10083726                4.09855023               65.81596175                0.50025803                0.04557269                0.04565262               -0.15202092               -0.00008521                0.10619135               -0.00157216
              12.10146027                4.09684244               65.68126048                0.50369218                0.07902416                0.07914366               -0.26355281               -0.00010534                0.09110911               -0.00315831
              13.10241774                4.09512773               65.54639067                0.50912723                0.11246315                0.11267152               -0.37509298               -0.00011088                0.06802494               -0.00501809
              14.10370954                4.09340634               65.41128239                0.51664554                0.14589299                0.14622035               -0.48662996               -0.00007722                0.03706695               -0.00719594
              15.10533560                4.09167861               65.27586715                0.76135348                0.16260669                0.17973902               -0.59813889                0.00030596                0.01708032               -0.00971781
               5.10561693                5.10710290               66.62221395                0.76350807               -0.13757046               -0.15461659                0.51459949               -0.00034639                0.01401178                0.01275123
               6.10424123                5.10577164               66.48671272                0.51630975               -0.12087960               -0.12113280                0.40311053               -0.00002144                0.04630660                0.00821907
               7.10319934                5.10443332               66.35177907                0.50591032               -0.08749935               -0.08759025                0.29169991               -0.00004943                0.08736320                0.00542221
               8.10249124                5.10308800               66.21703969                0.50156529               -0.05409925               -0.05407236                0.18023326               -0.00007618                0.10507632                0.00327884
               9.10211735                5.10173567               66.08242006                0.49920871               -0.02066367               -0.02059026                0.06873784               -0.00009903                0.11443289                0.00150722
              10.10207797                5.10037637               65.94784661                0.49879369                0.01279163                0.01287377               -0.04277552               -0.00010986                0.11548436               -0.00015276
              11.10237319                5.09901025               65.81324586                0.50030734                0.04625130                0.04634358               -0.15430322               -0.00010571                0.10825484               -0.00193140
              12.10300299                5.09763741               65.67854474                0.50377007                0.07970477                0.07983817               -0.26584280               -0.00008642                0.09280197               -0.00403676
              13.10396728                5.09625796               65.54367094                0.50923305                0.11314834                0.11336417               -0.37738999               -0.00005623                0.06922962               -0.00666774
              14.10526596                5.09487194               65.40855344                0.51678165                0.14658453                0.14690396               -0.48893138               -0.00002485                0.03769296               -0.01000321
              15.10689897                5.09347930               65.27312303                0.76143175                0.16330137                0.18041384               -0.60044124                0.00033437                0.01738850               -0.01417208
               5.10677743                6.10556011               66.61950270                0.76340279               -0.13688981               -0.15395643                0.51233636               -0.00032261                0.01456171                0.01628934
               6.10540854                6.10456371               66.48397721                0.51616629               -0.12020634               -0.12044909                0.40084379                0.00003643                0.04788279                0.01007534
               7.10437331                6.10356084               66.34904024                0.50584544               -0.08683521               -0.08688845                0.28943381                0.00000270                0.09035796                0.00647095
               8.10367183                6.10255071               66.21430536                0.50153511               -0.05343309               -0.05337449                0.17796630               -0.00007673                0.10867271                0.00383519
               9.10330465                6.10153319               66.07969481                0.49921306               -0.01998951               -0.01990251                0.06646822               -0.00013382                0.11831189                0.00176428
              10.10327204                6.10050853               65.94513189                0.49882936                0.01347344                0.01355492               -0.04504902               -0.00014804                0.11934875               -0.00010764
              11.10357411                6.09947710               65.81054032                0.50036940                0.04693955                0.04702011               -0.15658157               -0.00012358                0.11182900               -0.00210124
              12.10421083                6.09843920               65.67584432                0.50385525                0.08039841                0.08050991               -0.26812629               -0.00006725                0.09581697               -0.00453274
              13.10518208                6.09739502               65.54096891                0.50934335                0.11384318                0.11403711               -0.37967819               -0.00000090                0.07142537               -0.00774707
              14.10648770                6.09634441               65.40584055                0.51691757                0.14727450                0.14759212               -0.49122395                0.00003014                0.03885186               -0.01209664
              15.10812757                6.09528689               65.27038818                0.76151033                0.16398762                0.18112082               -0.60273810                0.00036553                0.01797317               -0.01785832
               5.10760327                7.10402377               66.61677651                0.76329737               -0.13620482               -0.15334428                0.51006585               -0.00028361                0.01537302                0.01823990
               6.10624122                7.10336266               66.48121985                0.51602794               -0.11954363               -0.11974274                0.39856772                0.00010374                0.05021976                0.01044874
               7.10521240                7.10269555               66.34628261                0.50578876               -0.08619311               -0.08614643                0.28716042                0.00002912                0.09477794                0.00645472
               8.10451736                7.10202051               66.21155858                0.50151704               -0.05277725               -0.05266168                0.17569451               -0.00011184                0.11394520                0.00375816
               9.10415685                7.10133762               66.07696518                0.49923075               -0.01931345               -0.01921676                0.06419655               -0.00017942                0.12398555                0.00173166
              10.10413109                7.10064747               65.94242152                0.49887667                0.01415958                0.01423094               -0.04732181               -0.00018550                0.12503517               -0.00006419
              11.10444005                7.09995065               65.80784774                0.50044249                0.04763195                0.04768844               -0.15885610               -0.00014631                0.11716860               -0.00198717
              12.10508373                7.09924761               65.67316447                0.50395114                0.08110032                0.08116465               -0.27040345               -0.00006428                0.10041874               -0.00441515
              13.10606205                7.09853870               65.53829250                0.50945954                0.11454787                0.11468563               -0.38195774                0.00004703                0.07485176               -0.00783343
              14.10737469                7.09782379               65.40315375                0.51705636                0.14796406                0.14827793               -0.49350729                0.00009848                0.04068938               -0.01286955
              15.10902133                7.09710172               65.26767346                0.76158960                0.16466447                0.18187412               -0.60502765                0.00041218                0.01891387               -0.02008830
               5.10809398                8.10249322               66.61401682                0.76319113               -0.13551493               -0.15284407                0.50778378               -0.00021209                0.01658855                0.01792626
               6.10673883                8.10216886               66.47842348                0.51589288               -0.11889707               -0.11894749                0.39627910                0.00014087                0.05365023                0.00867134
               7.10571604                8.10183791               66.34349424                0.50574303               -0.08556493               -0.08538028                0.28487776               -0.00004985                0.10114438                0.00517335
               8.10502753                8.10149747               66.20879260                0.50151831               -0.05209699               -0.05197810                0.17341682               -0.00018639                0.12134421                0.00299990
               9.10467410                8.10114885               66.07422823                0.49926621               -0.01861163               -0.01854469                0.06192231               -0.00021475                0.13180133                0.00138979
              10.10465530                8.10079315               65.93971569                0.49894215                0.01484795                0.01490391               -0.04959385               -0.00019707                0.13286207               -0.00002166
              11.10497106                8.10043087               65.80517158                0.50053247                0.04830982                0.04836170               -0.16112676               -0.00016097                0.12463386               -0.00154676
              12.10562149                8.10006250               65.67051259                0.50406099                0.08178928                0.08182662               -0.27267318               -0.00008656                0.10705263               -0.00353885
              13.10660684                8.09968873               65.53565403                0.50958323                0.11525767                0.11531133               -0.38422790                0.00004738                0.07997846               -0.00652183
              14.10792665                8.09930997               65.40050983                0.51719715                0.14865535                0.14892657               -0.49577888                0.00016919                0.04352606               -0.01146615
              15.10957995                8.09892437               65.26499756                0.76166509                0.16533014                0.18271890               -0.60730397                0.00048964                0.02040594               -0.01984368
               5.10824776                9.10096689               66.61119724                0.76308376               -0.13484089               -0.15257527                0.50548589               -0.00024689                0.01830695                0.01323516
               6.10689935                9.10098371               66.47556264                0.51576595               -0.11824871               -0.11799825                0.39397283               -0.00000879                0.05885282                0.00442437
               7.10588279                9.10098795               66.34066222                0.50571870               -0.08483278               -0.08476429                0.28258347               -0.00017074                0.11041130                0.00286263
               8.10520270                9.10098095               66.20600096                0.50153862               -0.05129518               -0.05133658                0.17113152               -0.00021271                0.13137282                0.00166316
               9.10485688                9.10096672               66.07148112                0.49932503               -0.01787814               -0.01788597                0.05964449               -0.00016310                0.14208897                0.00077833
              10.10484513                9.10094555               65.93701459                0.49903115                0.01552998                0.01558043               -0.05186517               -0.00013925                0.14314412                0.00000543
              11.10516748                9.10091788               65.80251530                0.50064604                0.04895034                0.04905141               -0.16339195               -0.00012055                0.13462219               -0.00083630
              12.10582414                9.10088414               65.66789681                0.50419086                0.08240197                0.08252095               -0.27493277               -0.00009795                0.11634439               -0.00196411
              13.10681552                9.10084493               65.53306950                0.50972383                0.11591445                0.11599292               -0.38648291               -0.00000229                0.08775806               -0.00373456
              14.10814243                9.10080232               65.39793591                0.51734307                0.14934033                0.14949365               -0.49803208                0.00015138                0.04812622               -0.00693358
              15.10980233                9.10075610               65.26239170                0.76174368                0.16598993                0.18374204               -0.60956287                0.00049052                0.02285968               -0.01446728
               5.10805539               10.09944172               66.60825685                0.88150752               -0.13377979               -0.15251695                0.50316047                0.01748083                0.02430143                0.01153527
               6.10671760               10.09980889               66.47261389                0.75784535               -0.11700062               -0.11748177                0.39164459                0.01686987                0.06852721                0.00337138
               7.10571538               10.10014263               66.33777931                0.75285909               -0.08365481               -0.08453178                0.28027358                0.01635196                0.12350627                0.00272153
               8.10504450               10.10047074               66.20317892                0.75078295               -0.05045731               -0.05102090                0.16883522                0.01660555                0.14427895                0.00159140
               9.10470623               10.10079113               66.06872168                0.74968915               -0.01715744               -0.01755901                0.05736117                0.01663608                0.15507776                0.00065662
              10.10470135               10.10110476               65.93431811                0.74955226                0.01619120                0.01592078               -0.05413620                0.01666005                0.15610288               -0.00022277
              11.10503006               10.10141190               65.79988121                0.75036749                0.04955692                0.04940140               -0.16565061                0.01666541                0.14744660               -0.00113982
              12.10569249               10.10171291               65.66532336                0.75214561                0.08292783                0.08287765               -0.27717931                0.01666945                0.12886923               -0.00221532
              13.10668862               10.10200859               65.53055278                0.75491256                0.11630078                0.11636589               -0.38871770                0.01665600                0.09966781               -0.00366576
              14.10801850               10.10229985               65.39546779                0.75872388                0.14967915                0.14975286               -0.50025689                0.01713889                0.05740330               -0.00591652
              15.10968220               10.10259921               65.25992783                0.88089813                0.16636936                0.18431151               -0.61178610                0.01792369                0.02990774               -0.01262629
               5.23097501                0.11755803               67.64094541                0.88304787               -0.13661129               -0.15405855                0.51082457               -0.01750363                0.02009583               -0.00505428
               6.22960890                0.11455604               67.50441106                0.76063394               -0.12039409               -0.12024142                0.40252032               -0.01654055                0.04748206               -0.00477662
               7.22856713                0.11156646               67.36834415                0.75481120               -0.08803020               -0.08801419                0.29428066               -0.01609292                0.08549303               -0.00186808
               8.22784830                0.10857097               67.23250882                0.75166974               -0.05570403               -0.05549030                0.18603087               -0.01620524                0.10595272               -0.00102355
               9.22745305                0.10556960               67.09680891                0.74992970               -0.02331792               -0.02300190                0.07777188               -0.01621999                0.11670075               -0.00040815
              10.22738194                0.10256150               66.96116538                0.74956961                0.00910326                0.00949616               -0.03049587               -0.01623340                0.11874576                0.00009061
              11.22763512                0.09954648               66.82550228                0.75058339                0.04153483                0.04199493               -0.13877322               -0.01623436                0.11230308                0.00054602
              12.22821263                0.09652428               66.68974488                0.75298156                0.07396162                0.07448978               -0.24706283               -0.01623856                0.09741828                0.00100176
              13.22911435                0.09349413               66.55381814                0.75679222                0.10638780                0.10701115               -0.35536449               -0.01620601                0.07399444                0.00151666
              14.23034039                0.09045562               66.41764539                0.76205799                0.13877057                0.13937472               -0.46367537               -0.01662576                0.04142851                0.00213699
              15.23188976                0.08739692               66.28113955                0.88315435                0.15493693                0.17310146               -0.57199450               -0.01665927                0.02021161                0.00404978
               5.23380197                1.11601744               67.63825810                0.76455422               -0.13626892               -0.15344288                0.50865972               -0.00041317                0.01618854               -0.00367668
               6.23243928                1.11335362               67.50170302                0.51849156               -0.12016144               -0.12002348                0.40035041               -0.00008769                0.04489808               -0.00447307
               7.23139874                1.11068632               67.36564206                0.50765783               -0.08773004               -0.08761012                0.29210806                0.00002840                0.08319823               -0.00125910
               8.23068468                1.10801606               67.22979186                0.50242711               -0.05515782               -0.05514142                0.18384645                0.00009034                0.10248047               -0.00036224
               9.23029558                1.10533958               67.09407463                0.49953614               -0.02267576               -0.02266220                0.07557484                0.00005766                0.11301933               -0.00011184
              10.23023116                1.10265647               66.95841241                0.49894003                0.00979021                0.00982729               -0.03270585                0.00003693                0.11494463               -0.00013780
              11.23049138                1.09996643               66.82272998                0.50062426                0.04226307                0.04232034               -0.14099631                0.00002148                0.10843876               -0.00027952
              12.23107642                1.09726917               66.68695305                0.50461015                0.07476162                0.07481405               -0.24929886                0.00000470                0.09353886               -0.00042859
              13.23198662                1.09456424               66.55100713                0.51094625                0.10731575                0.10731853               -0.35761372               -0.00009712                0.07014766               -0.00045589
              14.23322274                1.09184936               66.41481601                0.51971997                0.13976222                0.13985805               -0.46593780               -0.00013399                0.03820825               -0.00011953
              15.23478186                1.08912794               66.27830411                0.76340345                0.15591245                0.17312805               -0.57426178                0.00036218                0.01757891                0.00144480
               5.23629439                2.11448917               67.63550779                0.76298848               -0.13561184               -0.15239128                0.50648987               -0.00045288                0.01310606               -0.00241170
               6.23493827                2.11215557               67.49893040                0.51568905               -0.11945634               -0.11954837                0.39818040               -0.00018334                0.04446291               -0.00301693
               7.23390526                2.10981426               67.36290046                0.50568991               -0.08707110               -0.08692759                0.28995224               -0.00006936                0.08412230               -0.00096221
               8.23319685                2.10746814               67.22705558                0.50151697               -0.05457296               -0.05446264                0.18167853                0.00003615                0.10156114               -0.00006732
               9.23281380                2.10511635               67.09133284                0.49921744               -0.02205114               -0.02198906                0.07338852                0.00005274                0.11131316                0.00003861
              10.23275582                2.10275805               66.95566055                0.49874664                0.01045177                0.01049365               -0.03491234                0.00003096                0.11288756               -0.00023704
              11.23302284                2.10039289               66.81996597                0.50009036                0.04295455                0.04298390               -0.14322386               -0.00000101                0.10623910               -0.00069804
              12.23361491                2.09802056               66.68417652                0.50326641                0.07546902                0.07548392               -0.25154733               -0.00006276                0.09138123               -0.00120382
              13.23453222                2.09564050               66.54821971                0.50832356                0.10795517                0.10801105               -0.35988210               -0.00016161                0.06834409               -0.00158312
              14.23577402                2.09325278               66.41202357                0.51534021                0.14038214                0.14069631               -0.46822243               -0.00021611                0.03727363               -0.00152739
              15.23733986                2.09085948               66.27551850                0.76050460                0.15658415                0.17341657               -0.57654730                0.00018754                0.01721629               -0.00068907
               5.23846011                3.11296962               67.63275596                0.76288541               -0.13495919               -0.15158759                0.50430924               -0.00039110                0.01346890                0.00267415
               6.23711052                3.11096266               67.49618110                0.51554757               -0.11876657               -0.11897822                0.39600322               -0.00013463                0.04477698                0.00178699
               7.23608478                3.10894777               67.36015310                0.50561282               -0.08636067               -0.08635525                0.28777444               -0.00012665                0.08449691                0.00129933
               8.23538331                3.10692681               67.22431239                0.50146289               -0.05390287               -0.05382038                0.17949613               -0.00004244                0.10176257                0.00102093
               9.23500672                3.10489980               67.08858853                0.49919001               -0.02140311               -0.02132632                0.07119454               -0.00000953                0.11105824                0.00050505
              10.23495524                3.10286634               66.95291167                0.49874552                0.01110666                0.01116471               -0.03712038               -0.00001685                0.11233894               -0.00023290
              11.23522886                3.10082611               66.81721049                0.50011600                0.04361535                0.04366394               -0.14544700               -0.00004933                0.10552195               -0.00113675
              12.23582755                3.09877885               66.68141348                0.50332366                0.07611544                0.07618347               -0.25378553               -0.00010183                0.09061913               -0.00215745
              13.23675116                3.09672446               66.54544956                0.50841069                0.10859417                0.10875336               -0.36213317               -0.00015800                0.06770389               -0.00321959
              14.23799943                3.09466329               66.40924868                0.51546088                0.14105191                0.14138165               -0.47048119               -0.00013584                0.03690689               -0.00421732
              15.23957220                3.09259627               66.27274235                0.76057431                0.15727683                0.17398131               -0.57880655                0.00026030                0.01700324               -0.00508562
               5.24030048                4.11145742               67.63001807                0.76278397               -0.13430618               -0.15087850                0.50212273               -0.00035755                0.01366227                0.00814066
               6.23895742                4.10977600               67.49343448                0.51540794               -0.11809562               -0.11833817                0.39381709               -0.00007456                0.04535677                0.00533710
               7.23793857                4.10808715               67.35740586                0.50554209               -0.08567267               -0.08574493                0.28558729               -0.00009842                0.08554213                0.00363081
               8.23724397                4.10639173               67.22156612                0.50142005               -0.05322456               -0.05318779                0.17730462               -0.00007457                0.10287641                0.00226499
               9.23687408                4.10468983               67.08584342                0.49917319               -0.02073979               -0.02066873                0.06899561               -0.00006143                0.11209316                0.00104869
              10.23682917                4.10298134               66.95016636                0.49875575                0.01176267                0.01183485               -0.03932928               -0.00006675                0.11320197               -0.00019819
              11.23710933                4.10126617               66.81446328                0.50015535                0.04426733                0.04434500               -0.14766668               -0.00008281                0.10619103               -0.00158095
              12.23771452                4.09954423               66.67866258                0.50338870                0.07676422                0.07688038               -0.25601591               -0.00010243                0.09109412               -0.00317662
              13.23864462                4.09781557               66.54269327                0.50850650                0.10924885                0.10945160               -0.36437327               -0.00010817                0.06800086               -0.00504464
              14.23989950                4.09608041               66.40648552                0.51558491                0.14172460                0.14204298               -0.47272682               -0.00007578                0.03704816               -0.00722755
              15.24147911                4.09433911               66.26997107                0.76064679                0.15796133                0.17460512               -0.58105351                0.00029680                0.01706226               -0.00975015
               5.24181579                5.10995205               67.62728671                0.76268402               -0.13364978               -0.15020926                0.49993118               -0.00033637                0.01402078                0.01278071
               6.24047929                5.10859589               67.49068646                0.51527161               -0.11743522               -0.11768112                0.39162398               -0.00002114                0.04636582                0.00824256
               7.23946709                5.10723287               67.35465459                0.50547526               -0.08500739               -0.08509586                0.28339287               -0.00004867                0.08744237                0.00544213
               8.23877914                5.10586305               67.21881643                0.50138514               -0.05256029               -0.05253444                0.17510668               -0.00007437                0.10511936                0.00329406
               9.23841588                5.10448642               67.08309773                0.49916681               -0.02007878               -0.02000786                0.06679312               -0.00009628                0.11445610                0.00151589
              10.23837757                5.10310304               66.94742503                0.49877783                0.01242183                0.01250126               -0.04153807               -0.00010683                0.11549238               -0.00015202
              11.23866432                5.10171301               66.81172490                0.50020276                0.04492650                0.04501600               -0.14988303               -0.00010282                0.10824791               -0.00193995
              12.23927610                5.10031646               66.67592428                0.50346295                0.07742506                0.07755478               -0.25823956               -0.00008406                0.09278115               -0.00405415
              13.24021282                5.09891350               66.53995090                0.50860726                0.10991408                0.11012412               -0.36660321               -0.00005494                0.06920080               -0.00669327
              14.24147438                5.09750415               66.40373388                0.51571283                0.14239630                0.14270701               -0.47496211               -0.00002463                0.03767241               -0.01003622
              15.24306074                5.09608837               66.26720425                0.76072156                0.15863635                0.17526093               -0.58329132                0.00032442                0.01737099               -0.01421059
               5.24300606                6.10845323               67.62455316                0.76258517               -0.13298882               -0.14956812                0.49773350               -0.00031342                0.01457109                0.01632428
               6.24167618                6.10742238               67.48792863                0.51513873               -0.11678139               -0.11701709                0.38942263                0.00003521                0.04794429                0.01010038
               7.24067044                6.10638524               67.35189342                0.50541683               -0.08436230               -0.08441408                0.28119131                0.00000236                0.09044067                0.00649172
               8.23998893                6.10534104               67.21605975                0.50135846               -0.05191316               -0.05185645                0.17290430               -0.00007466                0.10871805                0.00385055
               9.23963217                6.10428967               67.08035010                0.49917175               -0.01942400               -0.01933975                0.06458843               -0.00013006                0.11833603                0.00177296
              10.23960045                6.10323137               66.94468790                0.49881047                0.01308394                0.01316289               -0.04374633               -0.00014404                0.11935658               -0.00010697
              11.23989385                6.10216649               66.80899690                0.50025989                0.04559498                0.04567313               -0.15209614               -0.00012047                0.11182137               -0.00210906
              12.24051235                6.10109532               66.67320135                0.50354237                0.07809889                0.07820728               -0.26045775               -0.00006568                0.09579565               -0.00454976
              13.24145583                6.10001805               66.53722632                0.50871039                0.11058904                0.11077767               -0.36882549               -0.00000095                0.07139611               -0.00777332
              14.24272413                6.09893455               66.40099840                0.51584268                0.14306643                0.14337521               -0.47718832                0.00002946                0.03883044               -0.01213205
              15.24431716                6.09784433               66.26444677                0.76079414                0.15930281                0.17594715               -0.58552137                0.00035511                0.01795452               -0.01790395
               5.24387122                7.10696068               67.62180459                0.76248556               -0.13232334               -0.14897354                0.49552775               -0.00027556                0.01538455                0.01827754
               6.24254799                7.10625555               67.48514883                0.51500829               -0.11613761               -0.11633096                0.38721174                0.00010069                0.05028712                0.01047261
               7.24154847                7.10554459               67.34911339                0.50536298               -0.08373857               -0.08369337                0.27898321                0.00002828                0.09486948                0.00647490
               8.24087322                7.10482592               67.21329058                0.50134416               -0.05127614               -0.05116422                0.17069785               -0.00010874                0.11399799                0.00377310
               9.24052295                7.10409963               67.07759809                0.49919103               -0.01876752               -0.01867366                0.06238189               -0.00017438                0.12401577                0.00174008
              10.24049787                7.10336629               66.94195513                0.49885759                0.01375014                0.01381961               -0.04595405               -0.00018021                0.12504827               -0.00006347
              11.24079795                7.10262647               66.80628191                0.50033064                0.04626743                0.04632242               -0.15430564               -0.00014212                0.11716563               -0.00199466
              12.24142322                7.10188061               66.67049906                0.50363574                0.07878086                0.07884346               -0.26267012               -0.00006251                0.10040100               -0.00443158
              13.24237357                7.10112905               66.53452743                0.50882205                0.11127378                0.11140790               -0.37104075                0.00004559                0.07482569               -0.00785980
              14.24364869                7.10037165               66.39828909                0.51597246                0.14373618                0.14404149               -0.47940655                0.00009556                0.04067042               -0.01290617
              15.24524829                7.09960731               66.26170948                0.76086834                0.15995997                0.17667879               -0.58774471                0.00040037                0.01889666               -0.02013736
               5.24441082                8.10547376               67.61902240                0.76238428               -0.13165339               -0.14848793                0.49331187               -0.00020606                0.01660338                0.01796304
               6.24309428                8.10509576               67.48232990                0.51488334               -0.11550961               -0.11555854                0.38498894                0.00013666                0.05372699                0.00868994
               7.24210063                8.10471137               67.34630253                0.50532206               -0.08312842               -0.08294942                0.27676658               -0.00004856                0.10125100                0.00519010
               8.24143172                8.10431776               67.21050215                0.50134621               -0.05061549               -0.05050044                0.16848592               -0.00018116                0.12141058                0.00301254
               9.24108832                8.10391619               67.07483872                0.49922726               -0.01808577               -0.01802092                0.06017292               -0.00020859                0.13184364                0.00139704
              10.24107000                8.10350776               66.93922691                0.49892257                0.01441895                0.01447330               -0.04816097               -0.00019126                0.13288617               -0.00002075
              11.24137670                8.10309293               66.80358336                0.50041986                0.04692590                0.04697642               -0.15651121               -0.00015598                0.12464115               -0.00155310
              12.24200852                8.10267219               66.66782480                0.50374114                0.07944987                0.07948649               -0.26487453               -0.00008378                0.10704429               -0.00355260
              13.24296569                8.10224621               66.53186658                0.50893962                0.11196294                0.11201581               -0.37324548                0.00004593                0.07996069               -0.00654361
              14.24424778                8.10181538               66.39562277                0.51610461                0.14440774                0.14467195               -0.48161388                0.00016413                0.04351338               -0.01149853
              15.24585385                8.10137790               66.25901114                0.76094089                0.16060701                0.17750014               -0.58995803                0.00047567                0.02039367               -0.01989201
               5.24462310                9.10399092               67.61618017                0.76228375               -0.13099874               -0.14822704                0.49108005               -0.00023982                0.01832565                0.01326280
               6.24331312                9.10394438               67.47944633                0.51476430               -0.11487985               -0.11463641                0.38274881               -0.00000871                0.05894338                0.00443303
               7.24232551                9.10388560               67.34344789                0.50530228               -0.08241724               -0.08235121                0.27453780               -0.00016610                0.11054021                0.00287269
               8.24166477                9.10381592               67.20768799                0.50137047               -0.04983669               -0.04987721                0.16626590               -0.00020660                0.13145921                0.00167098
               9.24132877                9.10373921               67.07206916                0.49928775               -0.01737334               -0.01738108                0.05796047               -0.00015817                0.14215038                0.00078302
              10.24131730                9.10365576               66.93650342                0.49901030                0.01508145                0.01513041               -0.05036716               -0.00013510                0.14318651                0.00000618
              11.24163040                9.10356600               66.80090475                0.50053079                0.04754808                0.04764638               -0.15871164               -0.00011690                0.13464707               -0.00083984
              12.24226827                9.10347034               66.66518675                0.50386645                0.08004487                0.08016085               -0.26706917               -0.00009491                0.11635339               -0.00197212
              13.24323130                9.10336937               66.52925984                0.50907398                0.11260083                0.11267780               -0.37543586               -0.00000199                0.08775545               -0.00374715
              14.24452028                9.10326509               66.39302664                0.51624496                0.14507315                0.14522283               -0.48380242                0.00014755                0.04812265               -0.00695375
              15.24613276                9.10315732               66.25638302                0.76101457                0.16124794                0.17849395               -0.59215168                0.00047671                0.02285264               -0.01450317
               5.24449911               10.10250922               67.61321685                0.88110848               -0.12996773               -0.14817038                0.48882009                0.01698220                0.02433219                0.01156126
               6.24319944               10.10280303               67.47647463                0.75734825               -0.11366727               -0.11413460                0.38048685                0.01638820                0.06864010                0.00337857
               7.24222577               10.10306435               67.34054221                0.75265055               -0.08127298               -0.08212540                0.27229381                0.01588506                0.12366551                0.00273086
               8.24157398               10.10332021               67.20484331                0.75069979               -0.04902287               -0.04957042                0.16403494                0.01613188                0.14439314                0.00159826
               9.24124531               10.10356857               67.06928721                0.74967071               -0.01667341               -0.01706345                0.05574249                0.01616164                0.15516644                0.00066040
              10.24124051               10.10381037               66.93378456                0.74954293                0.01572352                0.01546102               -0.05257303                0.01618480                0.15617215               -0.00022269
              11.24155978               10.10404586               66.79824840                0.75030871                0.04813724                0.04798635               -0.16090548                0.01618990                0.14749812               -0.00114338
              12.24220325               10.10427541               66.66259115                0.75198106                0.08055578                0.08050729               -0.26925121                0.01619390                0.12890464               -0.00222269
              13.24317090               10.10449977               66.52672109                0.75458640                0.11297630                0.11304001               -0.37760631                0.01618115                0.09969052               -0.00367708
              14.24446278               10.10471984               66.39053660                0.75817237                0.14540203                0.14547445               -0.48596204                0.01665044                0.05741975               -0.00593360
              15.24607894               10.10494778               66.25389723                0.88053242                0.16161578                0.17904666               -0.59430827                0.01741194                0.02991649               -0.01265769
               5.36825201                0.12020561               68.64597860                0.88254881               -0.13259196               -0.14952547                0.49579339               -0.01698812                0.02012519               -0.00505785
               6.36692609                0.11722717               68.50837713                0.75995959               -0.11685232               -0.11670410                0.39067900               -0.01605330                0.04755433               -0.00477519
               7.36591496                0.11426078               68.37124375                0.75448381               -0.08544163               -0.08542628                0.28562714               -0.01561897                0.08560085               -0.00185972
               8.36521726                0.11128864               68.23434184                0.75153132               -0.05406770               -0.05386035                0.18056597               -0.01572820                0.10605700               -0.00101699
               9.36483361                0.10831080               68.09757527                0.74989769               -0.02263550               -0.02232882                0.07549556               -0.01574242                0.11679961               -0.00040393
              10.36476455                0.10532644               67.96086498                0.74955776                0.00883088                0.00921208               -0.02958336               -0.01575530                0.11883657                0.00009219
              11.36501022                0.10233534               67.82413503                0.75051127                0.04030740                0.04075368               -0.13467172               -0.01575625                0.11238152                0.00054477
              12.36557069                0.09933729               67.68731066                0.75276622                0.07177907                0.07229132               -0.23977147               -0.01576042                0.09748063                0.00099813
              13.36644581                0.09633152               67.55031683                0.75634739                0.10324993                0.10385462               -0.34488273               -0.01572888                0.07403978                0.00150988
              14.36763569                0.09331764               67.41307692                0.76129843                0.13467868                0.13526487               -0.45000288               -0.01613612                0.04145581                0.00212656
              15.36913938                0.09028417               67.27550381                0.88264870                0.15036876                0.16799818               -0.55513153               -0.01616841                0.02022309                0.00404463
               5.37106057                1.11871035               68.64326995                0.76364488               -0.13225981               -0.14892782                0.49369269               -0.00040085                0.01620466               -0.00367037
               6.36973797                1.11606013               68.50564771                0.51730098               -0.11662668               -0.11649261                0.38857321               -0.00008502                0.04495804               -0.00446189
               7.36872803                1.11340652               68.36852025                0.50711072               -0.08515036               -0.08503411                0.28351884                0.00002742                0.08329030               -0.00123497
               8.36803496                1.11075004               68.23160336                0.50219756               -0.05353744               -0.05352184                0.17844618                0.00008730                0.10256415               -0.00034277
               9.36765729                1.10808751               68.09481934                0.49948273               -0.02201209               -0.02199923                0.07336344                0.00005560                0.11309695               -0.00010014
              10.36759472                1.10541856               67.95809024                0.49892241                0.00949759                0.00953336               -0.03172787                0.00003557                0.11501381               -0.00013491
              11.36784724                1.10274288               67.82134083                0.50050437                0.04101397                0.04106942               -0.13682876                0.00002042                0.10849559               -0.00028578
              12.36841500                1.10006020               67.68449680                0.50425034                0.07255520                0.07260603               -0.24194108                0.00000395                0.09357946               -0.00044409
              13.36929834                1.09737007               67.54748366                0.51020525                0.10415027                0.10415304               -0.34706519               -0.00009477                0.07017074               -0.00048044
              14.37049801                1.09467029               67.41022523                0.51845319                0.13564097                0.13573413               -0.45219861               -0.00013021                0.03821734               -0.00015096
              15.37201116                1.09196416               67.27264603                0.76255769                0.15131551                0.16802401               -0.55733196                0.00035174                0.01757622                0.00141813
               5.37354445                2.11722705               68.64049827                0.76216895               -0.13162209               -0.14790716                0.49158686               -0.00043933                0.01311614               -0.00240044
               6.37222822                2.11489732               68.50285372                0.51465745               -0.11594242               -0.11603163                0.38646733               -0.00017790                0.04452386               -0.00299936
               7.37122560                2.11256010               68.36575742                0.50525361               -0.08451102               -0.08437181                0.28142710               -0.00006758                0.08420927               -0.00093302
               8.37053800                2.11021820               68.22884572                0.50133371               -0.05296989               -0.05286316                0.17634234                0.00003473                0.10162356               -0.00004173
               9.37016620                2.10787082               68.09205600                0.49917401               -0.02140582               -0.02134603                0.07124172                0.00005080                0.11136560                0.00005403
              10.37010989                2.10551710               67.95531664                0.49872993                0.01013956                0.01018000               -0.03386902                0.00002950                0.11293039               -0.00023359
              11.37036899                2.10315673               67.81855488                0.49999467                0.04168483                0.04171333               -0.13899003               -0.00000163                0.10626893               -0.00070751
              12.37094358                2.10078941               67.68169812                0.50297837                0.07324160                0.07325623               -0.24412311               -0.00006168                0.09139504               -0.00122624
              13.37183382                2.09841458               67.54467390                0.50773026                0.10477085                0.10482543               -0.34926722               -0.00015746                0.06834312               -0.00161693
              14.37303900                2.09603232               67.40741029                0.51432318                0.13624278                0.13654797               -0.45441636               -0.00020998                0.03726827               -0.00156764
              15.37455868                2.09364465               67.26983790                0.75982538                0.15196768                0.16830437               -0.55955081                0.00018203                0.01720653               -0.00072407
               5.37571126                3.11575221               68.63772496                0.76207187               -0.13098888               -0.14712734                0.48947088               -0.00037937                0.01347880                0.00268965
               6.37440137                3.11373949               68.50008297                0.51452304               -0.11527314               -0.11547855                0.38435525               -0.00013075                0.04483608                0.00180643
               7.37340579                3.11171908               68.36298860                0.50518230               -0.08382147               -0.08381655                0.27931421               -0.00012323                0.08457794                0.00132003
               8.37272494                3.10969278               68.22608103                0.50128555               -0.05231951               -0.05223985                0.17422433               -0.00004139                0.10181307                0.00103954
               9.37235940                3.10766059               68.08929008                0.49914791               -0.02077716               -0.02070282                0.06911263               -0.00000951                0.11109417                0.00051642
              10.37230939                3.10562216               67.95254600                0.49872944                0.01077495                0.01083125               -0.03601179               -0.00001682                0.11236362               -0.00023111
              11.37257490                3.10357715               67.81577749                0.50001887                0.04232608                0.04237331               -0.14114757               -0.00004830                0.10553305               -0.00114565
              12.37315592                3.10152532               67.67891303                0.50303161                0.07386882                0.07393517               -0.24629534               -0.00009923                0.09061540               -0.00217634
              13.37405228                3.09946658               67.54188156                0.50781285                0.10539101                0.10554591               -0.35145237               -0.00015379                0.06768907               -0.00324716
              14.37526374                3.09740125               67.40461314                0.51443665                0.13689293                0.13721314               -0.45660917               -0.00013199                0.03689460               -0.00424926
              15.37679014                3.09533024               67.26703951                0.75989233                0.15264005                0.16885264               -0.56174385                0.00025259                0.01699124               -0.00511535
               5.37756229                4.11428451               68.63496553                0.76197704               -0.13035525               -0.14643921                0.48734902               -0.00034710                0.01367161                0.00816268
               6.37625874                4.11258774               68.49731481                0.51439348               -0.11462208               -0.11485744                0.38223380               -0.00007244                0.04541429                0.00535847
               7.37526985                4.11088377               68.36021981                0.50511522               -0.08315380               -0.08322422                0.27719142               -0.00009559                0.08561930                0.00365041
               8.37459566                4.10917341               68.22331318                0.50124278               -0.05166120               -0.05162594                0.17209758               -0.00007263                0.10292028                0.00228017
               9.37423663                4.10745676               68.08652331                0.49913186               -0.02013342               -0.02006467                0.06697875               -0.00006009                0.11211952                0.00105796
              10.37419300                4.10573373               67.94977893                0.49874040                0.01141154                0.01148153               -0.03815518               -0.00006525                0.11321496               -0.00019731
              11.37446486                4.10400420               67.81300841                0.50005349                0.04295871                0.04303423               -0.14330165               -0.00008085                0.10619044               -0.00158913
              12.37505217                4.10226811               67.67614016                0.50309413                0.07449833                0.07461131               -0.24845928               -0.00009986                0.09107937               -0.00319359
              13.37595482                4.10052550               67.53910321                0.50790277                0.10602633                0.10622314               -0.35362517               -0.00010536                0.06797676               -0.00506944
              14.37717270                4.09877658               67.40182785                0.51455518                0.13754569                0.13785467               -0.45878806               -0.00007378                0.03703044               -0.00725813
              15.37870574                4.09702171               67.26424608                0.75996021                0.15330415                0.16945767               -0.56392360                0.00028780                0.01704684               -0.00978367
               5.37909784                5.11282343               68.63221258                0.76188399               -0.12971791               -0.14578957                0.48522167               -0.00032660                0.01403070                0.01280901
               6.37780066                5.11144234               68.49454520                0.51426777               -0.11398098               -0.11421957                0.38010471               -0.00002059                0.04642375                0.00826585
               7.37681822                5.11005460               68.35744693                0.50505268               -0.08250835               -0.08259414                0.27506150               -0.00004731                0.08751834                0.00546193
               8.37615049                5.10866026               68.22054183                0.50120966               -0.05101687               -0.05099195                0.16996487               -0.00007253                0.10516070                0.00330864
               9.37579788                5.10725930               68.08375592                0.49912619               -0.01949201               -0.01942344                0.06484167               -0.00009404                0.11447874                0.00152439
              10.37576065                5.10585179               67.94701584                0.49876024                0.01205116                0.01212822               -0.04029866               -0.00010419                0.11550016               -0.00015135
              11.37603890                5.10443783               67.81024820                0.50009985                0.04359830                0.04368530               -0.14545208               -0.00010020                0.10824144               -0.00194803
              12.37663262                5.10301755               67.67337995                0.50316205                0.07513972                0.07526567               -0.25061702               -0.00008208                0.09276096               -0.00407128
              13.37754170                5.10159104               67.53633887                0.50799769                0.10667199                0.10687565               -0.35578915               -0.00005365                0.06917239               -0.00671819
              14.37876606                5.10015834               67.39905420                0.51467494                0.13819753                0.13849890               -0.46095671               -0.00002408                0.03765128               -0.01006803
              15.38030565                5.09871940               67.26145720                0.76002962                0.15395920                0.17009397               -0.56609542                0.00031467                0.01735234               -0.01424822
               5.38031792                6.11136871               68.62945737                0.76178969               -0.12907653               -0.14516735                0.48308900               -0.00030411                0.01458166                0.01635786
               6.37902716                6.11030335               68.49176567                0.51414065               -0.11334654               -0.11357516                0.37796849                0.00003398                0.04800464                0.01012408
               7.37805099                6.10923188               68.35466407                0.50499667               -0.08188242               -0.08193257                0.27292518                0.00000179                0.09052045                0.00651132
               8.37738951                6.10815357               68.21776345                0.50118619               -0.05038895               -0.05033410                0.16782792               -0.00007292                0.10876204                0.00386544
               9.37704321                6.10706829               68.08098657                0.49913063               -0.01885660               -0.01877511                0.06270229               -0.00012660                0.11835987                0.00178131
              10.37701238                6.10597629               67.94425696                0.49879263                0.01269385                0.01277031               -0.04244180               -0.00014012                0.11936419               -0.00010624
              11.37729709                6.10487791               67.80749839                0.50015576                0.04424710                0.04432298               -0.14759977               -0.00011700                0.11181373               -0.00211731
              12.37789732                6.10377342               67.67063517                0.50323989                0.07579353                0.07589895               -0.25276972               -0.00006383                0.09577457               -0.00456734
              13.37881296                6.10266302               67.53359240                0.50809506                0.10732695                0.10751015               -0.35794647               -0.00000116                0.07136775               -0.00779929
              14.38004386                6.10154656               67.39629678                0.51479685                0.13884790                0.13914754               -0.46311764                0.00002848                0.03881026               -0.01216625
              15.38158992                6.10042359               67.25867776                0.76009962                0.15460603                0.17076013               -0.56825987                0.00034471                0.01793738               -0.01794710
               5.38122248                7.10992008               68.62668707                0.76169637               -0.12843095               -0.14459045                0.48094874               -0.00026739                0.01539634                0.01831498
               6.37993817                7.10917084               68.48896409                0.51401787               -0.11272204               -0.11290948                0.37582358                0.00009744                0.05035267                0.01049559
               7.37896804                7.10841594               68.35186227                0.50494895               -0.08127721               -0.08123335                0.27078272                0.00002696                0.09495822                0.00649409
               8.37831262                7.10765357               68.21497254                0.50117443               -0.04977067               -0.04966229                0.16568635               -0.00010569                0.11404942                0.00378772
               9.37797262                7.10688380               68.07821281                0.49915119               -0.01821948               -0.01812865                0.06056087               -0.00016920                0.12404559                0.00174823
              10.37794823                7.10610719               67.94150244                0.49883728                0.01334044                0.01340763               -0.04458425               -0.00017500                0.12506099               -0.00006264
              11.37823943                7.10532429               67.80476163                0.50022428                0.04489980                0.04495317               -0.14974441               -0.00013808                0.11716216               -0.00200199
              12.37884623                7.10453553               67.66791107                0.50332810                0.07645520                0.07651642               -0.25491672               -0.00006064                0.10038398               -0.00444749
              13.37976854                7.10374124               67.53087168                0.50819883                0.10799123                0.10812192               -0.36009632                0.00004421                0.07480134               -0.00788455
              14.38100605                7.10294129               67.39356562                0.51491902                0.13949792                0.13979433               -0.46527091                0.00009265                0.04065259               -0.01294175
              15.38255849                7.10213460               67.25591856                0.76016820                0.15524398                0.17147029               -0.57041778                0.00038857                0.01888070               -0.02018700
               5.38181105                8.10847691               68.62388306                0.76160206               -0.12778095               -0.14411933                0.47879870               -0.00020016                0.01661669                0.01799980
               6.38053324                8.10804516               68.48612326                0.51390129               -0.11211262               -0.11215990                0.37366658                0.00013223                0.05380099                0.00870828
               7.37956880                8.10760722               68.34902957                0.50491372               -0.08068492               -0.08051138                0.26863139               -0.00004731                0.10135414                0.00520630
               8.37891954                8.10716032               68.21216232                0.50117913               -0.04912949               -0.04901805                0.16353949               -0.00017563                0.12147485                0.00302505
               9.37858621                8.10670572               68.07543169                0.49918907               -0.01755805               -0.01749519                0.05841731               -0.00020222                0.13188496                0.00140429
              10.37856838                8.10624445               67.93875248                0.49890447                0.01398921                0.01404197               -0.04672572               -0.00018544                0.13290964               -0.00001991
              11.37886599                8.10577697               67.80204136                0.50030841                0.04553866                0.04558787               -0.15188471               -0.00015147                0.12464815               -0.00155895
              12.37947916                8.10530375               67.66521510                0.50342971                0.07710451                0.07714051               -0.25705626               -0.00008124                0.10703697               -0.00356524
              13.38040808                8.10482545               67.52818912                0.50831334                0.10866006                0.10871178               -0.36223551                0.00004491                0.07994349               -0.00656502
              14.38165236                8.10434245               67.39087755                0.51504611                0.14014954                0.14040606               -0.46741253                0.00015931                0.04349880               -0.01153077
              15.38321108                8.10385299               67.25319840                0.76023730                0.15587179                0.17226723               -0.57256562                0.00046138                0.02037838               -0.01994015
               5.38208196                9.10703769               68.62101884                0.76150635               -0.12714569               -0.14386643                0.47663327               -0.00023300                0.01834240                0.01328939
               6.38081050                9.10692764               68.48321761                0.51379245               -0.11150139               -0.11126482                0.37149235               -0.00000889                0.05903043                0.00444153
               7.37985193                9.10680572               68.34615297                0.50489679               -0.07999463               -0.07993078                0.26646790               -0.00016129                0.11066491                0.00288260
               8.37921061                9.10667321               68.20932628                0.50120564               -0.04837372               -0.04841329                0.16138539               -0.00020047                0.13154351                0.00167847
               9.37888446                9.10653389               68.07264033                0.49925172               -0.01686669               -0.01687434                0.05627040               -0.00015345                0.14221019                0.00078765
              10.37887327                9.10638803               67.93600725                0.49899190                0.01463203                0.01467962               -0.04886649               -0.00013090                0.14322732                0.00000679
              11.37917710                9.10623605               67.79934106                0.50041727                0.04614229                0.04623803               -0.15401998               -0.00011328                0.13467137               -0.00084342
              12.37979612                9.10607834               67.66255543                0.50355111                0.07768207                0.07779496               -0.25918633               -0.00009188                0.11636218               -0.00197993
              13.38073074                9.10591548               67.52556078                0.50844259                0.10927908                0.10935408               -0.36436072               -0.00000161                0.08775256               -0.00376061
              14.38198170                9.10574941               67.38825986                0.51517622                0.14079490                0.14094059               -0.46953546                0.00014317                0.04811876               -0.00697316
              15.38354664                9.10557994               67.25054867                0.76030667                0.15649336                0.17323159               -0.57469391                0.00046239                0.02284496               -0.01453521
               5.38202649               10.10559958               68.61803325                0.88072298               -0.12614496               -0.14381164                0.47444015                0.01648228                0.02436236                0.01158592
               6.38076504               10.10581987               68.48022363                0.75686411               -0.11032429               -0.11077771                0.36929706                0.01590522                0.06874989                0.00338587
               7.37982000               10.10600860               68.34322519                0.75244950               -0.07888411               -0.07971163                0.26429033                0.01541700                0.12381991                0.00274052
               8.37918736               10.10619206               68.20645962                0.75061794               -0.04758420               -0.04811561                0.15922058                0.01565659                0.14450447                0.00160460
               9.37886832               10.10636823               68.06983653                0.74965305               -0.01618751               -0.01656615                0.05411802                0.01568557                0.15525284                0.00066403
              10.37886361               10.10653804               67.93326665                0.74953217                0.01525512                0.01500044               -0.05100712                0.01570829                0.15623906               -0.00022267
              11.37917342               10.10670173               67.79666310                0.75025149                0.04671404                0.04656795               -0.15614896                0.01571335                0.14754830               -0.00114715
              12.37979789               10.10685965               67.65993833                0.75182357                0.07817786                0.07813116               -0.26130374                0.01571718                0.12893898               -0.00223029
              13.38073698               10.10701254               67.52300065                0.75426966                0.10964340                0.10970555               -0.36646691                0.01570473                0.09971313               -0.00368891
              14.38199076               10.10716126               67.38574855                0.75763581                0.14111404                0.14118484               -0.47163135                0.01615996                0.05743796               -0.00594933
              15.38355926               10.10731762               67.24804167                0.88017644                0.15685036                0.17376802               -0.57678737                0.01689884                0.02992791               -0.01268445
               5.50658045                0.12287416               69.65086128                0.88206471               -0.12856171               -0.14498019                0.48072204               -0.01647139                0.02015345               -0.00506096
               6.50529484                0.11991937               69.51222464                0.75930570               -0.11330080               -0.11315698                0.37880501               -0.01556480                0.04762407               -0.00477394
               7.50431444                0.11697626               69.37405669                0.75416510               -0.08284578               -0.08283099                0.27694920               -0.01514361                0.08570522               -0.00185110
               8.50363792                0.11402758               69.23612014                0.75139800               -0.05242668               -0.05222558                0.17508521               -0.01524963                0.10615833               -0.00101015
               9.50326590                0.11107337               69.09831882                0.74986451               -0.02195087               -0.02165348                0.07321183               -0.01526352                0.11689556               -0.00039988
              10.50319890                0.10811283               68.96057371                0.74954800                0.00855823                0.00892760               -0.02866964               -0.01527611                0.11892447                0.00009374
              11.50343707                0.10514577               68.82280884                0.75044134                0.03907687                0.03950943               -0.13056034               -0.01527715                0.11245771                0.00054384
              12.50398044                0.10217195               68.68494945                0.75255604                0.06959073                0.07008738               -0.23246150               -0.01528115                0.09754151                0.00099425
              13.50482888                0.09919067               68.54692049                0.75591376                0.10010424                0.10069041               -0.33437473               -0.01525035                0.07408382                0.00150321
              14.50598253                0.09620152               68.40864534                0.76055891                0.13057704                0.13114520               -0.43629750               -0.01564498                0.04148251                0.00211694
              15.50744042                0.09319338               68.27003692                0.88215645                0.14578982                0.16288243               -0.53822736               -0.01567640                0.02023453                0.00404066
               5.50937054                1.12142436               69.64813195                0.76276359               -0.12823973               -0.14440054                0.47868516               -0.00038837                0.01621907               -0.00366400
               6.50808814                1.11878780               69.50947448                0.51614468               -0.11308210               -0.11295204                0.37676343               -0.00008227                0.04501562               -0.00445109
               7.50710889                1.11614795               69.37131243                0.50658265               -0.08256334               -0.08245087                0.27490530                0.00002657                0.08337957               -0.00121108
               8.50643687                1.11350533               69.23336079                0.50197491               -0.05191247               -0.05189751                0.17303013                0.00008440                0.10264531               -0.00032343
               9.50607065                1.11085683               69.09554190                0.49942925               -0.02134647               -0.02133403                0.07114486                0.00005346                0.11317225               -0.00008878
              10.50600994                1.10820211               68.95777785                0.49890338                0.00920454                0.00923906               -0.03074860                0.00003397                0.11508111               -0.00013204
              11.50625474                1.10554086               68.81999341                0.50038801                0.03976183                0.03981554               -0.13265131                0.00001925                0.10855093               -0.00029176
              12.50680518                1.10287283               68.68211423                0.50389836                0.07034317                0.07039262               -0.23456514                0.00000340                0.09361931               -0.00045937
              13.50766160                1.10019757               68.54406582                0.50948471                0.10097698                0.10097982               -0.33649082               -0.00009187                0.07019359               -0.00050461
              14.50882472                1.09751297               68.40577203                0.51722206                0.13150965                0.13159999               -0.43842554               -0.00012592                0.03822682               -0.00018200
              15.51029179                1.09482221               68.26715748                0.76173747                0.14670729                0.16290705               -0.54035980                0.00034117                0.01757459                0.00139173
               5.51184582                2.11998615               69.64533953                0.76137364               -0.12762151               -0.14341084                0.47664352               -0.00042584                0.01312470               -0.00238988
               6.51056960                2.11766033               69.50665975                0.51365670               -0.11241871               -0.11250529                0.37472197               -0.00017245                0.04458275               -0.00298193
               7.50959744                2.11532725               69.36852900                0.50483006               -0.08194356               -0.08180894                0.27287782               -0.00006580                0.08429389               -0.00090453
               8.50893073                2.11298963               69.23058243                0.50115455               -0.05136236               -0.05125907                0.17099089                0.00003301                0.10168410               -0.00001743
               9.50857019                2.11064669               69.09275767                0.49912977               -0.02075872               -0.02070090                0.06908814                0.00004850                0.11141655                0.00006900
              10.50851555                2.10829761               68.95498317                0.49871647                0.00982695                0.00986591               -0.03282430                0.00002787                0.11297215               -0.00023029
              11.50876673                2.10594208               68.81718617                0.49990150                0.04041222                0.04043982               -0.13474661               -0.00000231                0.10629806               -0.00071663
              12.50932380                2.10357981               68.67929406                0.50269968                0.07100867                0.07102304               -0.23668061               -0.00006037                0.09140868               -0.00124805
              13.51018691                2.10121027               68.54123437                0.50715486                0.10157871                0.10163176               -0.33862595               -0.00015298                0.06834206               -0.00165029
              14.51135537                2.09883352               68.40293525                0.51333872                0.13209301                0.13238889               -0.44057529               -0.00020381                0.03726302               -0.00160790
              15.51282877                2.09645153               68.26432749                0.75916750                0.14733933                0.16317866               -0.54251015                0.00017641                0.01719713               -0.00076082
               5.51401367                3.11855615               69.64254538                0.76128344               -0.12700752               -0.14265495                0.47459200               -0.00036782                0.01348849                0.00270440
               6.51274360                3.11653769               69.50386820                0.51353155               -0.11176996               -0.11196919                0.37267452               -0.00012685                0.04489314                0.00182581
               7.51177827                3.11451178               69.36573938                0.50476226               -0.08127536               -0.08127065                0.27082975               -0.00011987                0.08465565                0.00134028
               8.51111809                3.11248015               69.22779687                0.50111014               -0.05073189               -0.05065473                0.16893747               -0.00004074                0.10186213                0.00105711
               9.51076364                3.11044282               69.08997078                0.49910565               -0.02014905               -0.02007733                0.06702405               -0.00000990                0.11112967                0.00052741
              10.51071511                3.10839943               68.95219143                0.49871292                0.01044297                0.01049726               -0.03490161               -0.00001713                0.11238792               -0.00022929
              11.51097249                3.10634966               68.81438754                0.49992173                0.04103385                0.04107966               -0.13683837               -0.00004770                0.10554422               -0.00115404
              12.51153579                3.10429329               68.67648757                0.50274738                0.07161676                0.07168121               -0.23878656               -0.00009677                0.09061171               -0.00219471
              13.51240483                3.10223021               68.53842051                0.50723152                0.10217988                0.10233019               -0.34074437               -0.00014949                0.06767393               -0.00327371
              14.51357938                3.10016075               68.40011649                0.51344384                0.13272354                0.13303393               -0.44270216               -0.00012853                0.03688081               -0.00428008
              15.51505930                3.09808578               68.26150747                0.75922961                0.14799173                0.16371083               -0.54463844                0.00024460                0.01697606               -0.00514445
               5.51587537                4.11713305               69.63976506                0.76119303               -0.12639319               -0.14198790                0.47253507               -0.00033658                0.01368097                0.00818372
               6.51461143                4.11542094               69.50107915                0.51340901               -0.11113874               -0.11136708                0.37061792               -0.00007041                0.04547005                0.00537815
               7.51365259                4.11370183               69.36294968                0.50470088               -0.08062803               -0.08069631                0.26877153               -0.00009294                0.08569336                0.00366903
               8.51299887                4.11197654               69.22500808                0.50107111               -0.05009372               -0.05005948                0.16687545               -0.00007073                0.10296248                0.00229572
               9.51265072                4.11024514               69.08718300                0.49908992               -0.01952521               -0.01945859                0.06495525               -0.00005891                0.11214557                0.00106711
              10.51260837                4.10850756               68.94940325                0.49872272                0.01105993                0.01112774               -0.03697960               -0.00006412                0.11322832               -0.00019632
              11.51287191                4.10676367               68.81159725                0.49995585                0.04164727                0.04172041               -0.13892667               -0.00007916                0.10619025               -0.00159727
              12.51344131                4.10501343               68.67369340                0.50280626                0.07222722                0.07233680               -0.24088502               -0.00009729                0.09106548               -0.00321058
              13.51431646                4.10325687               68.53562077                0.50731703                0.10279577                0.10298671               -0.34285067               -0.00010232                0.06795356               -0.00509386
              14.51549723                4.10149419               68.39730976                0.51355443                0.13335635                0.13365586               -0.44481425               -0.00007159                0.03701270               -0.00728731
              15.51698359                4.09972574               68.25869260                0.75929391                0.14863565                0.16429753               -0.54675216                0.00027892                0.01703072               -0.00981367
               5.51743116                5.11571639               69.63699114                0.76110681               -0.12577532               -0.14135797                0.47047227               -0.00031664                0.01403926                0.01283673
               6.51617341                5.11431035               69.49828856                0.51328842               -0.11051717               -0.11074866                0.36855356               -0.00001994                0.04647962                0.00828770
               7.51522082                5.11289785               69.36015582                0.50464255               -0.08000218               -0.08008556                0.26670664               -0.00004602                0.08759295                0.00548082
               8.51457337                5.11147896               69.22221573                0.50103819               -0.04946910               -0.04944501                0.16480854               -0.00007065                0.10520138                0.00332362
               9.51423144                5.11005365               69.08439457                0.49908632               -0.01890354               -0.01883696                0.06288373               -0.00009170                0.11450074                0.00153285
              10.51419530                5.10862198               68.94661906                0.49874271                0.01168001                0.01175473               -0.03905765               -0.00010154                0.11550806               -0.00015088
              11.51446504                5.10718407               68.80881586                0.49999711                0.04226738                0.04235170               -0.14101183               -0.00009766                0.10823545               -0.00195592
              12.51504064                5.10574003               68.67091194                0.50287086                0.07284909                0.07297131               -0.24297714               -0.00008006                0.09274161               -0.00408778
              13.51592202                5.10428994               68.53283511                0.50740571                0.10342182                0.10361942               -0.34494906               -0.00005234                0.06914530               -0.00674292
              14.51710908                5.10283386               68.39451474                0.51366764                0.13398822                0.13428031               -0.44691643               -0.00002327                0.03763191               -0.01009923
              15.51860178                5.10137173               68.25588234                0.75935868                0.14927044                0.16491399               -0.54885629                0.00030526                0.01733560               -0.01428516
               5.51868111                6.11430590               69.63421494                0.76101863               -0.12515332               -0.14075472                0.46840405               -0.00029489                0.01459055                0.01639121
               6.51742957                6.11320597               69.49548800                0.51317232               -0.10990206               -0.11012394                0.36648245                0.00003289                0.04806263                0.01014843
               7.51648306                6.11210012               69.35735193                0.50458993               -0.07939546               -0.07944435                0.26463625                0.00000160                0.09059878                0.00653149
               8.51584166                6.11098764               69.21941631                0.50102062               -0.04886034               -0.04880739                0.16273712               -0.00007096                0.10880508                0.00388006
               9.51550586                6.10986840               69.08160415                0.49909253               -0.01828747               -0.01820851                0.06080977               -0.00012298                0.11838245                0.00178955
              10.51547591                6.10874265               68.94383907                0.49877472                0.01230292                0.01237721               -0.04113538               -0.00013598                0.11937186               -0.00010580
              11.51575192                6.10761071               68.80604490                0.50005123                0.04289614                0.04296997               -0.14309391               -0.00011357                0.11180711               -0.00212512
              12.51633384                6.10647286               68.66814596                0.50294528                0.07348287                0.07358520               -0.24506395               -0.00006222                0.09575419               -0.00458352
              13.51722157                6.10532926               68.53006739                0.50749747                0.10405689                0.10423460               -0.34704074               -0.00000159                0.07133995               -0.00782473
              14.51841498                6.10417980               68.39173604                0.51378263                0.13461890                0.13490931               -0.44901214                0.00002736                0.03879021               -0.01220079
              15.51991395                6.10302402               68.25308157                0.75942608                0.14989768                0.16555993               -0.55095514                0.00033418                0.01791960               -0.01799102
               5.51962512                7.11290129               69.63142356                0.76093069               -0.12452748               -0.14019558                0.46632996               -0.00025936                0.01540774                0.01835088
               6.51837984                7.11210787               69.49266530                0.51305953               -0.10929656               -0.10947861                0.36440323                0.00009436                0.05041625                0.01051867
               7.51743918                7.11130896               69.35452904                0.50454742               -0.07880871               -0.07876635                0.26255878                0.00002594                0.09504409                0.00651332
               8.51680367                7.11050281               69.21660431                0.50100755               -0.04826102               -0.04815603                0.16066084               -0.00010266                0.11409903                0.00380140
               9.51647396                7.10968947               69.07880930                0.49911341               -0.01766974               -0.01758187                0.05873390               -0.00016417                0.12407415                0.00175625
              10.51645027                7.10886952               68.94106345                0.49882057                0.01292987                0.01299502               -0.04321233               -0.00016968                0.12507333               -0.00006184
              11.51673256                7.10804347               68.80328702                0.50011882                0.04352879                0.04358082               -0.14517276               -0.00013370                0.11715962               -0.00200946
              12.51732085                7.10721173               68.66540072                0.50303034                0.07412413                0.07418360               -0.24714454               -0.00005873                0.10036686               -0.00446339
              13.51821504                7.10637464               68.52732551                0.50759786                0.10470080                0.10482752               -0.34912418                0.00004280                0.07477572               -0.00790949
              14.51941486                7.10553205               68.38898367                0.51389836                0.13524906                0.13553636               -0.45109973                0.00008975                0.04063446               -0.01297685
              15.52092003                7.10468293               68.25030112                0.75949033                0.15051618                0.16624851               -0.55304757                0.00037650                0.01886476               -0.02023387
               5.52026276                8.11150198               69.62859837                0.76084324               -0.12389700               -0.13973858                0.46424447               -0.00019408                0.01663074                0.01803507
               6.51902379                8.11101640               69.48980323                0.51294941               -0.10870568               -0.10875164                0.36231150                0.00012824                0.05387308                0.00872559
               7.51808865                8.11052480               69.35167515                0.50451614               -0.07823466               -0.07806626                0.26047271               -0.00004622                0.10145371                0.00522147
               8.51745910                8.11002452               69.21377294                0.50101774               -0.04763946               -0.04753136                0.15857922               -0.00017055                0.12153725                0.00303698
               9.51713586                8.10951677               69.07600707                0.49915239               -0.01702851               -0.01696773                0.05665586               -0.00019604                0.13192527                0.00141130
              10.51711853                8.10900255               68.93829240                0.49888470                0.01355896                0.01360995               -0.04528840               -0.00017986                0.13293227               -0.00001878
              11.51740704                8.10848232               68.80054567                0.50020353                0.04414833                0.04419602               -0.14724747               -0.00014687                0.12465482               -0.00156487
              12.51800149                8.10795653               68.66268367                0.50312831                0.07475360                0.07478860               -0.24921873               -0.00007860                0.10702884               -0.00357892
              13.51890211                8.10742581               68.52462187                0.50770577                0.10534901                0.10539934               -0.35119792                0.00004366                0.07992621               -0.00658537
              14.52010847                8.10689053               68.38627452                0.51401690                0.13588041                0.13612919               -0.45317476                0.00015442                0.04348649               -0.01156068
              15.52161972                8.10634899               68.24755983                0.75955492                0.15112432                0.16702067               -0.55512819                0.00044710                0.02036661               -0.01998576
               5.52059241                9.11010652               69.62571283                0.76075307               -0.12328110               -0.13949313                0.46214452               -0.00022585                0.01835888                0.01331603
               6.51935959                9.10993284               69.48687617                0.51284744               -0.10811321               -0.10788355                0.36020351               -0.00000898                0.05911479                0.00444933
               7.51843014                9.10974764               69.34877724                0.50450359               -0.07756545               -0.07750357                0.25837580               -0.00015681                0.11078611                0.00289167
               8.51780829                9.10955218               69.21091569                0.50104609               -0.04690664               -0.04694507                0.15649077               -0.00019456                0.13162539                0.00168613
               9.51749201                9.10935012               69.07319457                0.49921677               -0.01635843               -0.01636574                0.05457429               -0.00014870                0.14226818                0.00079207
              10.51748112                9.10914172               68.93552609                0.49897210                0.01418195                0.01422812               -0.04736359               -0.00012694                0.14326691                0.00000765
              11.51777565                9.10892739               68.79782435                0.50030940                0.04473368                0.04482627               -0.14931738               -0.00010999                0.13469421               -0.00084678
              12.51837579                9.10870750               68.66000302                0.50324521                0.07531356                0.07542319               -0.25128402               -0.00008905                0.11637066               -0.00198789
              13.51928192                9.10848262               68.52197262                0.50782832                0.10594893                0.10602207               -0.35325812               -0.00000164                0.08775051               -0.00377245
              14.52049477                9.10825463               68.38363593                0.51414097                0.13650602                0.13664745               -0.45523278                0.00013853                0.04811520               -0.00699202
              15.52201204                9.10802334               68.24488914                0.75961852                0.15172699                0.16795560               -0.55719188                0.00044815                0.02283771               -0.01456989
               5.52060561               10.10871212               69.62270565                0.88034697               -0.12231128               -0.13944005                0.46001947                0.01598099                0.02438997                0.01161114
               6.51938250               10.10885873               69.48386057                0.75639390               -0.10697197               -0.10741119                0.35807575                0.01542033                0.06885553                0.00339255
               7.51846617               10.10897472               69.34582802                0.75225502               -0.07648862               -0.07729131                0.25626487                0.01494728                0.12397023                0.00274930
               8.51785272               10.10908562               69.20802772                0.75053832               -0.04614138               -0.04665651                0.15439234                0.01518021                0.14461282                0.00161124
               9.51754334               10.10918945               69.07036957                0.74963622               -0.01570013               -0.01606690                0.05248762                0.01520832                0.15533643                0.00066759
              10.51753872               10.10928711               68.93276441                0.74952325                0.01478590                0.01453914               -0.04943856                0.01523036                0.15630391               -0.00022262
              11.51783906               10.10937885               68.79512542                0.75019651                0.04528789                0.04514611               -0.15138142                0.01523519                0.14759643               -0.00115073
              12.51844448               10.10946499               68.65736508                0.75166830                0.07579424                0.07574919               -0.25333684                0.01523893                0.12897246               -0.00223747
              13.51935494               10.10954625               68.51939175                0.75396061                0.10630221                0.10636279               -0.35530007                0.01522684                0.09973478               -0.00369973
              14.52057052               10.10962348               68.38110397                0.75711501                0.13681563                0.13688439               -0.45726535                0.01566811                0.05745290               -0.00596624
              15.52209126               10.10970810               68.24236149                0.87983195                0.15207344                0.16847595               -0.55922307                0.01638459                0.02993475               -0.01271639
               5.64592836                0.12556305               70.65559304                0.88159570               -0.12452058               -0.14042252                0.46560967               -0.01595316                0.02017951               -0.00506527
               6.64468316                0.12263200               70.51595323                0.75866898               -0.10973992               -0.10960031                0.36689920               -0.01507484                0.04769137               -0.00477270
               7.64373357                0.11971227               70.37678273                0.75385618               -0.08024325               -0.08022886                0.26824855               -0.01466718                0.08580695               -0.00184303
               8.64307829                0.11678714               70.23784355                0.75126742               -0.05078116               -0.05058631                0.16958931               -0.01477002                0.10625677               -0.00100396
               9.64271794                0.11385665               70.09903950                0.74983459               -0.02126412               -0.02097609                0.07092103               -0.01478349                0.11698860               -0.00039584
              10.64265301                0.11092003               69.96029159                0.74953655                0.00828498                0.00864288               -0.02775492               -0.01479565                0.11901002                0.00009513
              11.64288364                0.10797709               69.82152382                0.75037268                0.03784355                0.03826253               -0.12643980               -0.01479651                0.11253205                0.00054269
              12.64340988                0.10502762               69.68266143                0.75235054                0.06739766                0.06787855               -0.22513531               -0.01480041                0.09760078                0.00098985
              13.64423159                0.10207091               69.54362934                0.75549501                0.09695122                0.09751880               -0.32384204               -0.01477067                0.07412582                0.00149606
              14.64534891                0.09910658               69.40435097                0.75984320                0.12646514                0.12701542               -0.42255808               -0.01515283                0.04150759                0.00210823
              15.64676090                0.09612388               69.26473927                0.88167934                0.14119920                0.15775427               -0.52128145               -0.01518311                0.02024527                0.00403694
               5.64869988                1.12415882               70.65284366                0.76190768               -0.12420868               -0.13986109                0.46363677               -0.00037599                0.01623302               -0.00365826
               6.64745780                1.12153599               70.51318298                0.51502163               -0.10952815               -0.10940198                0.36492203               -0.00007955                0.04507153               -0.00444035
               7.64650932                1.11890998               70.37401836                0.50606765               -0.07996967               -0.07986072                0.26626906                0.00002558                0.08346648               -0.00118797
               8.64585840                1.11628128               70.23506397                0.50175820               -0.05028295               -0.05026861                0.16759897                0.00008154                0.10272445               -0.00030479
               9.64550366                1.11364689               70.09624224                0.49937711               -0.02067863               -0.02066675                0.06891939                0.00005139                0.11324560               -0.00007758
              10.64544483                1.11100646               69.95747527                0.49888605                0.00891100                0.00894447               -0.02976819                0.00003243                0.11514671               -0.00012935
              11.64568188                1.10835972               69.81868781                0.50027446                0.03850688                0.03855897               -0.12846474                0.00001834                0.10860483               -0.00029768
              12.64621497                1.10570640               69.67980550                0.50355984                0.06812613                0.06817409               -0.22717224                0.00000307                0.09365777               -0.00047439
              13.64704441                1.10304610               69.54075385                0.50878599                0.09779611                0.09779908               -0.32589129               -0.00008923                0.07021544               -0.00052832
              14.64817089                1.10037674               69.40145672                0.51602810                0.12736817                0.12745600               -0.42461907               -0.00012201                0.03823565               -0.00021098
              15.64959177                1.09770142               69.26183883                0.76094116                0.14208772                0.15777810               -0.52334667                0.00033057                0.01757251                0.00136775
               5.65116650                2.12276583               70.65003114                0.76060353               -0.12360978               -0.13890254                0.46165922               -0.00041248                0.01313334               -0.00237926
               6.64993041                2.12044396               70.51034816                0.51268532               -0.10888558               -0.10896947                0.36294498               -0.00016717                0.04463988               -0.00296492
               7.64898879                2.11811506               70.37121497                0.50442163               -0.07936940               -0.07923900                0.26430551               -0.00006390                0.08437597               -0.00087635
               8.64834302                2.11578177               70.23226554                0.50098246               -0.04975022               -0.04965035                0.16562407                0.00003166                0.10174309                0.00000697
               9.64799379                2.11344331               70.09343777                0.49908822               -0.02010953               -0.02005366                0.06692784                0.00004627                0.11146623                0.00008364
              10.64794083                2.11109892               69.95466015                0.49870175                0.00951376                0.00955147               -0.03177835                0.00002617                0.11301294               -0.00022705
              11.64818406                2.10874827               69.81585995                0.49980937                0.03913678                0.03916350               -0.13049393               -0.00000286                0.10632656               -0.00072572
              12.64872356                2.10639110               69.67696451                0.50242810                0.06877059                0.06878451               -0.22922066               -0.00005885                0.09142168               -0.00126929
              13.64955948                2.10402689               69.53790138                0.50659677                0.09837875                0.09843030               -0.32795867               -0.00014830                0.06834144               -0.00168243
              14.65069114                2.10165570               69.39859879                0.51238201                0.12793302                0.12821990               -0.42670073               -0.00019725                0.03725901               -0.00164635
              15.65211814                2.09927944               69.25898770                0.75852993                0.14269972                0.15804089               -0.52542867                0.00017084                0.01718915               -0.00079467
               5.65333538                3.12138077               70.64721680                0.76051766               -0.12301521               -0.13817060                0.45967277               -0.00035630                0.01349736                0.00271918
               6.65210522                3.11935660               70.50753646                0.51256765               -0.10825717               -0.10845033                0.36096206               -0.00012324                0.04494862                0.00184451
               7.65117023                3.11732520               70.36840520                0.50435727               -0.07872213               -0.07871769                0.26232192               -0.00011662                0.08473192                0.00136001
               8.65053078                3.11528827               70.22945978                0.50093998               -0.04913978               -0.04906517                0.16363591               -0.00004025                0.10190980                0.00107450
               9.65018744                3.11324581               70.09063056                0.49906522               -0.01951926               -0.01944984                0.06492909               -0.00001057                0.11116393                0.00053805
              10.65014040                3.11119749               69.95184797                0.49869847                0.01011040                0.01016286               -0.03379004               -0.00001739                0.11241147               -0.00022762
              11.65038965                3.10914299               69.81304072                0.49983087                0.03973888                0.03978311               -0.13251965               -0.00004685                0.10555503               -0.00116252
              12.65093517                3.10708209               69.67413729                0.50247368                0.06935951                0.06942188               -0.23126014               -0.00009426                0.09060825               -0.00221301
              13.65177684                3.10501470               69.53506667                0.50666908                0.09896103                0.09910657               -0.33000999               -0.00014493                0.06765937               -0.00329958
              14.65291439                3.10294114               69.39575910                0.51248366                0.12854352                0.12884427               -0.42875970               -0.00012423                0.03686843               -0.00431080
              15.65434771                3.10086224               69.25614674                0.75858846                0.14333112                0.15855589               -0.52748808                0.00023700                0.01696316               -0.00517463
               5.65520772                4.12000242               70.64441624                0.76043392               -0.12242053               -0.13752486                0.45768148               -0.00032589                0.01368910                0.00820455
               6.65398351                4.11827495               70.50472717                0.51245251               -0.10764611               -0.10786742                0.35897089               -0.00006847                0.04552370                0.00539844
               7.65305479                4.11654070               70.36559524                0.50429705               -0.07809544               -0.07816165                0.26032934               -0.00009084                0.08576582                0.00368744
               8.65242160                4.11480046               70.22665069                0.50090315               -0.04852175               -0.04848883                0.16163935               -0.00006959                0.10300409                0.00231037
               9.65208436                4.11305432               70.08782242                0.49905127               -0.01891479               -0.01885067                0.06292557               -0.00005793                0.11217089                0.00107603
              10.65204331                4.11130218               69.94903934                0.49870797                0.01070809                0.01077344               -0.03580249               -0.00006287                0.11324113               -0.00019550
              11.65229852                4.10954393               69.81022988                0.49986043                0.04033286                0.04040367               -0.13454202               -0.00007745                0.10618982               -0.00160524
              12.65284996                4.10777954               69.67132246                0.50252765                0.06995066                0.07005688               -0.23329254               -0.00009487                0.09105187               -0.00322723
              13.65369753                4.10600902               69.53224619                0.50674737                0.09955760                0.09974258               -0.33205068               -0.00009945                0.06793104               -0.00511755
              14.65484112                4.10423259               69.39293157                0.51258697                0.12915644                0.12944662               -0.43080545               -0.00006947                0.03699456               -0.00731592
              15.65628066                4.10245056               69.25331104                0.75864854                0.14395475                0.15912407               -0.52953523                0.00027007                0.01701309               -0.00984498
               5.65678379                5.11863028               70.64162202                0.76035191               -0.12182224               -0.13691497                0.45568402               -0.00030667                0.01404833                0.01286293
               6.65556557                5.11719926               70.50191627                0.51234195               -0.10704432               -0.10726874                0.35697246               -0.00001958                0.04653395                0.00830974
               7.65464290                5.11576197               70.36278106                0.50424444               -0.07748947               -0.07757041                0.25833039               -0.00004520                0.08766494                0.00550016
               8.65401578                5.11431849               70.22383800                0.50087669               -0.04791676               -0.04789372                0.15963756               -0.00006920                0.10524050                0.00333804
               9.65368457                5.11286880               70.08501360                0.49904793               -0.01831277               -0.01824860                0.06091923               -0.00008952                0.11452178                0.00154108
              10.65364952                5.11141296               69.94623469                0.49872684                0.01130842                0.01138067               -0.03781492               -0.00009919                0.11551542               -0.00015032
              11.65391074                5.10995106               69.80742796                0.49990015                0.04093339                0.04101509               -0.13656152               -0.00009528                0.10822943               -0.00196389
              12.65446819                5.10848323               69.66852041                0.50259016                0.07055297                0.07067139               -0.23531892               -0.00007787                0.09272286               -0.00410415
              13.65532179                5.10700955               69.52943989                0.50683174                0.10016388                0.10035535               -0.33408273               -0.00005105                0.06911893               -0.00676715
              14.65647147                5.10553007               69.39011587                0.51269258                0.12976838                0.13005152               -0.43284154               -0.00002307                0.03761181               -0.01012979
              15.65791716                5.10404472               69.25048007                0.75870946                0.14456958                0.15972134               -0.53157339                0.00029527                0.01731721               -0.01431999
               5.65806362                6.11726412               70.63882545                0.76026899               -0.12121987               -0.13633067                0.45368134               -0.00028586                0.01460135                0.01642331
               6.65685143                6.11612958               70.49909532                0.51223326               -0.10644855               -0.10666370                0.35496659                0.00003140                0.04812019                0.01017114
               7.65593465                6.11498930               70.35995679                0.50419453               -0.07690187               -0.07694940                0.25632513                0.00000112                0.09067444                0.00655038
               8.65531339                6.11384259               70.22101819                0.50085702               -0.04732735               -0.04727619                0.15763152               -0.00006924                0.10884598                0.00389428
               9.65498811                6.11268935               70.08220277                0.49905651               -0.01771626               -0.01763997                0.05891081               -0.00011984                0.11840404                0.00179750
              10.65495906                6.11152979               69.94343425                0.49875745                0.01191177                0.01198350               -0.03982700               -0.00013243                0.11937859               -0.00010526
              11.65522634                6.11036424               69.80463651                0.49995378                0.04154255                0.04161385               -0.13857801               -0.00011067                0.11179988               -0.00213288
              12.65578991                6.10919296               69.66573389                0.50265981                0.07116675                0.07126590               -0.23733974               -0.00006067                0.09573422               -0.00459968
              13.65664968                6.10801613               69.52665158                0.50691974                0.10077864                0.10095091               -0.33610757               -0.00000187                0.07131277               -0.00784917
              14.65780549                6.10683362               69.38731654                0.51279985                0.13037909                0.13066059               -0.43487100                0.00002606                0.03877085               -0.01223387
              15.65925726                6.10564499               69.24765865                0.75877144                0.14517719                0.16034697               -0.53360674                0.00032332                0.01790294               -0.01803231
               5.65904715                7.11590366               70.63601367                0.76018781               -0.12061379               -0.13578897                0.45167254               -0.00025139                0.01541839                0.01838629
               6.65784101                7.11506598               70.49625215                0.51212701               -0.10586211               -0.10603852                0.35295230                0.00009094                0.05047758                0.01054030
               7.65692991                7.11422298               70.35711345                0.50415685               -0.07633357               -0.07629264                0.25431268                0.00002468                0.09512781                0.00653103
               8.65631434                7.11337297               70.21818576                0.50084825               -0.04674696               -0.04664553                0.15562130               -0.00009976                0.11414758                0.00381508
               9.65599497                7.11251600               70.07938749                0.49907792               -0.01711807               -0.01703320                0.05690066               -0.00015946                0.12410149                0.00176408
              10.65597198                7.11165263               69.94063819                0.49880370                0.01251881                0.01258179               -0.04183824               -0.00016475                0.12508450               -0.00006121
              11.65624535                7.11078334               69.80185818                0.50001660                0.04215509                0.04220543               -0.14059101               -0.00013014                0.11715649               -0.00201624
              12.65681508                7.10990855               69.66296818                0.50273943                0.07178782                0.07184552               -0.23935509               -0.00005768                0.10035092               -0.00447806
              13.65768110                7.10902857               69.52388920                0.50701179                0.10140232                0.10152507               -0.33812536                0.00004089                0.07475162               -0.00793253
              14.65884313                7.10814328               69.38454363                0.51290961                0.13098939                0.13126767               -0.43689223                0.00008675                0.04061653               -0.01300987
              15.66030089                7.10725166               69.24485761                0.75883249                0.14577617                0.16101356               -0.53563268                0.00036460                0.01884858               -0.02028018
               5.65973396                8.11454834               70.63316795                0.76010344               -0.12000341               -0.13534647                0.44965311               -0.00018794                0.01664416                0.01806854
               6.65853392                8.11400881               70.49336949                0.51202458               -0.10528997               -0.10533446                0.35092691                0.00012391                0.05394284                0.00874250
               7.65762816                8.11346344               70.35423903                0.50413031               -0.07577754               -0.07561466                0.25229236               -0.00004523                0.10155123                0.00523701
               8.65701837                8.11290968               70.21533390                0.50085941               -0.04614494               -0.04604067                0.15360546               -0.00016553                0.12159833                0.00304853
               9.65670526                8.11234868               70.07656481                0.49911833               -0.01649712               -0.01643851                0.05488828               -0.00019016                0.13196376                0.00141808
              10.65668843                8.11178143               69.93784671                0.49886666                0.01312784                0.01317734               -0.04384878               -0.00017430                0.13295379               -0.00001795
              11.65696782                8.11120835               69.79909641                0.50009943                0.04275475                0.04280121               -0.14260005               -0.00014239                0.12466147               -0.00157035
              12.65754353                8.11062988               69.66023072                0.50283430                0.07239733                0.07243138               -0.24136341               -0.00007685                0.10702175               -0.00359125
              13.65841576                8.11004663               69.52116516                0.50711455                0.10203031                0.10207898               -0.34013406                0.00004153                0.07990966               -0.00660559
              14.65958413                8.10945897               69.38181405                0.51302032                0.13160107                0.13184189               -0.43890215                0.00014943                0.04347280               -0.01159039
              15.66104778                8.10886526               69.24209583                0.75889382                0.14636527                0.16176134               -0.53764753                0.00043324                0.02035256               -0.02003065
               5.66012246                9.11319673               70.63026173                0.76001984               -0.11940703               -0.13510898                0.44761974               -0.00021870                0.01837660                0.01334119
               6.65892839                9.11295929               70.49042169                0.51193188               -0.10471626               -0.10449372                0.34888583               -0.00000888                0.05919792                0.00445745
               7.65802813                9.11271069               70.35132049                0.50412252               -0.07512958               -0.07506988                0.25026192               -0.00015217                0.11090407                0.00290141
               8.65742579                9.11245216               70.21245609                0.50089041               -0.04543545               -0.04547278                0.15158263               -0.00018870                0.13170461                0.00169328
               9.65711942                9.11218723               70.07373181                0.49918074               -0.01584815               -0.01585550                0.05287243               -0.00014416                0.14232432                0.00079626
              10.65710883                9.11191617               69.93505997                0.49895539                0.01373136                0.01377593               -0.04585846               -0.00012294                0.14330534                0.00000854
              11.65739405                9.11163936               69.79635472                0.50020418                0.04332148                0.04341145               -0.14460429               -0.00010644                0.13471676               -0.00085023
              12.65797526                9.11135718               69.65752975                0.50294754                0.07293939                0.07304573               -0.24336267               -0.00008661                0.11637851               -0.00199558
              13.65885284                9.11107015               69.51849562                0.50723084                0.10261146                0.10268235               -0.34213013               -0.00000202                0.08774781               -0.00378513
              14.66002749                9.11078012               69.37915520                0.51313677                0.13220727                0.13234427               -0.44089666                0.00013429                0.04811139               -0.00701079
              15.66149698                9.11048689               69.23940483                0.75895311                0.14694926                0.16266696               -0.53964710                0.00043437                0.02283019               -0.01460159
               5.66020447               10.11184616               70.62723364                0.87998298               -0.11846753               -0.13505764                0.44556125                0.01547841                0.02441869                0.01163528
               6.65901979               10.11191893               70.48738514                0.75593833               -0.10361070               -0.10403617                0.34682495                0.01493494                0.06895931                0.00339957
               7.65813225               10.11196205               70.34835049                0.75206507               -0.07408667               -0.07486440                0.24821757                0.01447678                0.12411587                0.00275830
               8.65753806               10.11200022               70.20954747                0.75046259               -0.04469461               -0.04519322                0.14955028                0.01470262                0.14471722                0.00161764
               9.65723836               10.11203157               70.07088628                0.74961895               -0.01521082               -0.01556606                0.05085153                0.01472979                0.15541770                0.00067094
              10.65723384               10.11205694               69.93227788                0.74951395                0.01431627                0.01407704               -0.04786763                0.01475115                0.15636679               -0.00022209
              11.65752469               10.11207657               69.79363547                0.75014267                0.04385818                0.04372111               -0.14660290                0.01475593                0.14764294               -0.00115438
              12.65811100               10.11209079               69.65487160                0.75151924                0.07340484                0.07336136               -0.24535074                0.01475957                0.12900442               -0.00224476
              13.65899278               10.11210028               69.51589465                0.75366076                0.10295385                0.10301251               -0.34410821                0.01474792                0.09975569               -0.00371088
              14.66017008               10.11210586               69.37660324                0.75661142                0.13250735                0.13257401               -0.44286558                0.01517522                0.05746864               -0.00598200
              15.66164293               10.11211860               69.23685720                0.87949757                0.14728475                0.16317090               -0.54161354                0.01586874                0.02994294               -0.01274427
               5.78626366                0.12827163               71.66017347                0.88114051               -0.12046913               -0.13585323                0.45045831               -0.01543360                0.02020628               -0.00506821
               6.78505897                0.12536441               71.51956262                0.75805270               -0.10616999               -0.10603466                0.35496313               -0.01458390                0.04775740               -0.00477123
               7.78414026                0.12246816               71.37942166                0.75355700               -0.07763408               -0.07762005                0.25952532               -0.01418959                0.08590544               -0.00183500
               8.78350629                0.11956666               71.23951192                0.75114125               -0.04913137               -0.04894264                0.16407858               -0.01428933                0.10635197               -0.00099770
               9.78315764                0.11665998               71.09973724                0.74980373               -0.02057534               -0.02029662                0.06862334               -0.01430232                0.11707886               -0.00039198
              10.78309478                0.11374738               70.96001861                0.74952727                0.00801175                0.00835777               -0.02683920               -0.01431407                0.11909296                0.00009657
              11.78331787                0.11082866               70.82028005                0.75030676                0.03660783                0.03701292               -0.12231055               -0.01431500                0.11260389                0.00054166
              12.78382694                0.10790361               70.68044674                0.75215274                0.06519949                0.06566460               -0.21779231               -0.01431866                0.09765841                0.00098661
              13.78462186                0.10497158               70.54044365                0.75508737                0.09379056                0.09433960               -0.31328469               -0.01428984                0.07416796                0.00148966
              14.78570275                0.10203217               70.40019417                0.75914778                0.12234338                0.12287570               -0.40878588               -0.01465963                0.04153288                0.00209879
              15.78706873                0.09907499               70.25961129                0.88121675                0.13659770                0.15261384               -0.50429513               -0.01468884                0.02025565                0.00403311
               5.78901654                1.12691310               71.65740469                0.76107765               -0.12016751               -0.13531019                0.44855048               -0.00036376                0.01624749               -0.00365255
               6.78781487                1.12430407               71.51677292                0.51393444               -0.10596513               -0.10584290                0.35305069               -0.00007724                0.04512635               -0.00443005
               7.78689724                1.12169196               71.37663781                0.50556921               -0.07736927               -0.07726394                0.25761071                0.00002436                0.08355081               -0.00116554
               8.78626748                1.11907724               71.23671276                0.50154768               -0.04864922               -0.04863543                0.16215356                0.00007839                0.10280097               -0.00028674
               9.78592426                1.11645702               71.09692029                0.49932717               -0.02000884               -0.01999746                0.06668716                0.00004918                0.11331677               -0.00006670
              10.78586731                1.11383095               70.95718249                0.49886875                0.00861727                0.00864952               -0.02878668                0.00003081                0.11521034               -0.00012674
              11.78609660                1.11119879               70.81742411                0.50016336                0.03724935                0.03729973               -0.12426928                0.00001715                0.10865730               -0.00030351
              12.78661229                1.10856026               70.67757078                0.50322968                0.06590402                0.06595055               -0.21976258                0.00000252                0.09369557               -0.00048858
              13.78741468                1.10591497               70.53754800                0.50810945                0.09460767                0.09461079               -0.31526650               -0.00008672                0.07023716               -0.00055113
              14.78850445                1.10326093               70.39727965                0.51487121                0.12321679                0.12330208               -0.41077946               -0.00011825                0.03824461               -0.00024052
              15.78987902                1.10060113               70.25669054                0.76017012                0.13745719                0.15263690               -0.50629302                0.00031990                0.01757055                0.00134278
               5.79147445                2.12556543               71.65457271                0.75985458               -0.11958831               -0.13438306                0.44663807               -0.00039916                0.01314300               -0.00236914
               6.79027857                2.12324755               71.51391865                0.51174521               -0.10534359               -0.10542466                0.35113844               -0.00016228                0.04469605               -0.00294844
               7.78936758                2.12092288               71.37381511                0.50402409               -0.07678853               -0.07666240                0.25571111               -0.00006268                0.08445571               -0.00084963
               8.78874280                2.11859396               71.23389491                0.50081649               -0.04813372               -0.04803740                0.16024307                0.00002977                0.10180013                0.00003013
               9.78840490                2.11626004               71.09409623                0.49905027               -0.01945822               -0.01940445                0.06476069                0.00004392                0.11151427                0.00009800
              10.78835363                2.11392037               70.95434760                0.49868782                0.00920024                0.00923673               -0.03073124                0.00002440                0.11305220               -0.00022404
              11.78858891                2.11157465               70.81457629                0.49972115                0.03785859                0.03788457               -0.12623225               -0.00000364                0.10635445               -0.00073452
              12.78911080                2.10922262               70.67470965                0.50216477                0.06652737                0.06654108               -0.22174422               -0.00005774                0.09143489               -0.00128991
              13.78991946                2.10686379               70.53467519                0.50605597                0.09517120                0.09522145               -0.31726621               -0.00014401                0.06834035               -0.00171377
              14.79101423                2.10449821               70.39440123                0.51145643                0.12376325                0.12404112               -0.41279355               -0.00019091                0.03725409               -0.00168404
              15.79239472                2.10212773               70.25381892                0.75791335                0.13804934                0.15289108               -0.50830763                0.00016522                0.01718053               -0.00082828
               5.79364430                3.12422544               71.65173883                0.75977530               -0.11901330               -0.13367507                0.44471689               -0.00034472                0.01350739                0.00273399
               6.79245417                3.12219557               71.51108744                0.51163512               -0.10473583               -0.10492256                0.34922050               -0.00011955                0.04500266                0.00186321
               7.79154959                3.12015871               71.37098582                0.50396193               -0.07616241               -0.07615811                0.25379218               -0.00011362                0.08480535                0.00137949
               8.79093092                3.11811649               71.23106959                0.50077643               -0.04754309               -0.04747130                0.15831967               -0.00003991                0.10195615                0.00109162
               9.79059873                3.11606893               71.09126936                0.49902643               -0.01888716               -0.01882037                0.06282725               -0.00001130                0.11119704                0.00054843
              10.79055318                3.11401569               70.95151563                0.49868448                0.00977738                0.00982811               -0.03267711               -0.00001794                0.11243404               -0.00022604
              11.79079427                3.11195648               70.81173714                0.49974056                0.03844094                0.03848386               -0.12819156               -0.00004626                0.10556569               -0.00117054
              12.79132200                3.10989108               70.67186237                0.50220688                0.06709704                0.06715751               -0.22371663               -0.00009208                0.09060504               -0.00223059
              13.79213621                3.10781940               70.53182031                0.50612404                0.09573462                0.09587554               -0.31925072               -0.00014078                0.06764545               -0.00332529
              14.79323669                3.10574175               70.39154130                0.51155138                0.12435375                0.12464479               -0.41478457               -0.00012013                0.03685636               -0.00433983
              15.79462329                3.10365895               70.25095771                0.75796756                0.13865980                0.15338885               -0.51029829                0.00022925                0.01695108               -0.00520115
               5.79552728                4.12289192               71.64891868                0.75969750               -0.11843790               -0.13305034                0.44279030               -0.00031536                0.01369822                0.00822508
               6.79434290                4.12114910               71.50825857                0.51152756               -0.10414466               -0.10435876                0.34729453               -0.00006667                0.04557643                0.00541803
               7.79344439                4.11939972               71.36815627                0.50390908               -0.07555625               -0.07562046                0.25186555               -0.00008869                0.08583588                0.00370601
               8.79283178                4.11764453               71.22824086                0.50074187               -0.04694544               -0.04691385                0.15638874               -0.00006838                0.10304375                0.00232514
               9.79250548                4.11588363               71.08844151                0.49901343               -0.01830262               -0.01824080                0.06088939               -0.00005728                0.11219497                0.00108440
              10.79246573                4.11411693               70.94868720                0.49869293                0.01035558                0.01041866               -0.03462369               -0.00006199                0.11325329               -0.00019467
              11.79271259                4.11234433               70.80890641                0.49976879                0.03901562                0.03908401               -0.13014767               -0.00007589                0.10618939               -0.00161312
              12.79324604                4.11056577               70.66902754                0.50225895                0.06766893                0.06777156               -0.22568214               -0.00009263                0.09103805               -0.00324370
              13.79406597                4.10878130               70.52897975                0.50619698                0.09631180                0.09649064               -0.32122458               -0.00009697                0.06790914               -0.00514127
              14.79517227                4.10699111               70.38869365                0.51164697                0.12494665                0.12522744               -0.41676343               -0.00006757                0.03697919               -0.00734404
              15.79656490                4.10519551               70.24810190                0.75802438                0.13926290                0.15393841               -0.51227761                0.00026127                0.01700021               -0.00987373
               5.79712364                5.12156443               71.64610482                0.75961948               -0.11785932               -0.13246051                0.44085878               -0.00029694                0.01405736                0.01288948
               6.79594505                5.12010840               71.50542801                0.51142374               -0.10356257               -0.10377975                0.34536167               -0.00001978                0.04658712                0.00833090
               7.79505239                5.11864630               71.36532243                0.50385904               -0.07497008               -0.07504849                0.24993170               -0.00004470                0.08773479                0.00551838
               8.79444564                5.11717821               71.22540848                0.50071613               -0.04636030               -0.04633817                0.15445228               -0.00006793                0.10527775                0.00335205
               9.79412518                5.11570411               71.08561295                0.49901198               -0.01772021               -0.01765843                0.05894853               -0.00008778                0.11454182                0.00154896
              10.79409124                5.11422406               70.94586276                0.49871031                0.01093644                0.01100603               -0.03657044               -0.00009705                0.11552229               -0.00014988
              11.79434391                5.11273816               70.80608463                0.49980718                0.03959659                0.03967543               -0.13210115               -0.00009331                0.10822307               -0.00197165
              12.79488317                5.11124651               70.66620556                0.50231642                0.06825146                0.06836598               -0.22764232               -0.00007637                0.09270386               -0.00411999
              13.79570894                5.10974921               70.52615346                0.50627480                0.09689819                0.09708339               -0.32319045               -0.00005000                0.06909326               -0.00678992
              14.79682113                5.10824630               70.38585791                0.51174539                0.12553890                0.12581279               -0.41873436               -0.00002241                0.03759439               -0.01015952
              15.79821972                5.10673772               70.24525087                0.75808191                0.13985820                0.15451658               -0.51425131                0.00028577                0.01730326               -0.01435588
               5.79843341                6.12024271               71.64328857                0.75954408               -0.11727693               -0.13189537                0.43892254               -0.00027665                0.01460996                0.01645507
               6.79726064                6.11907351               71.50258733                0.51132257               -0.10298633               -0.10319449                0.34342147                0.00002998                0.04817497                0.01019364
               7.79637368                6.11789875               71.36247843                0.50381565               -0.07440154               -0.07444765                0.24799150                0.00000035                0.09074760                0.00656897
               8.79577261                6.11671777               71.22256894                0.50070004               -0.04579017               -0.04574079                0.15251182               -0.00006782                0.10888556                0.00390852
               9.79545788                6.11553046               71.08278237                0.49901921               -0.01714326               -0.01706970                0.05700583               -0.00011691                0.11842474                0.00180545
              10.79542974                6.11433705               70.94304253                0.49874127                0.01151997                0.01158919               -0.03851673               -0.00012922                0.11938522               -0.00010475
              11.79568828                6.11313784               70.80327334                0.49985585                0.04018567                0.04025473               -0.13405189               -0.00010821                0.11179311               -0.00214032
              12.79623345                6.11193309               70.66339917                0.50238082                0.06884532                0.06894127               -0.22959768               -0.00005964                0.09571506               -0.00461538
              13.79706518                6.11072297               70.52334524                0.50635690                0.09749327                0.09765963               -0.32514980               -0.00000198                0.07128643               -0.00787283
              14.79818332                6.10950736               70.38303862                0.51184977                0.12612971                0.12640179               -0.42069688                0.00002567                0.03875142               -0.01226612
              15.79958778                6.10828584               70.24240944                0.75813744                0.14044568                0.15512136               -0.51621653                0.00031301                0.01788620               -0.01807398
               5.79945652                7.11892652               71.64045701                0.75946734               -0.11669044               -0.13137120                0.43697831               -0.00024311                0.01542871                0.01842041
               6.79828961                7.11804451               71.49972435                0.51122444               -0.10241903               -0.10258971                0.34147292                0.00008787                0.05053745                0.01056200
               7.79740814                7.11715735               71.35961530                0.50377884               -0.07385190               -0.07381256                0.24604559                0.00002325                0.09520913                0.00654880
               8.79681257                7.11626340               71.21971674                0.50069576               -0.04522880               -0.04513082                0.15056747               -0.00009740                0.11419384                0.00382846
               9.79650356                7.11536272               71.07994732                0.49904190               -0.01656484               -0.01648270                0.05506134               -0.00015502                0.12412748                0.00177176
              10.79648128                7.11445584               70.94022668                0.49878490                0.01210706                0.01216797               -0.04046230               -0.00016022                0.12509573               -0.00006045
              11.79674570                7.11354325               70.80047520                0.49991983                0.04077835                0.04082709               -0.13599941               -0.00012662                0.11715344               -0.00202320
              12.79729684                7.11262534               70.66061362                0.50245784                0.06944633                0.06950216               -0.23154787               -0.00005628                0.10033500               -0.00449337
              13.79813463                7.11170241               70.52056300                0.50644579                0.09809679                0.09821527               -0.32710264                0.00003932                0.07472838               -0.00795667
              14.79925878                7.11077433               70.38024583                0.51195063                0.12672003                0.12698899               -0.42265185                0.00008389                0.04059947               -0.01304289
              15.80066903                7.10984015               70.23958847                0.75819570                0.14102486                0.15576597               -0.51817521                0.00035284                0.01883356               -0.02032365
               5.80019257                8.11761529               71.63759144                0.75938897               -0.11610023               -0.13094333                0.43502562               -0.00018188                0.01665705                0.01810234
               6.79903157                8.11702171               71.49682177                0.51112964               -0.10186580               -0.10190873                0.33951423                0.00011947                0.05401054                0.00875954
               7.79815526                8.11642250               71.35672100                0.50375611               -0.07331418               -0.07315692                0.24409170               -0.00004434                0.10164545                0.00525157
               8.79756529                8.11581515               71.21684505                0.50070844               -0.04464637               -0.04454585                0.14861773               -0.00016067                0.12165681                0.00305968
               9.79726233                8.11520081               71.07710484                0.49908406               -0.01596408               -0.01590744                0.05311456               -0.00018443                0.13200055                0.00142472
              10.79724600                8.11458041               70.93741542                0.49884912                0.01269619                0.01274406               -0.04240705               -0.00016911                0.13297460               -0.00001707
              11.79751625                8.11395438               70.79769367                0.49999756                0.04135850                0.04140346               -0.13794302               -0.00013822                0.12466746               -0.00157579
              12.79807317                8.11332314               70.65785640                0.50254945                0.07003590                0.07006896               -0.23349071               -0.00007459                0.10701405               -0.00360340
              13.79891697                8.11268728               70.51781919                0.50654191                0.09870412                0.09875128               -0.32904592                0.00003987                0.07989389               -0.00662592
              14.80004726                8.11204714               70.37749648                0.51205382                0.12731191                0.12754487               -0.42459751                0.00014421                0.04346179               -0.01161993
              15.80146321                8.11140116               70.23680688                0.75825335                0.14159518                0.15648983               -0.52012631                0.00041914                0.02034230               -0.02007398
               5.80064003                9.11630766               71.63466523                0.75931121               -0.11552347               -0.13071396                0.43305906               -0.00021176                0.01839165                0.01336625
               6.79948480                9.11600633               71.49385389                0.51104331               -0.10131087               -0.10109537                0.33753979               -0.00000896                0.05927707                0.00446502
               7.79861381                9.11569421               71.35378248                0.50375287               -0.07268727               -0.07262998                0.24212718               -0.00014750                0.11101806                0.00291029
               8.79803105                9.11537248               71.21394735                0.50074068               -0.04396001               -0.04399658                0.14666114               -0.00018263                0.13178149                0.00170039
               9.79773461                9.11504457               71.07425202                0.49914626               -0.01533644               -0.01534353                0.05116490               -0.00013967                0.14237845                0.00080042
              10.79772432                9.11471073               70.93460892                0.49893598                0.01327979                0.01332313               -0.04435103               -0.00011921                0.14334251                0.00000939
              11.79800021                9.11437132               70.79493226                0.50009999                0.04190665                0.04199379               -0.13988184               -0.00010326                0.13473871               -0.00085314
              12.79856246                9.11402672               70.65513577                0.50265943                0.07056042                0.07066321               -0.23542475               -0.00008386                0.11638563               -0.00200259
              13.79941142                9.11367743               70.51513002                0.50665493                0.09926636                0.09933489               -0.33097652               -0.00000193                0.08774463               -0.00379759
              14.80054778                9.11332523               70.37481800                0.51216538                0.12789832                0.12803110               -0.42652709                0.00012981                0.04810841               -0.00703006
              15.80196938                9.11296994               70.23409620                0.75830890                0.14216014                0.15736599               -0.52206058                0.00042012                0.02282425               -0.01463407
               5.80079098               10.11500101               71.63161688                0.87963037               -0.11461435               -0.13066441                0.43106692                0.01497451                0.02444475                0.01165830
               6.79964484               10.11499981               71.49079707                0.75549792               -0.10024108               -0.10065264                0.33554559                0.01444830                0.06905875                0.00340557
               7.79878616               10.11496990               71.35079237                0.75188151               -0.07167829               -0.07243123                0.24014935                0.01400509                0.12425728                0.00276670
               8.79821127               10.11493522               71.21101873                0.75038866               -0.04324351               -0.04372618                0.14469519                0.01422393                0.14481895                0.00162382
               9.79792129               10.11489393               71.07138660                0.74960236               -0.01472008               -0.01506358                0.04921019                0.01425016                0.15549662                0.00067414
              10.79791687               10.11484687               70.93180706                0.74950407                0.01384544                0.01361447               -0.04629478                0.01427069                0.15642844               -0.00022159
              11.79819820               10.11479425               70.79219336                0.75009181                0.04242583                0.04229333               -0.14181482                0.01427531                0.14768844               -0.00115729
              12.79876539               10.11473640               70.65245806                0.75137307                0.07101085                0.07096848               -0.23734757                0.01427905                0.12903441               -0.00225153
              13.79961842               10.11467397               70.51250959                0.75337089                0.09959772                0.09965417               -0.33288953                0.01426799                0.09977451               -0.00372258
              14.80075734               10.11460777               70.37224666                0.75612359                0.12818863                0.12825336               -0.42843102                0.01468101                0.05748380               -0.00599921
              15.80218219               10.11454848               70.23152922                0.87917477                0.14248466                0.15785334               -0.52396246                0.01535149                0.02995173               -0.01277261
               5.92755419                0.13099926               72.66460221                0.88069954               -0.11640783               -0.13127286                0.43527071               -0.01491296                0.02023221               -0.00507088
               6.92639012                0.12811597               72.52305250                0.75745609               -0.10259116               -0.10246008                0.34299744               -0.01409186                0.04782124               -0.00476986
               7.92550237                0.12524327               72.38197324                0.75326689               -0.07501816               -0.07500443                0.25077988               -0.01371091                0.08600087               -0.00182723
               8.92488975                0.12236550               72.24112512                0.75101874               -0.04747719               -0.04729467                0.15855370               -0.01380734                0.10644443               -0.00099147
               9.92455283                0.11948272               72.10041197                0.74977312               -0.01988457               -0.01961516                0.06631901               -0.01382001                0.11716692               -0.00038814
              10.92449206                0.11659421               71.95975480                0.74951629                0.00773812                0.00807243               -0.02592257               -0.01383142                0.11917403                0.00009783
              11.92470759                0.11369980               71.81907761                0.75024180                0.03536951                0.03576075               -0.11817281               -0.01383222                0.11267409                0.00054060
              12.92519945                0.11079927               71.67830558                0.75196071                0.06299659                0.06344563               -0.21043269               -0.01383581                0.09771433                0.00098257
              13.92596752                0.10789199               71.53736365                0.75469273                0.09062315                0.09115331               -0.30270344               -0.01380789                0.07420793                0.00148360
              14.92701192                0.10497760               71.39617525                0.75847715                0.11821255                0.11872658               -0.39498262               -0.01416482                0.04155652                0.00209053
              15.92833177                0.10204605               71.25465336                0.88076934                0.13198579                0.14746109               -0.48726889               -0.01419304                0.02026497                0.00402952
               5.93028836                1.12968653               72.66181467                0.76027472               -0.11611642               -0.13074819                0.43342747               -0.00035138                0.01626117               -0.00364624
               6.92912720                1.12709137               72.52024400                0.51288199               -0.10239319               -0.10227494                0.34114975               -0.00007486                0.04517931               -0.00441973
               7.92824050                1.12449322               72.37917057                0.50508801               -0.07476209               -0.07466036                0.24892985                0.00002301                0.08363258               -0.00114391
               8.92763195                1.12189255               72.23830704                0.50134501               -0.04701110               -0.04699789                0.15669368                0.00007504                0.10287529               -0.00026916
               9.92730027                1.11928657               72.09757598                0.49927816               -0.01933716               -0.01932615                0.06444835                0.00004663                0.11338610               -0.00005617
              10.92724521                1.11667493               71.95689953                0.49884932                0.00832315                0.00835431               -0.02780423                0.00002890                0.11527266               -0.00012431
              11.92746674                1.11405740               71.81620242                0.50005770                0.03598923                0.03603783               -0.12006518                0.00001579                0.10870846               -0.00030922
              12.92796499                1.11143373               71.67541024                0.50291020                0.06367705                0.06372198               -0.21233635                0.00000174                0.09373247               -0.00050297
              13.92874028                1.10880353               71.53444852                0.50745189                0.09141231                0.09141539               -0.30461852               -0.00008426                0.07025833               -0.00057314
              14.92979324                1.10616487               71.39324113                0.51375301                0.11905614                0.11913854               -0.39690859               -0.00011439                0.03825245               -0.00026822
              15.93112140                1.10352066               71.25171297                0.75942460                0.13281592                0.14748324               -0.48919858                0.00030909                0.01756731                0.00131938
               5.93273750                2.12838430               72.65896390                0.75913134               -0.11555704               -0.12985250                0.43158054               -0.00038568                0.01315110               -0.00235833
               6.93158193                2.12607047               72.51737093                0.51083538               -0.10179280               -0.10187108                0.33930264               -0.00015720                0.04474966               -0.00293208
               7.93070164                2.12375006               72.37632919                0.50363805               -0.07420107               -0.07407938                0.24709486               -0.00006152                0.08453290               -0.00082336
               8.93009791                2.12142554               72.23547040                0.50065372               -0.04651313               -0.04642023                0.15484823                0.00002737                0.10185588                0.00005284
               9.92977138                2.11909620               72.09473298                0.49901054               -0.01880513               -0.01875328                0.06258711                0.00004085                0.11156122                0.00011174
              10.92972181                2.11676130               71.95404553                0.49867328                0.00888651                0.00892160               -0.02968301                0.00002204                0.11309094               -0.00022108
              11.92994911                2.11442055               71.81333530                0.49963501                0.03657786                0.03660288               -0.12196172               -0.00000499                0.10638168               -0.00074316
              12.93045336                2.11207371               71.67252962                0.50190890                0.06427924                0.06429265               -0.21425125               -0.00005695                0.09144811               -0.00130994
              13.93123470                2.10972030               71.53155605                0.50553181                0.09195676                0.09200549               -0.30655102               -0.00014001                0.06834033               -0.00174440
              14.93229250                2.10736037               71.39034292                0.51056025                0.11958417                0.11985267               -0.39885495               -0.00018531                0.03724936               -0.00172035
              15.93362638                2.10499571               71.24882155                0.75731599                0.13338818                0.14772902               -0.49114582                0.00015916                0.01717136               -0.00085993
               5.93490830                3.12708948               72.65611114                0.75905788               -0.11500148               -0.12916848                0.42972433               -0.00033325                0.01351537                0.00274801
               6.93375829                3.12505394               72.51452087                0.51073084               -0.10120569               -0.10138609                0.33744996               -0.00011615                0.04505439                0.00188119
               7.93288419                3.12301163               72.37348104                0.50358259               -0.07359630               -0.07359235                0.24524184               -0.00011093                0.08487691                0.00139876
               8.93228636                3.12096415               72.23262618                0.50061584               -0.04594259               -0.04587334                0.15299015               -0.00003988                0.10200121                0.00110824
               9.93196534                3.11891150               72.09188711                0.49898786               -0.01825337               -0.01818901                0.06071921               -0.00001238                0.11122947                0.00055858
              10.93192130                3.11685337               71.95119443                0.49866987                0.00944411                0.00949290               -0.03156284               -0.00001891                0.11245662               -0.00022448
              11.93215422                3.11478946               71.81047689                0.49965140                0.03714051                0.03718192               -0.12385488               -0.00004630                0.10557648               -0.00117848
              12.93266411                3.11271958               71.66966296                0.50194860                0.06482971                0.06488821               -0.21615722               -0.00009015                0.09060244               -0.00224746
              13.93345081                3.11064364               71.52868166                0.50559527                0.09250101                0.09263734               -0.30846800               -0.00013698                0.06763244               -0.00335010
              14.93451413                3.10856192               71.38746341                0.51064870                0.12015480                0.12043601               -0.40077902               -0.00011706                0.03684506               -0.00436861
              15.93585391                3.10647524               71.24594077                0.75736781                0.13397845                0.14821045               -0.49307129                0.00022097                0.01693913               -0.00522814
               5.93680191                4.12580093               72.65327204                0.75898404               -0.11444564               -0.12856495                0.42786320               -0.00030506                0.01370648                0.00824497
               6.93565745                4.12404275               72.51167306                0.51063410               -0.10063452               -0.10084139                0.33558913               -0.00006533                0.04562737                0.00543760
               7.93478922                4.12227821               72.37063255                0.50353201               -0.07301058               -0.07307271                0.24337968               -0.00008690                0.08590374                0.00372402
               8.93419724                4.12050808               72.22977846                0.50058349               -0.04536512               -0.04533470                0.15112431               -0.00006724                0.10308224                0.00233935
               9.93388192                4.11873242               72.08904020                0.49897709               -0.01768865               -0.01762910                0.05884711               -0.00005677                0.11221865                0.00109289
              10.93384347                4.11695115               71.94834687                0.49867676                0.01000259                0.01006348               -0.03344355               -0.00006147                0.11326562               -0.00019407
              11.93408197                4.11516419               71.80762693                0.49967767                0.03769568                0.03776178               -0.12574481               -0.00007486                0.10618977               -0.00162075
              12.93459738                4.11337148               71.66680882                0.50199540                0.06538228                0.06548143               -0.21805621               -0.00009080                0.09102575               -0.00325937
              13.93538962                4.11157305               71.52582170                0.50566327                0.09305867                0.09323146               -0.31037469               -0.00009460                0.06788809               -0.00516396
              14.93645856                4.10976909               71.38459630                0.51073938                0.12072774                0.12099887               -0.40269090               -0.00006574                0.03696288               -0.00737239
              15.93780417                4.10795992               71.24306549                0.75741909                0.13456135                0.14874140               -0.49498390                0.00025223                0.01698543               -0.00990440
               5.93841856                5.12451818               72.65043920                0.75891278               -0.11388674               -0.12799515                0.42599771               -0.00028701                0.01406572                0.01291564
               6.93727970                5.12303712               72.50882350                0.51053621               -0.10007215               -0.10028202                0.33372180               -0.00001966                0.04663792                0.00835213
               7.93641712                5.12155018               72.36777970                0.50348674               -0.07244419               -0.07252001                0.24151087               -0.00004449                0.08780169                0.00553627
               8.93583081                5.12005746               72.22692704                0.50056222               -0.04479982               -0.04477853                0.14925356               -0.00006702                0.10531407                0.00336582
               9.93552113                5.11855892               72.08619257                0.49897385               -0.01712608               -0.01706644                0.05697208               -0.00008618                0.11456156                0.00155679
              10.93548829                5.11705464               71.94550328                0.49869440                0.01056375                0.01063096               -0.03532440               -0.00009516                0.11552947               -0.00014949
              11.93573240                5.11554470               71.80478594                0.49971405                0.03825696                0.03833314               -0.12763211               -0.00009137                0.10821808               -0.00197947
              12.93625343                5.11402921               71.66396756                0.50205018                0.06594518                0.06605575               -0.21995015               -0.00007484                0.09268640               -0.00413609
              13.93705130                5.11250827               71.52297608                0.50573642                0.09362545                0.09380424               -0.31227441               -0.00004893                0.06906744               -0.00681373
              14.93812594                5.11098190               71.38174118                0.51083260                0.12130002                0.12156439               -0.40459523               -0.00002180                0.03757454               -0.01018926
              15.93947730                5.10945007               71.24019505                0.75747339                0.13513642                0.14929977               -0.49689011                0.00027598                0.01728560               -0.01438927
               5.93975830                6.12324102               72.64760390                0.75884188               -0.11332397               -0.12744910                0.42412626               -0.00026730                0.01461829                0.01648542
               6.93862506                6.12203711               72.50596375                0.51044054               -0.09951559               -0.09971674                0.33184778                0.00002859                0.04822773                0.01021529
               7.93776799                6.12082781               72.36491662                0.50344661               -0.07189508               -0.07193975                0.23963721               -0.00000090                0.09081795                0.00658714
               8.93718716                6.11961251               72.22406843                0.50054747               -0.04424883               -0.04420142                0.14737860               -0.00006697                0.10892381                0.00392219
               9.93688301                6.11839109               72.08334289                0.49898488               -0.01656854               -0.01649765                0.05509511               -0.00011413                0.11844492                0.00181309
              10.93685579                6.11716377               71.94266392                0.49872579                0.01112762                0.01119434               -0.03720472               -0.00012582                0.11939153               -0.00010429
              11.93710557                6.11593085               71.80195548                0.49976465                0.03882625                0.03889275               -0.12951668               -0.00010533                0.11178629               -0.00214807
              12.93763232                6.11469259               71.66114194                0.50211293                0.06651897                0.06661156               -0.22183943               -0.00005823                0.09569594               -0.00463168
              13.93843595                6.11344913               71.52014859                0.50581640                0.09420028                0.09436109               -0.31416779               -0.00000230                0.07126071               -0.00789735
              14.93951632                6.11220038               71.37890260                0.51092601                0.12187063                0.12213351               -0.40649127                0.00002462                0.03873400               -0.01229692
              15.94087336                6.11094592               71.23733432                0.75752738                0.13570376                0.14988403               -0.49878883                0.00030218                0.01787240               -0.01811093
               5.94082106                7.12196920               72.64475323                0.75877058               -0.11275743               -0.12694275                0.42224812               -0.00023513                0.01543877                0.01845364
               6.93969348                7.12104278               72.50308161                0.51035092               -0.09896760               -0.09913251                0.32996541                0.00008457                0.05059520                0.01058300
               7.93884170                7.12011139               72.36203436                0.50341455               -0.07136416               -0.07132625                0.23775738                0.00002180                0.09528719                0.00656652
               8.93826620                7.11917343               72.22119711                0.50054667               -0.04370642               -0.04361211                0.14549995               -0.00009517                0.11423837                0.00384164
               9.93796758                7.11822897               72.08048872                0.49900738               -0.01600941               -0.01593057                0.05321637               -0.00015096                0.12415274                0.00177901
              10.93794601                7.11727852               71.93982894                0.49877080                0.01169498                0.01175351               -0.03908447               -0.00015575                0.12510613               -0.00005981
              11.93820148                7.11632255               71.79913819                0.49982310                0.03939879                0.03944576               -0.13139827               -0.00012314                0.11714994               -0.00203005
              12.93873399                7.11536144               71.65833722                0.50218696                0.06709957                0.06715342               -0.22372315               -0.00005493                0.10031884               -0.00450793
              13.93954347                7.11439549               71.51734714                0.50589806                0.09478325                0.09489791               -0.31605398                0.00003769                0.07470594               -0.00797939
              14.94062965                7.11342457               71.37609059                0.51102419                0.12244077                0.12270082               -0.40837949                0.00008095                0.04058471               -0.01307500
              15.94199228                7.11244775               71.23449411                0.75758112                0.13626309                0.15050672               -0.50068062                0.00034082                0.01882164               -0.02036790
               5.94160644                8.12070217               72.64186846                0.75869827               -0.11218686               -0.12652928                0.42036116               -0.00017589                0.01666896                0.01813494
               6.94048457                8.12005446               72.50015977                0.51026357               -0.09843285               -0.09847436                0.32807239                0.00011540                0.05407582                0.00877616
               7.93963778                8.11940129               72.35912086                0.50339622               -0.07084472               -0.07069276                0.23586970               -0.00004310                0.10173612                0.00526643
               8.93906768                8.11874026               72.21830626                0.50055906               -0.04314407               -0.04304697                0.14361649               -0.00015589                0.12171266                0.00307090
               9.93877490                8.11807248               72.07762710                0.49904996               -0.01542918               -0.01537477                0.05133553               -0.00017904                0.13203613                0.00143117
              10.93875909                8.11739884               71.93699857                0.49883145                0.01226422                0.01231012               -0.04096339               -0.00016421                0.13299474               -0.00001620
              11.93902018                8.11671977               71.79633755                0.49990009                0.03995939                0.04000275               -0.13327643               -0.00013413                0.12467313               -0.00158130
              12.93955828                8.11603566               71.65556091                0.50227266                0.06766930                0.06770119               -0.22560070               -0.00007228                0.10700637               -0.00361552
              13.94037357                8.11534709               71.51458424                0.50599035                0.09537013                0.09541588               -0.31793172                0.00003855                0.07987760               -0.00664512
              14.94146568                8.11465440               71.37332210                0.51112038                0.12301265                0.12323800               -0.41025939                0.00013938                0.04344940               -0.01164924
              15.94283382                8.11395605               71.23169331                0.75763336                0.13681413                0.15120626               -0.50256563                0.00040488                0.02033009               -0.02011760
               5.94211297                9.11943862               72.63892291                0.75862523               -0.11162939               -0.12630746                0.41846036               -0.00020456                0.01840679                0.01338999
               6.94099667                9.11907329               72.49717248                0.51018475               -0.09789659               -0.09768824                0.32616448               -0.00000884                0.05935421                0.00447261
               7.94015503                9.11869753               72.35616303                0.50339651               -0.07023904               -0.07018375                0.23397176               -0.00014275                0.11112800                0.00291933
               8.93959189                9.11831249               72.21538932                0.50059608               -0.04248095               -0.04251636                0.14172641               -0.00017670                0.13185494                0.00170738
               9.93930542                9.11792147               72.07475511                0.49911524               -0.01482287               -0.01482993                0.04945185               -0.00013513                0.14243044                0.00080470
              10.93929543                9.11752472               71.93417295                0.49891843                0.01282804                0.01286967               -0.04284170               -0.00011529                0.14337809                0.00000997
              11.93956198                9.11712261               71.79355708                0.50000123                0.04048915                0.04057318               -0.13514984               -0.00009971                0.13475941               -0.00085646
              12.94010522                9.11671547               71.65282125                0.50238032                0.06817611                0.06827549               -0.22746971               -0.00008075                0.11639253               -0.00201020
              13.94092550                9.11630381               71.51187609                0.50609843                0.09591320                0.09597971               -0.31979675               -0.00000152                0.08774126               -0.00380950
              14.94202348                9.11588933               71.37062466                0.51122594                0.12357896                0.12370763               -0.41212293                0.00012566                0.04810491               -0.00704781
              15.94339708                9.11547187               71.22896362                0.75768517                0.13735966                0.15205279               -0.50443404                0.00040566                0.02281838               -0.01466394
               5.94233299               10.11817602               72.63585498                0.87928870               -0.11075109               -0.12625952                0.41653579                0.01446939                0.02447108                0.01168043
               6.94122548               10.11810069               72.49409605                0.75507061               -0.09686278               -0.09726038                0.32423792                0.01396023                0.06915583                0.00341184
               7.94039573               10.11799761               72.35315347                0.75170436               -0.06926395               -0.06999182                0.23206080                0.01353221                0.12439378                0.00277519
               8.93984020               10.11788994               72.21244137                0.75031766               -0.04178863               -0.04225514                0.13982711                0.01374412                0.14491652                0.00163014
               9.93955996               10.11777588               72.07187049                0.74958591               -0.01422735               -0.01455945                0.04756328                0.01376958                0.15557204                0.00067761
              10.93955565               10.11765624               71.93135198                0.74949521                0.01337445                0.01315121               -0.04471979                0.01378956                0.15648717               -0.00022175
              11.93982745               10.11753123               71.79079917                0.75004139                0.04099062                0.04086259               -0.13701731                0.01379404                0.14773222               -0.00116060
              12.94037547               10.11740117               71.65012465                0.75123226                0.06861125                0.06857045               -0.22932696                0.01379752                0.12906405               -0.00225855
              13.94119968               10.11726669               71.50923686                0.75309032                0.09623327                0.09628803               -0.32164413                0.01378678                0.09979336               -0.00373319
              14.94230013               10.11712855               71.36803462                0.75565136                0.12385901                0.12392212               -0.41396088                0.01418592                0.05749820               -0.00601377
              15.94367686               10.11699711               71.22637796                0.87886188                0.13767249                0.15252344               -0.50626984                0.01483319                0.02995997               -0.01279884
               6.06976773                0.13374530               73.66887889                0.88027272               -0.11233697               -0.12668185                0.42004760               -0.01439116                0.02025710               -0.00507371
               7.06864436                0.13088601               73.52642257                0.75687916               -0.09900377               -0.09887715                0.33100345               -0.01359866                0.04788317               -0.00476847
               8.06778766                0.12803695               73.38443726                0.75298746               -0.07239561               -0.07238260                0.24201310               -0.01323125                0.08609350               -0.00182010
               9.06719645                0.12518300               73.24268300                0.75090243               -0.04581844               -0.04564250                0.15301437               -0.01332445                0.10653388               -0.00098593
              10.06687129                0.12232420               73.10106362                0.74974582               -0.01919154               -0.01893178                0.06400799               -0.01333669                0.11725180               -0.00038448
              11.06681262                0.11945987               72.95950016                0.74950845                0.00746432                0.00778677               -0.02500518               -0.01334777                0.11925216                0.00009903
              12.06702058                0.11658985               72.81791659                0.75018040                0.03412859                0.03450603               -0.11402647               -0.01334851                0.11274206                0.00053974
              13.06749519                0.11371393               72.67623809                0.75177568                0.06078877                0.06122195               -0.20305738               -0.01335191                0.09776889                0.00097937
              14.06823635                0.11083150               72.53438958                0.75431190                0.08744854                0.08795987               -0.29209862               -0.01332492                0.07424739                0.00147715
              15.06924416                0.10794221               72.39229452                0.75782674                0.11407223                0.11456815               -0.38114817               -0.01366914                0.04158047                0.00208197
              16.07051780                0.10503637               72.24986592                0.88033721                0.12736325                0.14229678               -0.47020410               -0.01369604                0.02027556                0.00402647
               6.07248311                1.13247848               73.66607323                0.75949845               -0.11205565               -0.12617538                0.41826858               -0.00033909                0.01627447               -0.00364016
               7.07136255                1.12989724               73.52359592                0.51186525               -0.09881265               -0.09869845                0.32922023               -0.00007233                0.04523061               -0.00440963
               8.07050685                1.12731313               73.38161641                0.50462188               -0.07214835               -0.07205049                0.24022766                0.00002178                0.08371179               -0.00112272
               9.06991958                1.12472657               73.23984664                0.50115019               -0.04536846               -0.04535613                0.15121943                0.00007174                0.10294736               -0.00025193
              10.06959948                1.12213488               73.09820925                0.49923120               -0.01866321               -0.01865294                0.06220298                0.00004405                0.11345318               -0.00004592
              11.06954632                1.11953774               72.95662640                0.49883404                0.00802879                0.00805873               -0.02682069                0.00002680                0.11533296               -0.00012198
              12.06976006                1.11693491               72.81502281                0.49995308                0.03472639                0.03477341               -0.11585256                0.00001425                0.10875846               -0.00031473
              13.07024085                1.11432615               72.67332405                0.50260224                0.06144512                0.06148862               -0.20489404                0.00000086                0.09376814               -0.00051660
              14.07098896                1.11171110               72.53145563                0.50681966                0.08820975                0.08821285               -0.29394652               -0.00008191                0.07027893               -0.00059519
              15.07200504                1.10908790               72.38934148                0.51266938                0.11488608                0.11496581               -0.38300693               -0.00011071                0.03826207               -0.00029611
              16.07328668                1.10645933               72.24690657                0.75870362                0.12816426                0.14231838               -0.47206656                0.00029819                0.01756752                0.00129593
               6.07492343                2.13122179               73.66320432                0.75843217               -0.11151569               -0.12531095                0.41648603               -0.00037232                0.01315912               -0.00234810
               7.07380827                2.12891204               73.52070470                0.50995731               -0.09823319               -0.09830877                0.32743764               -0.00015215                0.04480190               -0.00291580
               8.07295876                2.12659594               73.37875701                0.50326883               -0.07160702               -0.07148983                0.23845706               -0.00006025                0.08460786               -0.00079711
               9.07237613                2.12427587               73.23699187                0.50049956               -0.04488807               -0.04479879                0.14943889                0.00002497                0.10190957                0.00007514
              10.07206100                2.12195114               73.09534797                0.49897452               -0.01814998               -0.01810024                0.06040719                0.00003756                0.11160649                0.00012527
              11.07201313                2.11962105               72.95375394                0.49866181                0.00857233                0.00860606               -0.02863339                0.00001933                0.11312859               -0.00021826
              12.07223245                2.11728532               72.81213706                0.49955361                0.03529438                0.03531862               -0.11768258               -0.00000653                0.10640850               -0.00075169
              13.07271902                2.11494371               72.67042462                0.50166434                0.06202620                0.06203927               -0.20674167               -0.00005629                0.09146044               -0.00132997
              14.07347297                2.11259576               72.52854417                0.50502722                0.08873509                0.08878229               -0.29581138               -0.00013611                0.06833958               -0.00177401
              15.07449372                2.11024153               72.38642413                0.50969762                0.11539562                0.11565498               -0.38488506               -0.00017938                0.03724573               -0.00175637
              16.07578088                2.10788273               72.24399600                0.75674021                0.12871654                0.14255583               -0.47394604                0.00015334                0.01716439               -0.00089365
               6.07709515                3.12997226               73.66033332                0.75836350               -0.11097973               -0.12465116                0.41469568               -0.00032178                0.01352454                0.00276238
               7.07598535                3.12793106               73.51783644                0.50986062               -0.09766669               -0.09784098                0.32565047               -0.00011285                0.04510553                0.00189932
               8.07514182                3.12588333               73.37589066                0.50321472               -0.07102360               -0.07102003                0.23666960               -0.00010844                0.08494600                0.00141759
               9.07456488                3.12383060               73.23412940                0.50046122               -0.04433778               -0.04427127                0.14764683               -0.00004046                0.10204460                0.00112446
              10.07425506                3.12177288               73.09248375                0.49895145               -0.01761764               -0.01755585                0.05860515               -0.00001428                0.11126101                0.00056852
              11.07421253                3.11970986               72.95088437                0.49865654                0.00911043                0.00915731               -0.03044730               -0.00002052                0.11247833               -0.00022303
              12.07443727                3.11764128               72.80926005                0.49956720                0.03583743                0.03587730               -0.11950927               -0.00004665                0.10558680               -0.00118645
              13.07492928                3.11556694               72.66753923                0.50170110                0.06255735                0.06261395               -0.20858089               -0.00008859                0.09059991               -0.00226467
              14.07568842                3.11348675               72.52565095                0.50508389                0.08926021                0.08939196               -0.29766107               -0.00013335                0.06761959               -0.00337408
              15.07671448                3.11140099               72.38352572                0.50977804                0.11594639                0.11621787               -0.38674217               -0.00011354                0.03683285               -0.00439642
              16.07800734                3.10931045               72.24109628                0.75678667                0.12928631                0.14302046               -0.47580432                0.00021302                0.01692544               -0.00525506
               6.07899938                4.12872877               73.65747595                0.75829631               -0.11044357               -0.12406892                0.41290030               -0.00029448                0.01371434                0.00826547
               7.07789494                4.12695522               73.51497035                0.50976812               -0.09711577               -0.09731556                0.32385525               -0.00006384                0.04567644                0.00545647
               8.07705706                4.12517554               73.37302386                0.50316876               -0.07045859               -0.07051877                0.23487310               -0.00008571                0.08596931                0.00374100
               9.07648577                4.12339045               73.23126335                0.50043354               -0.04378069               -0.04375161                0.14584678               -0.00006711                0.10311979                0.00235342
              10.07618145                4.12160002               73.08961845                0.49894172               -0.01707279               -0.01701559                0.05679877               -0.00005708                0.11224157                0.00110102
              11.07614431                4.11980419               72.94801833                0.49866314                0.00964942                0.00970784               -0.03226200               -0.00006158                0.11327724               -0.00019347
              12.07637444                4.11800286               72.80639151                0.49959363                0.03637322                0.03643679               -0.12133290               -0.00007428                0.10618964               -0.00162853
              13.07687178                4.11619599               72.66466642                0.50174355                0.06309059                0.06318643               -0.21041351               -0.00008925                0.09101357               -0.00327548
              14.07763625                4.11438360               72.52277226                0.50514924                0.08979839                0.08996535               -0.29950129               -0.00009230                0.06786794               -0.00518686
              15.07866775                4.11256589               72.38063983                0.50986294                0.11649930                0.11676093               -0.38858724               -0.00006387                0.03694725               -0.00739932
              16.07996623                4.11074314               72.23820222                0.75683543                0.12984882                0.14353247               -0.47765003                0.00024304                0.01697049               -0.00993135
               6.08063635                5.12749088               73.65462478                0.75822883               -0.10990443               -0.12351902                0.41110006               -0.00027709                0.01407258                0.01294083
               7.07953730                5.12598475               73.51210244                0.50967625               -0.09657342               -0.09677592                0.32205402               -0.00001979                0.04668648                0.00837297
               8.07870488                5.12447295               73.37015265                0.50312535               -0.06991229               -0.06998561                0.23307054               -0.00004470                0.08786703                0.00555415
               9.07813906                5.12295556               73.22839355                0.50041201               -0.04323514               -0.04321499                0.14404164               -0.00006692                0.10534948                0.00337916
              10.07784017                5.12143257               73.08675239                0.49894030               -0.01652987               -0.01647270                0.05498956               -0.00008546                0.11458027                0.00156429
              11.07780846                5.11990402               72.94515627                0.49867897                0.01019089                0.01025539               -0.03407673               -0.00009405                0.11553592               -0.00014919
              12.07804399                5.11837002               72.80353198                0.49962828                0.03691489                0.03698814               -0.12315408               -0.00009026                0.10821211               -0.00198699
              13.07854676                5.11683067               72.66180655                0.50179523                0.06363387                0.06374064               -0.21224123               -0.00007385                0.09266889               -0.00415169
              14.07931667                5.11528606               72.51990797                0.50521665                0.09034532                0.09051806               -0.30133456               -0.00004845                0.06904369               -0.00683629
              15.08035366                5.11373621               72.37776601                0.50994954                0.11705131                0.11730639               -0.39042371               -0.00002202                0.03755774               -0.01021782
              16.08165770                5.11218110               72.23531307                0.75688690                0.13040336                0.14407084               -0.47948781                0.00026566                0.01727108               -0.01442298
               6.08200609                6.12625838               73.65177109                0.75816360               -0.10936156               -0.12299223                0.40929485               -0.00025821                0.01462704                0.01651507
               7.08091247                6.12501970               73.50922428                0.50959103               -0.09603651               -0.09623056                0.32024620                0.00002668                0.04827899                0.01023742
               8.08008536                6.12377583               73.36727117                0.50308924               -0.06938271               -0.06942580                0.23126312               -0.00000240                0.09088580                0.00660579
               9.07952482                6.12252615               73.22551651                0.50040086               -0.04270373               -0.04265824                0.14223301               -0.00006649                0.10896060                0.00393551
              10.07923128                6.12127057               73.08388427                0.49895068               -0.01599189               -0.01592393                0.05317859               -0.00011220                0.11846420                0.00182049
              11.07920498                6.12000930               72.94229843                0.49871042                0.01073495                0.01079902               -0.03589113               -0.00012353                0.11939750               -0.00010394
              12.07944598                6.11874263               72.80068301                0.49967277                0.03746417                0.03752816               -0.12497258               -0.00010365                0.11177943               -0.00215528
              13.07995426                6.11747080               72.65896238                0.50185423                0.06418757                0.06427690               -0.21406404               -0.00005780                0.09567749               -0.00464669
              14.08072973                6.11619396               72.51706189                0.50529012                0.09089989                0.09105529               -0.30316085               -0.00000373                0.07123599               -0.00792004
              15.08177226                6.11491202               72.37490880                0.51003776                0.11760214                0.11785578               -0.39225375                0.00002240                0.03871530               -0.01232747
              16.08308178                6.11362456               72.23243366                0.75693681                0.13095145                0.14463522               -0.48132220                0.00029100                0.01785500               -0.01815054
               6.08310854                7.12503104               73.64890198                0.75809638               -0.10881505               -0.12250374                0.40748319               -0.00022701                0.01544875                0.01848601
               7.08202039                7.12406014               73.50632366                0.50950594               -0.09550783               -0.09566692                0.31843015                0.00008075                0.05065091                0.01060347
               8.08119838                7.12308444               73.36437044                0.50306193               -0.06887040               -0.06883382                0.22944918                0.00001950                0.09536210                0.00658372
               9.08064298                7.12210240               73.22262674                0.50040227               -0.04218038               -0.04208962                0.14042014               -0.00009324                0.11428091                0.00385462
              10.08035478                7.12111409               73.08101164                0.49897627               -0.01545259               -0.01537678                0.05136585               -0.00014707                0.12417657                0.00178625
              11.08033393                7.12012000               72.93944499                0.49875333                0.01128224                0.01133856               -0.03770487               -0.00015179                0.12511580               -0.00005926
              12.08058042                7.11912058               72.79784724                0.49973122                0.03801668                0.03806175               -0.12678817               -0.00012013                0.11714646               -0.00203710
              13.08109426                7.11811621               72.65613916                0.50192486                0.06474782                0.06479977               -0.21588174               -0.00005397                0.10030343               -0.00452279
              14.08187538                7.11710716               72.51424192                0.50536781                0.09146237                0.09157334               -0.30498081                0.00003574                0.07468377               -0.00800250
              15.08292351                7.11609333               72.37207824                0.51012658                0.11815248                0.11840356               -0.39407697                0.00007793                0.04056806               -0.01310658
              16.08423843                7.11507380               72.22957485                0.75698628                0.13149158                0.14523657               -0.48314948                0.00032869                0.01880612               -0.02040933
               6.08394333                8.12380831               73.64599866                0.75802840               -0.10826482               -0.12210484                0.40566258               -0.00016982                0.01668106                0.01816628
               7.08286069                8.12310637               73.50338321                0.50942535               -0.09499212               -0.09503197                0.31660422                0.00011069                0.05413902                0.00879197
               8.08204349                8.12239915               73.36143840                0.50304731               -0.06836913               -0.06822263                0.22762773               -0.00004281                0.10182349                0.00528051
               9.08149330                8.12168436               73.21971738                0.50041690               -0.04163752               -0.04154435                0.13860267               -0.00015150                0.12176643                0.00308197
              10.08121074                8.12096304               73.07813155                0.49901710               -0.01489261               -0.01484056                0.04955119               -0.00017377                0.13207003                0.00143749
              11.08119545                8.12023607               72.93659616                0.49881650                0.01183159                0.01187561               -0.03951786               -0.00015931                0.13301317               -0.00001556
              12.08144737                8.11950386               72.79502814                0.49980632                0.03855769                0.03859916               -0.12860043               -0.00013009                0.12467756               -0.00158706
              13.08196661                8.11876679               72.65334439                0.50200848                0.06529762                0.06532839               -0.21769363               -0.00007016                0.10699841               -0.00362802
              14.08275333                8.11802543               72.51146056                0.50545683                0.09202868                0.09207318               -0.30679276                0.00003734                0.07986233               -0.00666494
              15.08380718                8.11728009               72.36929129                0.51022014                0.11870380                0.11892156               -0.39588959                0.00013491                0.04343829               -0.01167743
              16.08512740                8.11652929               72.22675557                0.75703546                0.13202232                0.14591073               -0.48496524                0.00039064                0.02031940               -0.02015893
               6.08450903                9.12258894               73.64303444                0.75796042               -0.10772697               -0.12189101                0.40382884               -0.00019763                0.01842210                0.01341344
               7.08343176                9.12215950               73.50037718                0.50935321               -0.09447470               -0.09427334                0.31476328               -0.00000901                0.05942873                0.00448010
               8.08261954                9.12171998               73.35846192                0.50305049               -0.06778463               -0.06773165                0.22579660               -0.00013842                0.11123415                0.00292791
               9.08207607                9.12127151               73.21678188                0.50045872               -0.04099766               -0.04103240                0.13677901               -0.00017117                0.13192557                0.00171433
              10.08179959                9.12081728               73.07524105                0.49908305               -0.01430758               -0.01431477                0.04773346               -0.00013097                0.14247993                0.00080862
              11.08178992                9.12035751               72.93375209                0.49890155                0.01237569                0.01241551               -0.04133028               -0.00011184                0.14341171                0.00001054
              12.08204710                9.11989256               72.79222927                0.49990386                0.03906883                0.03914957               -0.13040804               -0.00009669                0.13477842               -0.00085952
              13.08257130                9.11942277               72.65058638                0.50211283                0.06578670                0.06588247               -0.21949695               -0.00007820                0.11639843               -0.00201723
              14.08336283                9.11894862               72.50873408                0.50555854                0.09255266                0.09261709               -0.30859209               -0.00000159                0.08773846               -0.00382100
              15.08442235                9.11847176               72.36657554                0.51031761                0.11925000                0.11937446               -0.39768666                0.00012116                0.04810137               -0.00706480
              16.08574783                9.11799202               72.22400751                0.75708528                0.13254846                0.14672716               -0.48676731                0.00039148                0.02281126               -0.01469355
               6.08479825               10.12137049               73.63994760                0.87895785               -0.10687932               -0.12184491                0.40197205                0.01396306                0.02449656                0.01170218
               7.08372946               10.12122090               73.49728182                0.75465736               -0.09347691               -0.09386036                0.31290415                0.01347121                0.06924909                0.00341776
               8.08292872               10.12104452               73.35543358                0.75153376               -0.06684358               -0.06754656                0.22395282                0.01305811                0.12452549                0.00278307
               9.08239259               10.12086371               73.21381527                0.75024591               -0.04032962               -0.04078034                0.13494593                0.01326288                0.14501014                0.00163619
              10.08212212               10.12067674               73.07233787                0.74957063               -0.01373311               -0.01405367                0.04591094                0.01328747                0.15564391                0.00068051
              11.08211793               10.12048438               72.93091266                0.74948553                0.01290274                0.01268716               -0.04314235                0.01330646                0.15654353               -0.00022164
              12.08238018               10.12028685               72.78945301                0.74999206                0.03955273                0.03942885               -0.13221023                0.01331085                0.14777387               -0.00116361
              13.08290898               10.12008444               72.64787152                0.75109618                0.06620651                0.06616698               -0.22128886                0.01331442                0.12909191               -0.00226475
              14.08370431               10.11987777               72.50607671                0.75281899                0.09286139                0.09291451               -0.31037458                0.01330406                0.09981195               -0.00374298
              15.08476621               10.11966758               72.36396744                0.75519410                0.11952042                0.11958153               -0.39946099                0.01368922                0.05751268               -0.00602733
              16.08609472               10.11946383               72.22140382                0.87855886                0.13285071                0.14718155               -0.48853971                0.01431410                0.02996775               -0.01282316
               6.21287197                0.13650909               74.67300316                0.87986163               -0.10825656               -0.12208005                0.40478902               -0.01386829                0.02028090               -0.00507653
               7.21178941                0.13367390               74.52967256                0.75632375               -0.09540794               -0.09528570                0.31898107               -0.01310436                0.04794271               -0.00476749
               8.21096381                0.13084856               74.38681350                0.75271854               -0.06976689               -0.06975425                0.23322463               -0.01275048                0.08618236               -0.00181309
               9.21039407                0.12801850               74.24418541                0.75078782               -0.04415582               -0.04398610                0.14746100               -0.01284061                0.10662012               -0.00098018
              10.21008070                0.12518377               74.10169213                0.74971928               -0.01849678               -0.01824652                0.06169062               -0.01285234                0.11733424               -0.00038090
              11.21002413                0.12234371               73.95925470                0.74949750                0.00719034                0.00750081               -0.02408706               -0.01286285                0.11932837                0.00010033
              12.21022450                0.11949815               73.81679708                0.75012101                0.03288558                0.03324869               -0.10987201               -0.01286362                0.11280830                0.00053839
              13.21068185                0.11664693               73.67424443                0.75159536                0.05857659                0.05899361               -0.19566670               -0.01286680                0.09782191                0.00097579
              14.21139604                0.11378943               73.53152167                0.75394487                0.08426700                0.08475954               -0.28147099               -0.01284077                0.07428566                0.00147140
              15.21236719                0.11092533               73.38855229                0.75719880                0.10992305                0.11040098               -0.36728428               -0.01317277                0.04160361                0.00207366
              16.21359450                0.10804527               73.24524928                0.87991995                0.12273121                0.13712260               -0.45310493               -0.01319874                0.02028577                0.00402217
               6.21556848                1.13528829               74.67018004                0.75874895               -0.10798524               -0.12159206                0.40307450               -0.00032687                0.01628734               -0.00363431
               7.21448863                1.13272104               74.52682840                0.51088363               -0.09522359               -0.09511360                0.31726251               -0.00006995                0.04528015               -0.00439994
               8.21366401                1.13015102               74.38397513                0.50417049               -0.06952850               -0.06943443                0.23150465                0.00002026                0.08378823               -0.00110235
               9.21309806                1.12757864               74.24133143                0.50095824               -0.04372197               -0.04371045                0.14573197                0.00006778                0.10301727               -0.00023538
              10.21278957                1.12500130               74.09882004                0.49918735               -0.01798741               -0.01797796                0.05995142                0.00004103                0.11351862               -0.00003602
              11.21273831                1.12241871               73.95636312                0.49881986                0.00773427                0.00776276               -0.02583611                0.00002461                0.11539160               -0.00011965
              12.21294426                1.11983064               73.81388537                0.49985389                0.03346134                0.03350638               -0.11163146                0.00001259                0.10880707               -0.00032041
              13.21340754                1.11723687               73.67131236                0.50230348                0.05920868                0.05925059               -0.19743651               -0.00000005                0.09380362               -0.00053005
              14.21412843                1.11463703               73.52856959                0.50620863                0.08500012                0.08500329               -0.28325113               -0.00007950                0.07029908               -0.00061607
              15.21510754                1.11202934               73.38558099                0.51162565                0.11070705                0.11078407               -0.36907493               -0.00010679                0.03826987               -0.00032245
              16.21634257                1.10941649               73.24227164                0.75800958                0.12350299                0.13714299               -0.45489975                0.00028744                0.01756550                0.00127320
               6.21799993                2.13407725               74.66729362                0.75775709               -0.10746503               -0.12075927                0.40135744               -0.00035894                0.01316729               -0.00233719
               7.21692528                2.13177163               74.52391968                0.50910886               -0.09466537               -0.09473828                0.31554509               -0.00014740                0.04485224               -0.00289983
               8.21610663                2.12945987               74.38109834                0.50291009               -0.06900709               -0.06889431                0.22979904               -0.00005964                0.08468011               -0.00077190
               9.21554514                2.12714429               74.23845918                0.50034801               -0.04325914               -0.04317363                0.14401684                0.00002214                0.10196211                0.00009720
              10.21524144                2.12482421               74.09594112                0.49893882               -0.01749270               -0.01744549                0.05822112                0.00003394                0.11165101                0.00013843
              11.21519529                2.12249896               73.95347286                0.49864949                0.00825808                0.00829007               -0.02758251                0.00001627                0.11316494               -0.00021562
              12.21540660                2.12016828               73.81098165                0.49947348                0.03400857                0.03403172               -0.11339478               -0.00000849                0.10643452               -0.00076006
              13.21587546                2.11783194               73.66839479                0.50142716                0.05976854                0.05978113               -0.19921658               -0.00005626                0.09147356               -0.00134906
              14.21660198                2.11548950               73.52563982                0.50453804                0.08550636                0.08555203               -0.28504790               -0.00013249                0.06833970               -0.00180309
              15.21758559                2.11314101               73.38264522                0.50886312                0.11119801                0.11144807               -0.37088444               -0.00017300                0.03724132               -0.00179108
              16.21882594                2.11078813               73.23934263                0.75618345                0.12403498                0.13737122               -0.45670943                0.00014789                0.01715582               -0.00092408
               6.22017255                3.13287311               74.66440505                0.75769566               -0.10694877               -0.12012354                0.39963244               -0.00031009                0.01353190                0.00277678
               7.21910306                3.13082628               74.52103388                0.50901763               -0.09411961               -0.09428767                0.31382347               -0.00010952                0.04515375                0.00191720
               8.21829016                3.12877313               74.37821443                0.50286435               -0.06844476               -0.06844159                0.22807649               -0.00010640                0.08501284                0.00143649
               9.21773417                3.12671516               74.23557911                0.50031538               -0.04272890               -0.04266516                0.14228959               -0.00004128                0.10208662                0.00114099
              10.21743558                3.12465239               74.09305921                0.49891655               -0.01698015               -0.01692083                0.05648481               -0.00001641                0.11129121                0.00057826
              11.21739456                3.12258451               73.95058548                0.49864291                0.00877635                0.00882131               -0.02933048               -0.00002271                0.11249953               -0.00022179
              12.21761111                3.12051128               73.80808671                0.49948631                0.03453172                0.03457003               -0.11515474               -0.00004777                0.10559735               -0.00119421
              13.21808520                3.11843249               73.66549134                0.50145693                0.06028036                0.06033488               -0.20098868               -0.00008781                0.09059798               -0.00228117
              14.21881671                3.11634807               73.52272844                0.50459160                0.08601280                0.08613970               -0.28683140               -0.00013000                0.06760728               -0.00339813
              15.21980545                3.11425830               73.37972856                0.50893753                0.11172902                0.11199057               -0.37267483               -0.00010977                0.03682208               -0.00442457
              16.22105129                3.11216392               73.23642468                0.75622859                0.12458399                0.13781888               -0.45849934                0.00020518                0.01691445               -0.00528119
               6.22208739                4.13167478               74.66153005                0.75763040               -0.10643219               -0.11956249                0.39790228               -0.00028387                0.01372155                0.00828444
               7.22102307                4.12988587               74.51815016                0.50893257               -0.09358892               -0.09378156                0.31209435               -0.00006241                0.04572379                0.00547591
               8.22021561                4.12809104               74.37533001                0.50281752               -0.06790063               -0.06795880                0.22634656               -0.00008468                0.08603291                0.00375898
               9.21966505                4.12629099               74.23269540                0.50028624               -0.04219226               -0.04216450                0.14055558               -0.00006763                0.10315561                0.00236707
              10.21937176                4.12448579               74.09017618                0.49890660               -0.01645525               -0.01640027                0.05474442               -0.00005828                0.11226340                0.00110898
              11.21933595                4.12267539               73.94770163                0.49864781                0.00929554                0.00935183               -0.03107901               -0.00006258                0.11328885               -0.00019301
              12.21955768                4.12085968               73.80520027                0.49950711                0.03504803                0.03510924               -0.11691242               -0.00007459                0.10619023               -0.00163621
              13.22003691                4.11903864               73.66260055                0.50149846                0.06079447                0.06088661               -0.20275524               -0.00008839                0.09100223               -0.00329114
              14.22077356                4.11721229               73.51983168                0.50465181                0.08653162                0.08669221               -0.28860504               -0.00009040                0.06784799               -0.00520943
              15.22176754                4.11538082               73.37682455                0.50901774                0.11226184                0.11251381               -0.37445260               -0.00006234                0.03693183               -0.00742613
              16.22301880                4.11354450               73.23351249                0.75627345                0.12512597                0.13831239               -0.46027820                0.00023366                0.01695679               -0.00995987
               6.22374468                5.13048186               74.65866120                0.75757034               -0.10591291               -0.11903275                0.39616842               -0.00026731                0.01408105                0.01296583
               7.22268555                5.12895065               74.51526458                0.50885101               -0.09306652               -0.09326174                0.31035936               -0.00002023                0.04673432                0.00839409
               8.22188335                5.12741396               74.37244111                0.50277758               -0.06737458               -0.06744525                0.22461053               -0.00004525                0.08792934                0.00557217
               9.22133806                5.12587187               74.22980788                0.50026897               -0.04166696               -0.04164763                0.13881705               -0.00006723                0.10538278                0.00339262
              10.22105001                5.12432439               74.08729236                0.49890396               -0.01593208               -0.01587729                0.05300142               -0.00008549                0.11459842                0.00157170
              11.22101942                5.12277155               73.94482175                0.49866706                0.00981746                0.00987937               -0.03282752               -0.00009375                0.11554235               -0.00014904
              12.22124636                5.12121346               73.80232286                0.49954177                0.03557002                0.03564056               -0.11866736               -0.00008968                0.10820709               -0.00199497
              13.22173082                5.11965022               73.65972274                0.50154568                0.06131810                0.06142066               -0.20451645               -0.00007346                0.09265231               -0.00416761
              14.22247272                5.11808191               73.51694939                0.50471527                0.08705876                0.08722467               -0.29037132               -0.00004832                0.06901995               -0.00685924
              15.22347200                5.11650857               73.37393271                0.50909859                0.11279374                0.11303923               -0.37622172               -0.00002178                0.03754034               -0.01024619
              16.22472860                5.11493016               73.23060529                0.75632092                0.12566031                0.13883094               -0.46204897                0.00025583                0.01725610               -0.01445570
               6.22514446                6.12929412               74.65578980                0.75750866               -0.10538998               -0.11852513                0.39442932               -0.00024913                0.01463489                0.01654469
               7.22409056                6.12802064               74.51236867                0.50876775               -0.09254928               -0.09273634                0.30861761                0.00002452                0.04832824                0.01025869
               8.22329348                6.12674213               74.36954188                0.50274702               -0.06686423               -0.06690591                0.22286910               -0.00000453                0.09095117                0.00662356
               9.22275328                6.12545803               74.22691309                0.50025881               -0.04115492               -0.04111122                0.13707446               -0.00006669                0.10899534                0.00394885
              10.22247038                6.12416825               74.08440646                0.49891854               -0.01541389               -0.01534859                0.05125669               -0.00011103                0.11848215                0.00182776
              11.22244500                6.12287297               73.94194609                0.49869347                0.01034172                0.01040319               -0.03457594               -0.00012188                0.11940290               -0.00010381
              12.22267721                6.12157249               73.79945603                0.49958639                0.03609942                0.03616097               -0.12041985               -0.00010228                0.11177286               -0.00216319
              13.22316699                6.12026705               73.65686066                0.50160354                0.06185157                0.06193755               -0.20627311               -0.00005782                0.09565977               -0.00466275
              14.22391424                6.11895679               73.51408537                0.50478222                0.08759331                0.08774265               -0.29213217               -0.00000532                0.07121175               -0.00794345
              15.22491885                6.11764160               73.37105752                0.50918115                0.11332467                0.11356877               -0.37798614                0.00002095                0.03869797               -0.01235863
              16.22618074                6.11632112               73.22770788                0.75636636                0.12618830                0.13937438               -0.46381520                0.00028036                0.01784032               -0.01818918
               6.22628667                7.12811135               74.65290290                0.75744692               -0.10486361               -0.11805440                0.39268415               -0.00021904                0.01545761                0.01851795
               7.22523803                7.12709592               74.50945021                0.50869209               -0.09204013               -0.09219331                0.30686843                0.00007681                0.05070425                0.01062432
               8.22444587                7.12607584               74.36662334                0.50272000               -0.06637087               -0.06633561                0.22112177                0.00001690                0.09543423                0.00660071
               9.22391062                7.12504965               74.22400551                0.50026008               -0.04065080               -0.04056345                0.13532808               -0.00009229                0.11432163                0.00386698
              10.22363285                7.12401742               74.08151604                0.49894081               -0.01489413               -0.01482140                0.04951018               -0.00014428                0.12419945                0.00179319
              11.22361273                7.12297961               73.93907485                0.49873848                0.01086934                0.01092310               -0.03632375               -0.00014855                0.12512498               -0.00005895
              12.22385024                7.12193668               73.79660242                0.49964317                0.03663192                0.03667519               -0.12216951               -0.00011777                0.11714292               -0.00204414
              13.22434537                7.12088897               73.65401959                0.50166836                0.06239134                0.06244155               -0.20802501               -0.00005380                0.10028853               -0.00453746
              14.22509806                7.11983677               73.51124753                0.50485736                0.08813528                0.08824215               -0.29388655                0.00003277                0.07466177               -0.00802481
              15.22610808                7.11877995               73.36820905                0.50926284                0.11385524                0.11409702               -0.37974411                0.00007363                0.04055180               -0.01313765
              16.22737517                7.11771765               73.22483112                0.75641365                0.12670919                0.13995441               -0.46557780                0.00031608                0.01879183               -0.02045078
               6.22717095                8.12693304               74.64998171                0.75738396               -0.10433352               -0.11767024                0.39093055               -0.00016380                0.01669255                0.01819747
               7.22612761                8.12617677               74.50649186                0.50861916               -0.09154331               -0.09158158                0.30510937                0.00010580                0.05419926                0.00880838
               8.22534008                8.12541542               74.36367342                0.50270920               -0.06588804               -0.06574680                0.21936698               -0.00004275                0.10190678                0.00529486
               9.22480985                8.12464676               74.22107831                0.50028075               -0.04012778               -0.04003822                0.13357735               -0.00014762                0.12181771                0.00309273
              10.22453753                8.12387182               74.07861812                0.49898614               -0.01435451               -0.01430467                0.04776146               -0.00016895                0.13210226                0.00144356
              11.22452276                8.12309144               73.93620821                0.49879864                0.01139864                0.01144059               -0.03807068               -0.00015492                0.13303076               -0.00001506
              12.22476550                8.12230600               73.79376554                0.49971693                0.03715317                0.03719294               -0.12391543               -0.00012665                0.12468180               -0.00159266
              13.22526583                8.12151588               73.65120704                0.50175079                0.06292100                0.06295076               -0.20977050               -0.00006867                0.10699085               -0.00364014
              14.22602392                8.12072163               73.50844839                0.50494015                0.08868068                0.08872367               -0.29563173                0.00003491                0.07984694               -0.00668369
              15.22703944                8.11992355               73.36540431                0.50934783                0.11438667                0.11459644               -0.38149110                0.00012907                0.04342680               -0.01170408
              16.22831165                8.11912021               73.22199400                0.75645952                0.12722133                0.14060480               -0.46733025                0.00037598                0.02030893               -0.02019801
               6.22779592                9.12575795               74.64699949                0.75731980               -0.10381563               -0.11746464                0.38916448               -0.00019040                0.01843601                0.01343628
               7.22675776                9.12526429               74.50346775                0.50855112               -0.09104494               -0.09085081                0.30333629               -0.00000946                0.05950001                0.00448721
               8.22597502                9.12476090               74.36067896                0.50271832               -0.06532477               -0.06527391                0.21760268               -0.00013449                0.11133554                0.00293683
               9.22545127                9.12424889               74.21812490                0.50031932               -0.03951104               -0.03954484                0.13181972               -0.00016586                0.13199280                0.00172084
              10.22518480                9.12373132               74.07570978                0.49905309               -0.01379068               -0.01379814                0.04601014               -0.00012704                0.14252722                0.00081241
              11.22517546                9.12320843               73.93334635                0.49888553                0.01192285                0.01196080               -0.03981712               -0.00010842                0.14344361                0.00001097
              12.22542326                9.12268054               73.79094892                0.49981349                0.03764564                0.03772323               -0.12565706               -0.00009371                0.13479639               -0.00086303
              13.22592837                9.12214799               73.64843131                0.50185092                0.06339217                0.06348460               -0.21150790               -0.00007577                0.11640433               -0.00202450
              14.22669110                9.12161124               73.50570425                0.50503804                0.08918547                0.08924767               -0.29736521               -0.00000166                0.08773566               -0.00383241
              15.22771208                9.12107188               73.36267093                0.50944157                0.11491282                0.11503282               -0.38322253                0.00011697                0.04809858               -0.00708210
              16.22898936                9.12052975               73.21922828                0.75650499                0.12772802                0.14139117               -0.46906519                0.00037730                0.02280660               -0.01472281
               6.22815446               10.12458374               74.64389442                0.87863997               -0.10299910               -0.11742050                0.38737580                0.01345571                0.02452011                0.01172351
               7.22712447               10.12435976               74.50035414                0.75425987               -0.09008341               -0.09045305                0.30154547                0.01298092                0.06933909                0.00342358
               8.22635280               10.12410994               74.35763253                0.75136751               -0.06441784               -0.06509571                0.21582616                0.01258297                0.12465159                0.00279150
               9.22583612               10.12385587               74.21514029                0.75018166               -0.03886748               -0.03930181                0.13005314                0.01278029                0.14509970                0.00164132
              10.22557545               10.12359586               74.07278870                0.74955656               -0.01323692               -0.01354670                0.04425442                0.01280377                0.15571379                0.00068338
              11.22557138               10.12333065               73.93048913                0.74947753                0.01243103                0.01222253               -0.04156321                0.01282267                0.15659715               -0.00022154
              12.22582407               10.12306046               73.78815497                0.74994440                0.03811170                0.03799232               -0.12739333                0.01282708                0.14781346               -0.00116724
              13.22633361               10.12278558               73.64569887                0.75096486                0.06379643                0.06375886               -0.21323495                0.01283038                0.12911940               -0.00227107
              14.22710000               10.12250658               73.50302937                0.75255756                0.08948297                0.08953429               -0.29908306                0.01282075                0.09982916               -0.00375273
              15.22812327               10.12222420               73.36004540                0.75475462                0.11517325                0.11523228               -0.38493178                0.01319199                0.05752580               -0.00604276
              16.22940346               10.12194803               73.21660716                0.87826844                0.12801894                0.14182859               -0.47077238                0.01379359                0.02997570               -0.01285004
               6.35683454                0.13929001               75.67697467                0.87946414               -0.10416682               -0.11746826                0.38949656               -0.01334411                0.02030424               -0.00507915
               7.35579287                0.13647899               75.53280219                0.75578748               -0.09180395               -0.09168607                0.30693097               -0.01260923                0.04800009               -0.00476628
               8.35499846                0.13367744               75.38910175                0.75245550               -0.06713230               -0.06711996                0.22441642               -0.01226879                0.08626875               -0.00180530
               9.35445023                0.13087135               75.24563222                0.75067696               -0.04248922               -0.04232619                0.14189551               -0.01235560                0.10670502               -0.00097393
              10.35414868                0.12806076               75.10229743                0.74969358               -0.01779975               -0.01755955                0.05936705               -0.01236719                0.11741476               -0.00037759
              11.35409423                0.12524504               74.95901842                0.74948927                0.00691644                0.00721448               -0.02316800               -0.01237740                0.11940246                0.00010169
              12.35428701                0.12242404               74.81571915                0.75006332                0.03164027                0.03198904               -0.10571012               -0.01237789                0.11287307                0.00053728
              13.35472704                0.11959759               74.67232475                0.75142299                0.05636016                0.05676066               -0.18826141               -0.01238079                0.09787407                0.00097215
              14.35541421                0.11676510               74.52876016                0.75358969                0.08107935                0.08155261               -0.27082201               -0.01235564                0.07432346                0.00146536
              15.35634863                0.11392627               74.38494884                0.75659625                0.10576522                0.10622460               -0.35339080               -0.01267489                0.04162550                0.00206602
              16.35752952                0.11107209               74.24080382                0.87951711                0.11808897                0.13193611               -0.43596742               -0.01269983                0.02029376                0.00401968
               6.35951212                1.13811533               75.67413472                0.75802408               -0.10390599               -0.11699893                0.38784760               -0.00031420                0.01630011               -0.00362797
               7.35847306                1.13556213               75.52994117                0.50993508               -0.09162657               -0.09152080                0.30527841               -0.00006774                0.04532837               -0.00439018
               8.35767959                1.13300625               75.38624650                0.50373789               -0.06690252               -0.06681253                0.22276207                0.00001823                0.08386307               -0.00108170
               9.35713501                1.13044809               75.24276128                0.50077627               -0.04207152               -0.04206103                0.14023204                0.00006372                0.10308599               -0.00021844
              10.35683816                1.12788517               75.09940828                0.49914068               -0.01730977               -0.01730116                0.05769385                0.00003774                0.11358269               -0.00002652
              11.35678882                1.12531719               74.95610968                0.49880494                0.00743965                0.00746648               -0.02485064                0.00002174                0.11544926               -0.00011730
              12.35698696                1.12274393               74.81279018                0.49975870                0.03219407                0.03223691               -0.10740252                0.00001041                0.10885480               -0.00032583
              13.35743270                1.12016519               74.66937532                0.50201806                0.05696790                0.05700788               -0.18996359               -0.00000138                0.09383849               -0.00054319
              14.35812631                1.11758063               74.52579061                0.50561835                0.08178419                0.08178716               -0.27253426               -0.00007743                0.07031972               -0.00063677
              15.35906838                1.11498852               74.38195998                0.51062039                0.10651916                0.10659340               -0.35511333               -0.00010319                0.03827772               -0.00034854
              16.36025670                1.11239145               74.23780858                0.75733838                0.11883130                0.13195591               -0.43769391                0.00027648                0.01756222                0.00125178
               6.36193466                2.13695003               75.67123147                0.75710661               -0.10340590               -0.11619783                0.38619619               -0.00034545                0.01317452               -0.00232661
               7.36090060                2.13464857               75.52701560                0.50828921               -0.09108982               -0.09116009                0.30362730               -0.00014284                0.04490131               -0.00288354
               8.36011286                2.13234119               75.38335299                0.50256468               -0.06640098               -0.06629318                0.22112239               -0.00005973                0.08475135               -0.00074685
               9.35957258                2.13003013               75.23987221                0.50020319               -0.04162630               -0.04154458                0.13858217                0.00001836                0.10201340                0.00011825
              10.35928034                2.12771474               75.09651239                0.49890352               -0.01683405               -0.01678887                0.05602924                0.00002953                0.11169444                0.00015119
              11.35923590                2.12539437               74.95320229                0.49863553                0.00794347                0.00797382               -0.02653080                0.00001241                0.11320133               -0.00021309
              12.35943921                2.12306878               74.80986916                0.49939613                0.03272065                0.03274232               -0.10909906               -0.00001129                0.10646057               -0.00076829
              13.35989031                2.12073775               74.66644029                0.50119664                0.05750667                0.05751836               -0.19167656               -0.00005656                0.09148674               -0.00136803
              14.36058934                2.11840085               74.52284321                0.50406879                0.08227134                0.08231517               -0.27426320               -0.00012895                0.06834031               -0.00183223
              15.36153574                2.11605814               74.37900644                0.50806099                0.10699166                0.10723240               -0.35685489               -0.00016728                0.03723770               -0.00182613
              16.36272917                2.11371121               74.23486181                0.75564892                0.11934333                0.13217576               -0.43943580                0.00014181                0.01714803               -0.00095481
               6.36410814                3.13579137               75.66832597                0.75704795               -0.10290916               -0.11558619                0.38453636               -0.00029885                0.01354057                0.00279068
               7.36307904                3.13373892               75.52411291                0.50820841               -0.09056493               -0.09072664                0.30197092               -0.00010690                0.04520123                0.00193576
               8.36229684                3.13168038               75.38045219                0.50252177               -0.06586037               -0.06585747                0.21946468               -0.00010512                0.08507741                0.00145522
               9.36176184                3.12961720               75.23697519                0.50017190               -0.04111619               -0.04105530                0.13692006               -0.00004297                0.10212777                0.00115638
              10.36147451                3.12754939               75.09361344                0.49888211               -0.01634066               -0.01628415                0.05435881               -0.00001938                0.11132147                0.00058788
              11.36143502                3.12547666               74.95029777                0.49863053                0.00844207                0.00848492               -0.02821254               -0.00002549                0.11252088               -0.00022067
              12.36164336                3.12339878               74.80695695                0.49940707                0.03322391                0.03326029               -0.11079250               -0.00004935                0.10560809               -0.00120233
              13.36209950                3.12131556               74.66351945                0.50122689                0.05799934                0.05805123               -0.19338214               -0.00008719                0.09059618               -0.00229831
              14.36280334                3.11922693               74.51991432                0.50411920                0.08275873                0.08288056               -0.27597948               -0.00012696                0.06759557               -0.00342262
              15.36375468                3.11713316               74.37607222                0.50813045                0.10750249                0.10775423               -0.35857707               -0.00010679                0.03681146               -0.00445220
              16.36495339                3.11503497               74.23192630                0.75568821                0.11987149                0.13260648               -0.44115805                0.00019679                0.01690298               -0.00530716
               6.36603358                4.13463831               75.66543399                0.75698962               -0.10241235               -0.11504636                0.38287267               -0.00027376                0.01373025                0.00830469
               7.36500945                4.13283404               75.52121224                0.50812905               -0.09005441               -0.09023974                0.30030781               -0.00006162                0.04576997                0.00549540
               8.36423249                4.13102404               75.37755080                0.50247940               -0.06533684               -0.06539288                0.21780020               -0.00008416                0.08609351                0.00377689
               9.36370272                4.12920903               75.23407446                0.50014674               -0.04060004               -0.04057365                0.13525202               -0.00006833                0.10319018                0.00238154
              10.36342049                4.12738906               75.09071334                0.49887225               -0.01583577               -0.01578338                0.05268464               -0.00005993                0.11228515                0.00111699
              11.36338600                4.12556407               74.94739675                0.49863570                0.00894172                0.00899532               -0.02989476               -0.00006433                0.11330013               -0.00019253
              12.36359932                4.12373399               74.80405327                0.49942725                0.03372078                0.03377917               -0.11248387               -0.00007553                0.10619050               -0.00164437
              13.36406042                4.12189877               74.66061132                0.50126452                0.05849390                0.05858219               -0.19508199               -0.00008814                0.09099122               -0.00330753
              14.36476920                4.12005846               74.51700016                0.50417209                0.08325781                0.08341223               -0.27768607               -0.00008953                0.06782968               -0.00523189
              15.36572557                4.11821322               74.37315078                0.50820220                0.10801528                0.10825779               -0.36028828               -0.00006139                0.03691772               -0.00745187
              16.36692951                4.11636334               74.22899665                0.75573197                0.12039327                0.13308132               -0.44287030                0.00022437                0.01694328               -0.00998641
               6.36771120                5.13349044               75.66254814                0.75693531               -0.10191253               -0.11453648                0.38120410               -0.00025775                0.01408798                0.01299071
               7.36669208                5.13193413               75.51830963                0.50805352               -0.08955166               -0.08973960                0.29863813               -0.00002094                0.04677957                0.00841490
               8.36592017                5.13037252               75.37464486                0.50244409               -0.06483073               -0.06489896                0.21613056               -0.00004637                0.08798954                0.00559014
               9.36539546                5.12880573               75.23116990                0.50012848               -0.04009478               -0.04007654                0.13358007               -0.00006834                0.10541487                0.00340609
              10.36511827                5.12723372               75.08781242                0.49887369               -0.01533272               -0.01528028                0.05100804               -0.00008631                0.11461559                0.00157910
              11.36508881                5.12565657               74.94449972                0.49865156                0.00944363                0.00950290               -0.03157704               -0.00009433                0.11554835               -0.00014905
              12.36530714                5.12407436               74.80115864                0.49945953                0.03422308                0.03429048               -0.11417280               -0.00009028                0.10820161               -0.00200277
              13.36577327                5.12248721               74.65771622                0.50130921                0.05899776                0.05909618               -0.19677694               -0.00007422                0.09263635               -0.00418316
              14.36648710                5.12089518               74.51410055                0.50423113                0.08376510                0.08392483               -0.27938627               -0.00004920                0.06899846               -0.00688191
              15.36744857                5.11929832               74.37024157                0.50827659                0.10852744                0.10876375               -0.36199200               -0.00002233                0.03752487               -0.01027431
              16.36865765                5.11769659               74.22607209                0.75577434                0.12090782                0.13358049               -0.44457508                0.00024571                0.01724243               -0.01448691
               6.36914105                6.13234758               75.65965968                0.75687676               -0.10140953               -0.11404813                0.37953123               -0.00023999                0.01464319                0.01657329
               7.36812695                6.13103925               75.51539664                0.50797899               -0.08905419               -0.08923435                0.29696300                0.00002215                0.04837573                0.01028060
               8.36735996                6.12972607               75.37172855                0.50241556               -0.06434005               -0.06438024                0.21445534               -0.00000721                0.09101327                0.00664188
               9.36684015                6.12840749               75.22825800                0.50012062               -0.03960234               -0.03956058                0.13190373               -0.00006767                0.10902839                0.00396190
              10.36656792                6.12708345               75.08490940                0.49888772               -0.01483402               -0.01477167                0.04932950               -0.00011055                0.11849924                0.00183495
              11.36654347                6.12575413               74.94160691                0.49868088                0.00994805                0.01000686               -0.03325916               -0.00012087                0.11940759               -0.00010404
              12.36676688                6.12441980               74.79827461                0.49950269                0.03473222                0.03479118               -0.11585876               -0.00010191                0.11176599               -0.00217088
              13.36723812                6.12308069               74.65483691                0.50136073                0.05951109                0.05959358               -0.19846725               -0.00005888                0.09564197               -0.00467798
              14.36795710                6.12173696               74.51121924                0.50429492                0.08427974                0.08442339               -0.28108136               -0.00000731                0.07118872               -0.00796685
              15.36892371                6.12038850               74.36734908                0.50835265                0.10903862                0.10927337               -0.36369036                0.00001910                0.03868264               -0.01238966
              16.37013787                6.11903495               74.22315736                0.75581742                0.12141619                0.13410350               -0.44627553                0.00026923                0.01782818               -0.01822701
               6.37032306                7.13120948               75.65675566                0.75682035               -0.10090340               -0.11359554                0.37785313               -0.00021108                0.01546720                0.01854928
               7.36931403                7.13014944               75.51246103                0.50790820               -0.08856450               -0.08871231                0.29528120                0.00007270                0.05075583                0.01064462
               8.36855177                7.12908492               75.36879288                0.50239399               -0.06386535               -0.06383184                0.21277502                0.00001395                0.09550272                0.00661779
               9.36803672                7.12801451               75.22533330                0.50012741               -0.03911731               -0.03903364                0.13022401               -0.00009156                0.11435979                0.00388006
              10.36776943                7.12693829               75.08200185                0.49891114               -0.01433406               -0.01426445                0.04764917               -0.00014190                0.12422039                0.00179992
              11.36775004                7.12585671               74.93871852                0.49872391                0.01045556                0.01050709               -0.03494075               -0.00014610                0.12513271               -0.00005888
              12.36797854                7.12477019               74.79540385                0.49955655                0.03524445                0.03528595               -0.11754214               -0.00011622                0.11713860               -0.00205132
              13.36845493                7.12367908               74.65197866                0.50142631                0.06003052                0.06007854               -0.20015286               -0.00005423                0.10027297               -0.00455217
              14.36917915                7.12258365               74.50836419                0.50436541                0.08480140                0.08490399               -0.28276950                0.00002985                0.07464051               -0.00804710
              15.37015096                7.12148379               74.36448335                0.50843212                0.10954908                0.10978143               -0.36538128                0.00007019                0.04053728               -0.01316896
              16.37137013                7.12037866               74.22026330                0.75586048                0.12191720                0.13466118               -0.44797064                0.00030383                0.01877954               -0.02049374
               6.37125690                8.13007567               75.65381727                0.75676092               -0.10039342               -0.11322610                0.37616635               -0.00015794                0.01670332                0.01822792
               7.37025297                8.12926500               75.50948540                0.50784081               -0.08808652               -0.08812382                0.29358880                0.00010103                0.05425740                0.00882426
               8.36949517                8.12844943               75.36582574                0.50238619               -0.06340079               -0.06326550                0.21108721               -0.00004267                0.10198703                0.00530877
               9.36898495                8.12762682               75.22238893                0.50014818               -0.03861422               -0.03852834                0.12853960               -0.00014416                0.12186578                0.00310339
              10.36872289                8.12679816               75.07908678                0.49895562               -0.01381509               -0.01376729                0.04596684               -0.00016514                0.13213186                0.00144945
              11.36870865                8.12596427               74.93583474                0.49878370                0.01096476                0.01100505               -0.03662171               -0.00015164                0.13304707               -0.00001481
              12.36894218                8.12512552               74.79254983                0.49962859                0.03574605                0.03578432               -0.11922248               -0.00012411                0.12468520               -0.00159829
              13.36942357                8.12428226               74.64914898                0.50150176                0.06054020                0.06056869               -0.20183264               -0.00006800                0.10698263               -0.00365215
              14.37015299                8.12343504               74.50554792                0.50444329                0.08532630                0.08536749               -0.28444910                0.00003211                0.07983163               -0.00670216
              15.37113010                8.12258413               74.36166147                0.50851118                0.11006055                0.11026217               -0.36706272                0.00012346                0.04341464               -0.01173130
              16.37235420                8.12172817               74.21740896                0.75590389                0.12241002                0.13528707               -0.44965701                0.00036161                0.02029630               -0.02023845
               6.37194124                9.12894496               75.65081773                0.75670499               -0.09989506               -0.11302827                0.37446709               -0.00018329                0.01844938                0.01345931
               7.37094229                9.12838697               75.50644391                0.50778190               -0.08760704               -0.08742039                0.29188273               -0.00000928                0.05956821                0.00449563
               8.37018910                9.12781961               75.36281397                0.50239609               -0.06285904               -0.06281047                0.20938969               -0.00013000                0.11143231                0.00294544
               9.36968511                9.12724395               75.21941827                0.50018900               -0.03802104               -0.03805382                0.12684906               -0.00016069                0.13205683                0.00172710
              10.36942868                9.12666294               75.07616126                0.49902480               -0.01327270               -0.01327998                0.04428199               -0.00012360                0.14257160                0.00081650
              11.36941965                9.12607681               74.93295575                0.49886729                0.01146916                0.01150567               -0.03830214               -0.00010570                0.14347380                0.00001109
              12.36965806                9.12548587               74.78971612                0.49972394                0.03621985                0.03629458               -0.12089818               -0.00009139                0.13481364               -0.00086600
              13.37014405                9.12489045               74.64635622                0.50160035                0.06099345                0.06108243               -0.20350445               -0.00007398                0.11640920               -0.00203174
              14.37087793                9.12429100               74.50278678                0.50453570                0.08581202                0.08587200               -0.28611764               -0.00000243                0.08773212               -0.00384384
              15.37186029                9.12368903               74.35891109                0.50859662                0.11056708                0.11068265               -0.36873011                0.00011206                0.04809473               -0.00709829
              16.37308927                9.12308440               74.21462621                0.75594610                0.12289802                0.13604451               -0.45132829                0.00036281                0.02280008               -0.01474960
               6.37236922               10.12781510               75.64769511                0.87833329               -0.09910894               -0.11298572                0.37274482                0.01294727                0.02454294                0.01174536
               7.37137813               10.12751659               75.50331273                0.75387615               -0.08668153               -0.08703744                0.29015918                0.01249023                0.06942446                0.00343097
               8.37063559               10.12719322               75.35975011                0.75121002               -0.06198630               -0.06263898                0.20768030                0.01210692                0.12477160                0.00279951
               9.37013841               10.12686575               75.21641633                0.75011620               -0.03740175               -0.03782020                0.12515003                0.01229689                0.14518607                0.00164678
              10.36988756               10.12653256               75.07322296                0.74954339               -0.01274004               -0.01303809                0.04259284                0.01231970                0.15577992                0.00068702
              11.36988361               10.12619438               74.93008140                0.74946992                0.01195775                0.01175755               -0.03998216                0.01233743                0.15664834               -0.00022170
              12.37012671               10.12585141               74.78690515                0.74990032                0.03666818                0.03655340               -0.12256815                0.01234155                0.14785116               -0.00116956
              13.37061697               10.12550391               74.64360683                0.75083892                0.06138236                0.06134623               -0.20516552                0.01234520                0.12914428               -0.00227783
              14.37135436               10.12515248               74.50009504                0.75230447                0.08609809                0.08614791               -0.28777022                0.01233614                0.09984648               -0.00376304
              15.37233893               10.12479778               74.35626881                0.75432967                0.11081743                0.11087483               -0.37037415                0.01269326                0.05753964               -0.00605564
              16.37357071               10.12444906               74.21198837                0.87798728                0.12317763                0.13646575               -0.45297021                0.01327181                0.02998354               -0.01287249
               6.50162301                0.14208739               76.68079309                0.87908175               -0.10006875               -0.11284687                0.37417185               -0.01281901                0.02032569               -0.00508101
               7.50062232                0.13930062               76.53581118                0.75526834               -0.08819244               -0.08807908                0.29485605               -0.01211311                0.04805590               -0.00476363
               8.49985916                0.13652295               76.39130183                0.75220581               -0.06449179               -0.06448033                0.21558998               -0.01178632                0.08635356               -0.00179801
               9.49933249                0.13374090               76.24702332                0.75057136               -0.04081876               -0.04066233                0.13631702               -0.01186991                0.10678719               -0.00096876
              10.49904279                0.13095452               76.10287947                0.74966716               -0.01710122               -0.01687063                0.05703736               -0.01188080                0.11749296               -0.00037414
              11.49899046                0.12816322               75.95879134                0.74948013                0.00664220                0.00692791               -0.02224805               -0.01189063                0.11947506                0.00010284
              12.49917563                0.12536684               75.81468288                0.75000750                0.03039289                0.03072709               -0.10154057               -0.01189124                0.11293638                0.00053619
              13.49959832                0.12256523               75.67047920                0.75125610                0.05413959                0.05452338               -0.18084161               -0.01189404                0.09792507                0.00096910
              14.50025842                0.11975784               75.52610523                0.75324724                0.07788563                0.07833944               -0.26015218               -0.01186960                0.07436099                0.00145996
              15.50115604                0.11694436               75.38148447                0.75601348                0.10159939                0.10204013               -0.33947011               -0.01217573                0.04164865                0.00205764
              16.50229041                0.11411614               75.23652993                0.87912867                0.11343769                0.12673911               -0.41879505               -0.01219974                0.02030427                0.00401485
               6.50428160                1.14095893               76.67793699                0.75732906               -0.09981809               -0.11239599                0.37258821               -0.00030200                0.01631139               -0.00362150
               7.50328342                1.13841983               76.53293397                0.50902660               -0.08802179               -0.08792028                0.29326865               -0.00006571                0.04537469               -0.00437919
               8.50252116                1.13587815               76.38843037                0.50332201               -0.06427065               -0.06418481                0.21400031                0.00001614                0.08393556               -0.00106122
               9.50199800                1.13333427               76.24413607                0.50060253               -0.04041708               -0.04040757                0.13471876                0.00005942                0.10315256               -0.00020264
              10.50171282                1.13078581               76.09997392                0.49909989               -0.01663034               -0.01662251                0.05543023                0.00003421                0.11364531               -0.00001706
              11.50166540                1.12823250               75.95586611                0.49879094                0.00714453                0.00716999               -0.02386427                0.00001879                0.11550614               -0.00011519
              12.50185571                1.12567411               75.81173732                0.49966538                0.03092430                0.03096517               -0.10316595                0.00000802                0.10890236               -0.00033137
              13.50228388                1.12311047               75.66751309                0.50173976                0.05472279                0.05476091               -0.18247635               -0.00000294                0.09387335               -0.00055623
              14.50295017                1.12054124               75.52311890                0.50504996                0.07856216                0.07856475               -0.26179656               -0.00007539                0.07034023               -0.00065691
              15.50385513                1.11796476               75.37847873                0.50965442                0.10232308                0.10239439               -0.34112411               -0.00009961                0.03828656               -0.00037430
              16.50499663                1.11538353               75.23351776                0.75669475                0.11415020                0.12675831               -0.42045243                0.00026519                0.01756168                0.00122916
               6.50669517                2.13983948               76.67501755                0.75648234               -0.09933761               -0.11162636                0.37100154               -0.00033237                0.01318214               -0.00231553
               7.50570179                2.13754221               76.52999223                0.50750410               -0.08750629               -0.08757374                0.29168275               -0.00013866                0.04494885               -0.00286694
               8.50494504                2.13523925               76.38552078                0.50223411               -0.06378917               -0.06368574                0.21242517               -0.00006009                0.08481901               -0.00072205
               9.50442601                2.13293274               76.24123082                0.50006377               -0.03998959               -0.03991149                0.13313392                0.00001402                0.10206262                0.00013921
              10.50414525                2.13062207               76.09706171                0.49886827               -0.01617337               -0.01613054                0.05383159                0.00002404                0.11173739                0.00016372
              11.50410254                2.12830662               75.95294225                0.49862397                0.00762849                0.00765727               -0.02547814                0.00000755                0.11323751               -0.00021077
              12.50429782                2.12598615               75.80879967                0.49932276                0.03143006                0.03145067               -0.10479559               -0.00001469                0.10648683               -0.00077676
              13.50473114                2.12366045               75.66456126                0.50097678                0.05524029                0.05525134               -0.18412205               -0.00005730                0.09150058               -0.00138738
              14.50540263                2.12132914               75.52015456                0.50361524                0.07903006                0.07907186               -0.26345744               -0.00012601                0.06834187               -0.00186071
              15.50631174                2.11899225               75.37550812                0.50728777                0.10277689                0.10300812               -0.34279698               -0.00016205                0.03723462               -0.00185960
              16.50745816                2.11665131               75.23055391                0.75513496                0.11464202                0.12696974               -0.42212643                0.00013540                0.01714094               -0.00098486
               6.50886947                3.13872640               76.67209578                0.75642774               -0.09886068               -0.11103889                0.36940806               -0.00028781                0.01354779                0.00280579
               7.50788087                3.13666835               76.52707330                0.50742955               -0.08700221               -0.08715752                0.29009191               -0.00010481                0.04524637                0.00195396
               8.50712943                3.13460443               76.38260373                0.50219153               -0.06327002               -0.06326742                0.21083362               -0.00010467                0.08513983                0.00147345
               9.50661547                3.13253604               76.23831751                0.50003485               -0.03949995               -0.03944181                0.13153876               -0.00004596                0.10216788                0.00117238
              10.50633943                3.13046320               76.09414639                0.49885039               -0.01569970               -0.01564584                0.05222735               -0.00002389                0.11135107                0.00059735
              11.50630147                3.12838564               75.95002123                0.49861665                0.00810753                0.00814815               -0.02709340               -0.00002970                0.11254225               -0.00021971
              12.50650158                3.12630313               75.80587086                0.49932973                0.03191378                0.03194824               -0.10642273               -0.00005213                0.10561922               -0.00121045
              13.50693975                3.12421549               75.66162370                0.50100306                0.05571366                0.05576316               -0.18576058               -0.00008776                0.09059567               -0.00231517
              14.50761585                3.12212267               75.51720885                0.50366164                0.07949818                0.07961489               -0.26510574               -0.00012514                0.06758598               -0.00344635
              15.50852971                3.12002492               75.37255702                0.50735264                0.10326766                0.10350932               -0.34445130               -0.00010431                0.03680237               -0.00447971
              16.50968121                3.11792293               75.22760152                0.75517236                0.11514956                0.12738346               -0.42378135                0.00018834                0.01689274               -0.00533310
               6.51080550                4.13761870               76.66918750                0.75637326               -0.09838379               -0.11052064                0.36781121               -0.00026357                0.01373651                0.00832403
               7.50982166                4.13579906               76.52415632                0.50735476               -0.08651213               -0.08669025                0.28849530               -0.00006157                0.04581320                0.00551487
               8.50907526                4.13397390               76.37968602                0.50215347               -0.06276740               -0.06282154                0.20923568               -0.00008530                0.08615228                0.00379513
               9.50856632                4.13214391               76.23540044                0.50000974               -0.03900421               -0.03897943                0.12993721               -0.00007086                0.10322434                0.00239564
              10.50829518                4.13030915               76.09122987                0.49884161               -0.01521463               -0.01516497                0.05061950               -0.00006313                0.11230616                0.00112503
              11.50826202                4.12846958               75.94710373                0.49862327                0.00858742                0.00863839               -0.02870929               -0.00006716                0.11331134               -0.00019237
              12.50846692                4.12662511               75.80295059                0.49935238                0.03239092                0.03244661               -0.10804713               -0.00007761                0.10619132               -0.00165271
              13.50890984                4.12477572               75.65869891                0.50103632                0.05618868                0.05627316               -0.18739319               -0.00008938                0.09098144               -0.00332342
              14.50959070                4.12292143               75.51427796                0.50370936                0.07997792                0.08012586               -0.26674594               -0.00008969                0.06781227               -0.00525460
              15.51050940                4.12106243               75.36961879                0.50741922                0.10376081                0.10399343               -0.34609655               -0.00006099                0.03690366               -0.00747969
              16.51166591                4.11919898               75.22465508                0.75521104                0.11565131                0.12783979               -0.42542690                0.00021487                0.01693020               -0.01001511
               6.51250347                5.13651599               76.66628528                0.75632056               -0.09790413               -0.11003112                0.36620959               -0.00024819                0.01409570                0.01301510
               7.51152443                5.13493455               76.52123734                0.50728634               -0.08602959               -0.08621038                0.28689312               -0.00002250                0.04682390                0.00843602
               8.51078288                5.13334800               76.37676372                0.50212214               -0.06228145               -0.06234750                0.20763274               -0.00004895                0.08804741                0.00560859
               9.51027880                5.13175645               76.23247948                0.49999543               -0.03851902               -0.03850202                0.12833129               -0.00007067                0.10544569                0.00342001
              10.51001250                5.13015990               76.08831252                0.49884141               -0.01473139               -0.01468179                0.04900932               -0.00008852                0.11463199                0.00158650
              11.50998417                5.12855841               75.94419021                0.49864173                0.00906971                0.00912594               -0.03032531               -0.00009631                0.11555351               -0.00014917
              12.51019389                5.12695206               75.80003940                0.49937926                0.03287330                0.03293776               -0.10966935               -0.00009204                0.10819647               -0.00201106
              13.51064164                5.12534096               75.65578720                0.50107855                0.05667263                0.05676712               -0.18902199               -0.00007572                0.09262118               -0.00419932
              14.51132734                5.12372519               75.51136167                0.50376598                0.08046544                0.08061864               -0.26838028               -0.00005039                0.06897651               -0.00690567
              15.51225095                5.12210479               75.36669287                0.50748712                0.10425328                0.10447995               -0.34773508               -0.00002345                0.03750868               -0.01030370
              16.51341241                5.12047973               75.22171379                0.75525001                0.11614634                0.12831988               -0.42706729                0.00023503                0.01722855               -0.01452005
               6.51396341                6.13541807               76.66338043                0.75627059               -0.09742119               -0.10956195                0.36460324               -0.00023131                0.01465063                0.01660290
               7.51298920                6.13407486               76.51830793                0.50721743               -0.08555190               -0.08572520                0.28528452                0.00001913                0.04842084                0.01030294
               8.51225237                6.13272695               76.37383099                0.50209670               -0.06181013               -0.06184933                0.20602390               -0.00001076                0.09107315                0.00666007
               9.51175300                6.13137387               76.22955116                0.49999043               -0.03804619               -0.03800651                0.12672169               -0.00006958                0.10905991                0.00397547
              10.51149145                6.13001552               76.08539305                0.49885373               -0.01425280               -0.01419316                0.04739701               -0.00011140                0.11851484                0.00184196
              11.51146794                6.12865210               75.94128091                0.49866748                0.00955411                0.00961008               -0.03194095               -0.00012170                0.11941135               -0.00010408
              12.51168253                6.12728387               75.79713885                0.49942112                0.03336275                0.03341890               -0.11128946               -0.00010313                0.11175879               -0.00217875
              13.51213520                6.12591106               75.65289131                0.50112916                0.05716622                0.05724517               -0.19064671               -0.00006038                0.09562470               -0.00469413
              14.51282586                6.12453381               75.50846374                0.50382621                0.08095991                0.08109766               -0.27000870               -0.00000958                0.07116542               -0.00799067
              15.51375440                6.12315203               75.36378372                0.50756011                0.10474423                0.10496956               -0.34936632                0.00001687                0.03866571               -0.01242013
              16.51492074                6.12176538               75.21878237                0.75529056                0.11663467                0.12882229               -0.42870146                0.00025777                0.01781344               -0.01826458
               6.51518528                7.13432475               76.66045996                0.75621646               -0.09693497               -0.10912723                0.36299150               -0.00020317                0.01547543                0.01858084
               7.51421593                7.13322004               76.51535584                0.50715573               -0.08508157               -0.08522378                0.28366895                0.00006818                0.05080417                0.01066587
               8.51348365                7.13211101               76.37087884                0.50208023               -0.06135440               -0.06132245                0.20440965                0.00001008                0.09556767                0.00663529
               9.51298884                7.13099632               76.22660999                0.49999827               -0.03758050               -0.03750037                0.12510818               -0.00009202                0.11439534                0.00389235
              10.51273204                7.12987604               76.08246902                0.49888149               -0.01377273               -0.01370594                0.04578293               -0.00014060                0.12423925                0.00180669
              11.51271339                7.12875061               75.93837603                0.49871001                0.01004144                0.01009067               -0.03355621               -0.00014474                0.12513926               -0.00005894
              12.51293287                7.12762044               75.79425158                0.49947079                0.03385503                0.03389438               -0.11290727               -0.00011578                0.11713378               -0.00205888
              13.51339049                7.12648586               75.65001653                0.50119022                0.05766556                0.05771120               -0.19226656               -0.00005533                0.10025780               -0.00456718
              14.51408618                7.12534714               75.50559214                0.50389098                0.08146119                0.08155940               -0.27163054                0.00002655                0.07461933               -0.00806956
              15.51501971                7.12420418               75.36090143                0.50763181                0.10523464                0.10545756               -0.35099069                0.00006649                0.04052187               -0.01319902
              16.51619087                7.12305617               75.21587170                0.75533055                0.11711594                0.12935762               -0.43032899                0.00029138                0.01876584               -0.02053269
               6.51616875                8.13323553               76.65750504                0.75616463               -0.09644551               -0.10877262                0.36137201               -0.00015169                0.01671324                0.01825790
               7.51520430                8.13237038               76.51236363                0.50709002               -0.08462284               -0.08465876                0.28204466                0.00009623                0.05431214                0.00884030
               8.51447630                8.13150050               76.36789516                0.50207569               -0.06090845               -0.06077866                0.20278919               -0.00004331                0.10206192                0.00532306
               9.51398613                8.13062386               76.22364910                0.50001933               -0.03709719               -0.03701503                0.12349012               -0.00014139                0.12191050                0.00311413
              10.51373435                8.12974140               76.07953746                0.49892756               -0.01327393               -0.01322854                0.04416736               -0.00016166                0.13215907                0.00145542
              11.51372065                8.12885391               75.93547578                0.49877240                0.01053066                0.01056903               -0.03517103               -0.00014863                0.13306051               -0.00001481
              12.51394497                8.12796175               75.79138109                0.49954483                0.03433668                0.03437320               -0.11452154               -0.00012192                0.12468729               -0.00160453
              13.51440738                8.12706528               75.64717038                0.50126282                0.05815514                0.05818228               -0.19388081               -0.00006759                0.10697436               -0.00366467
              14.51510807                8.12616499               75.50275941                0.50396578                0.08196559                0.08200499               -0.27324504                0.00002947                0.07981656               -0.00672146
              15.51604670                8.12526118               75.35806306                0.50770514                0.10572598                0.10591949               -0.35260624                0.00011808                0.04340404               -0.01175854
              16.51722259                8.12435253               75.21300086                0.75536799                0.11758920                0.12995879               -0.43194859                0.00034710                0.02028672               -0.02027697
               6.51691255                9.13214929               76.65448883                0.75611062               -0.09596663               -0.10858258                0.35973860               -0.00017622                0.01846125                0.01347995
               7.51595288                9.13152687               76.50930540                0.50703762               -0.08416225               -0.08398298                0.28040585               -0.00000929                0.05963292                0.00450242
               8.51522930                9.13089544               76.36486676                0.50209020               -0.06038799               -0.06034193                0.20115946               -0.00012579                0.11152447                0.00295409
               9.51474512                9.13025602               76.22066188                0.50006580               -0.03652733               -0.03655932                0.12186658               -0.00015565                0.13211651                0.00173434
              10.51449876                9.12961147               76.07659542                0.49899612               -0.01275301               -0.01276039                0.04254886               -0.00012035                0.14261242                0.00082023
              11.51449006                9.12896199               75.93258031                0.49885314                0.01101515                0.01104993               -0.03678521               -0.00010328                0.14350075                0.00001120
              12.51471906                9.12830790               75.78853095                0.49963577                0.03479178                0.03486355               -0.11613147               -0.00008926                0.13482854               -0.00086940
              13.51518590                9.12764951               75.64436122                0.50135857                0.05859050                0.05867596               -0.19548697               -0.00007213                0.11641304               -0.00203893
              14.51589087                9.12698724               75.49998189                0.50405459                0.08243217                0.08248983               -0.27484848               -0.00000310                0.08772792               -0.00385562
              15.51683454                9.12632257               75.35529633                0.50778620                0.10621254                0.10632365               -0.35420832                0.00010727                0.04809112               -0.00711598
              16.51801512                9.12565535               75.21020171                0.75540879                0.11805798                0.13068672               -0.43355497                0.00034849                0.02279432               -0.01477868
               6.51741008               10.13106388               76.65134932                0.87803742               -0.09521117               -0.10854159                0.35808373                0.01243733                0.02456532                0.01176285
               7.51645797               10.13069072               76.50615732                0.75350714               -0.08327262               -0.08361490                0.27874941                0.01199798                0.06950715                0.00343555
               8.51574463               10.13029367               76.36178613                0.75105583               -0.05954907               -0.06017734                0.19951709                0.01163008                0.12488742                0.00280739
               9.51526699               10.12989267               76.21764329                0.75005433               -0.03593240               -0.03633491                0.12023449                0.01181268                0.14526634                0.00165311
              10.51502598               10.12948619               76.07364056                0.74952851               -0.01224160               -0.01252789                0.04092588                0.01183399                0.15584084                0.00068988
              11.51502215               10.12907491               75.92968949                0.74946291                0.01148429                0.01129190               -0.03839898                0.01185094                0.15669632               -0.00022197
              12.51525566               10.12865902               75.78570361                0.74985681                0.03522232                0.03511236               -0.11773633                0.01185508                0.14788733               -0.00117246
              13.51572660               10.12823880               75.64159556                0.75071734                0.05896393                0.05892942               -0.19708238                0.01185865                0.12916809               -0.00228329
              14.51643494               10.12781479               75.49727396                0.75206240                0.08270684                0.08275484               -0.27643525                0.01185005                0.09986075               -0.00377277
              15.51738074               10.12738765               75.35263792                0.75392382                0.10645311                0.10650843               -0.35578808                0.01219330                0.05755113               -0.00607039
              16.51856401               10.12696626               75.20754776                0.87771928                0.11832680                0.13109165               -0.43513285                0.01274936                0.02998994               -0.01289792
               6.64720487                0.14490059               77.68445810                0.87871540               -0.09596195               -0.10821520                0.35881456               -0.01229303                0.02034730               -0.00508259
               7.64624525                0.14213814               77.53869931                0.75477160               -0.08457342               -0.08446414                0.28275568               -0.01161599                0.04810990               -0.00476233
               8.64551340                0.13938441               77.39341355                0.75196563               -0.06184587               -0.06183455                0.20674377               -0.01130288                0.08643449               -0.00179172
               9.64500833                0.13662648               77.24835856                0.75046908               -0.03914443               -0.03899446                0.13072534               -0.01138327                0.10686659               -0.00096348
              10.64473051                0.13386439               77.10343818                0.74964412               -0.01640054               -0.01618007                0.05470170               -0.01139399                0.11756949               -0.00037097
              11.64468032                0.13109757               76.95857346                0.74947338                0.00636782                0.00664111               -0.02132754               -0.01140346                0.11954594                0.00010391
              12.64485787                0.12832589               76.81368834                0.74995478                0.02914314                0.02946282               -0.09736340               -0.01140392                0.11299856                0.00053521
              13.64526319                0.12554919               76.66870792                0.75109636                0.05191478                0.05228196               -0.17340784               -0.01140634                0.09797529                0.00096557
              14.64589617                0.12276697               76.52355711                0.75292040                0.07468557                0.07511994               -0.24946122               -0.01138266                0.07439741                0.00145426
              15.64675690                0.11997891               76.37815943                0.75545448                0.09742523                0.09784743               -0.32552202               -0.01167622                0.04167058                0.00205064
              16.64784467                0.11717673               76.23242792                0.87875790                0.10877729                0.12153277               -0.40159055               -0.01169912                0.02031394                0.00401259
               6.64984439                1.14381844               77.68158649                0.75666183               -0.09572107               -0.10778302                0.35729533               -0.00029020                0.01632260               -0.00361491
               7.64888718                1.14129350               77.53580654                0.50815174               -0.08440921               -0.08431178                0.28123260               -0.00006406                0.04541951               -0.00436932
               8.64815621                1.13876607               77.39052651                0.50292215               -0.06163324               -0.06155110                0.20521902                0.00001371                0.08400553               -0.00104188
               9.64765452                1.13623653               77.24545565                0.50043232               -0.03875892               -0.03875031                0.12919283                0.00005450                0.10321767               -0.00018685
              10.64738103                1.13370258               77.10051689                0.49906140               -0.01594891               -0.01594219                0.05316083                0.00002973                0.11370704               -0.00000786
              11.64733554                1.13116398               76.95563240                0.49877732                0.00684937                0.00687320               -0.02287710                0.00001491                0.11556208               -0.00011319
              12.64751802                1.12862052               76.81072686                0.49957750                0.02965231                0.02969111               -0.09892161                0.00000484                0.10894923               -0.00033675
              13.64792858                1.12607201               76.66572580                0.50147420                0.05247334                0.05250970               -0.17497516               -0.00000513                0.09390790               -0.00056922
              14.64856748                1.12351817               76.52055467                0.50450469                0.07533350                0.07533601               -0.25103774               -0.00007392                0.07036127               -0.00067695
              15.64943525                1.12095738               76.37513750                0.50872244                0.09811872                0.09818717               -0.32710775               -0.00009624                0.03829638               -0.00039901
              16.65052986                1.11839206               76.22939953                0.75607544                0.10946037                0.12155111               -0.40317987                0.00025417                0.01756224                0.00120846
               6.65224895                2.14274493               77.67865150                0.75588066               -0.09526051               -0.10704536                0.35577489               -0.00031930                0.01318930               -0.00230416
               7.65129634                2.14045191               77.53284926                0.50674888               -0.08391503               -0.08397956                0.27971186               -0.00013495                0.04499445               -0.00285047
               8.65057065                2.13815339               77.38760149                0.50191527               -0.06117169               -0.06107255                0.20370852               -0.00006145                0.08488510               -0.00069737
               9.65007291                2.13585147               77.24253489                0.49992968               -0.03834922               -0.03827490                0.12767395                0.00000846                0.10211166                0.00016029
              10.64980366                2.13354554               77.09758902                0.49883750               -0.01551091               -0.01547058                0.05162831                0.00001738                0.11177973                0.00017610
              11.64976269                2.13123503               76.95269273                0.49861414                0.00731333                0.00734034               -0.02442440                0.00000155                0.11327311               -0.00020864
              12.64994993                2.12891971               76.80777325                0.49925204                0.03013721                0.03015661               -0.10048420               -0.00001932                0.10651307               -0.00078553
              13.65036544                2.12659939               76.66275785                0.50076488                0.05296956                0.05297991               -0.17655313               -0.00005932                0.09151468               -0.00140643
              14.65100932                2.12427369               76.51757407                0.50318048                0.07578234                0.07582235               -0.25263085               -0.00012405                0.06834447               -0.00188886
              15.65188108                2.12194265               76.37215050                0.50654614                0.09855415                0.09877585               -0.32871260               -0.00015691                0.03723331               -0.00189338
              16.65298040                2.11960775               76.22641928                0.75463935                0.10993222                0.12175394               -0.40478530                0.00012943                0.01713594               -0.00101568
               6.65442406                3.14167753               77.67571413                0.75583098               -0.09480354               -0.10648228                0.35424790               -0.00027642                0.01355519                0.00282153
               7.65347602                3.13961391               77.52991475                0.50667777               -0.08343206               -0.08358093                0.27818806               -0.00010289                0.04529046                0.00197326
               8.65275542                3.13754462               77.38466886                0.50187615               -0.06067431               -0.06067188                0.20218431               -0.00010536                0.08520077                0.00149312
               9.65226254                3.13547103               77.23960596                0.49990020               -0.03788000               -0.03782476                0.12614534               -0.00005031                0.10220728                0.00118884
              10.65199782                3.13339317               77.09465799                0.49881875               -0.01505677               -0.01500598                0.05009053               -0.00002980                0.11138036                0.00060679
              11.65196140                3.13131078               76.94975590                0.49860683                0.00777273                0.00781093               -0.02597302               -0.00003544                0.11256315               -0.00021900
              12.65215327                3.12922365               76.80482850                0.49925692                0.03060105                0.03063379               -0.10204472               -0.00005640                0.10563068               -0.00121908
              13.65257342                3.12713161               76.65980424                0.50078862                0.05342349                0.05347082               -0.17812472               -0.00008947                0.09059617               -0.00233235
              14.65322174                3.12503461               76.51461221                0.50322277                0.07623145                0.07634318               -0.25421182               -0.00012368                0.06757711               -0.00347101
              15.65409805                3.12293290               76.36918320                0.50660346                0.09902521                0.09925673               -0.33030040               -0.00010193                0.03679392               -0.00450797
              16.65520225                3.12082714               76.22345067                0.75467450                0.11041941                0.12215095               -0.40637349                0.00017975                0.01688342               -0.00535945
               6.65637067                4.14061529               77.67279022                0.75578144               -0.09434671               -0.10598562                0.35271789               -0.00025342                0.01374323                0.00834583
               7.65542720                4.13878029               77.52698215                0.50661214               -0.08296253               -0.08313344                0.27665864               -0.00006215                0.04585584                0.00553629
               8.65471142                4.13693995               77.38173551                0.50184375               -0.06019266               -0.06024485                0.20065360               -0.00008755                0.08620939                0.00381422
               9.65422335                4.13509497               77.23667321                0.49988119               -0.03740504               -0.03738156                0.12461025               -0.00007471                0.10325694                0.00241038
              10.65396332                4.13324542               77.09172573                0.49881056               -0.01459203               -0.01454492                0.04854917               -0.00006796                0.11232651                0.00113312
              11.65393151                4.13139125               76.94682257                0.49861216                0.00823280                0.00828103               -0.02752248               -0.00007211                0.11332241               -0.00019241
              12.65412797                4.12953239               76.80189232                0.49927528                0.03105875                0.03111178               -0.10360283               -0.00008159                0.10619287               -0.00166096
              13.65455268                4.12766881               76.65686345                0.50081827                0.05387946                0.05396006               -0.17969128               -0.00009155                0.09097225               -0.00334032
              14.65520556                4.12580055               76.51166524                0.50326851                0.07669189                0.07683333               -0.25578565               -0.00008996                0.06779585               -0.00527859
              15.65608652                4.12392779               76.36622885                0.50666700                0.09949816                0.09972098               -0.33187825               -0.00006046                0.03689195               -0.00750780
              16.65719552                4.12205077               76.22048812                0.75471117                0.11090052                0.12258845               -0.40795177                0.00020491                0.01691991               -0.01004375
               6.65808899                5.13955782               77.66987234                0.75573498               -0.09388757               -0.10551662                0.35118425               -0.00023883                0.01410128                0.01304090
               7.65715011                5.13795124               77.52404749                0.50654779               -0.08250037               -0.08267384                0.27512411               -0.00002488                0.04686530                0.00845856
               8.65643898                5.13633972               77.37879752                0.50181482               -0.05972686               -0.05979054                0.19911708               -0.00005301                0.08810246                0.00562752
               9.65595557                5.13472340               77.23373652                0.49986782               -0.03693984               -0.03692396                0.12307083               -0.00007495                0.10547478                0.00343399
              10.65570018                5.13310227               77.08879261                0.49881428               -0.01412898               -0.01408159                0.04700530               -0.00009249                0.11464718                0.00159397
              11.65567300                5.13147640               76.94389322                0.49862473                0.00869495                0.00874869               -0.02907225               -0.00010004                0.11555882               -0.00014945
              12.65587408                5.12984588               76.79896525                0.49930502                0.03152160                0.03158280               -0.10515859               -0.00009534                0.10819141               -0.00201963
              13.65630343                5.12821081               76.65393578                0.50085986                0.05434398                0.05443374               -0.18125337               -0.00007841                0.09260582               -0.00421651
              14.65696096                5.12657128               76.50873294                0.50331882                0.07715970                0.07730602               -0.25735367               -0.00005270                0.06895574               -0.00692935
              15.65784662                5.12492732               76.36328687                0.50672898                0.09997056                0.10018753               -0.33344982               -0.00002478                0.03749390               -0.01033279
              16.65896037                5.12327890               76.21753075                0.75474734                0.11137518                0.12304853               -0.40952465                0.00022433                0.01721574               -0.01455321
               6.65957905                6.13850495               77.66695174                0.75568489               -0.09342489               -0.10506697                0.34964516               -0.00022266                0.01465733                0.01663154
               7.65864480                6.13712681               77.52110233                0.50648621               -0.08204281               -0.08220910                0.27358312                0.00001540                0.04846386                0.01032529
               8.65793820                6.13574414               77.37584903                0.50178944               -0.05927546               -0.05931324                0.19757587               -0.00001602                0.09112975                0.00667868
               9.65745929                6.13435649               77.23079244                0.49986347               -0.03648662               -0.03644908                0.12152826               -0.00007365                0.10908910                0.00398906
              10.65720846                6.13296379               77.08585734                0.49882418               -0.01366987               -0.01361321                0.04545961               -0.00011427                0.11852912                0.00184907
              11.65718590                6.13156622               76.94096810                0.49865278                0.00915959                0.00921299               -0.03062179               -0.00012395                0.11941472               -0.00010442
              12.65739166                6.13016404               76.79604882                0.49934206                0.03199109                0.03204437               -0.10671280               -0.00010539                0.11175131               -0.00218784
              13.65782572                6.12875748               76.65102398                0.50090566                0.05481737                0.05489239               -0.18281197               -0.00006342                0.09560755               -0.00471097
              14.65848800                6.12734667               76.50581907                0.50337535                0.07763397                0.07776561               -0.25891564               -0.00001326                0.07114367               -0.00801444
              15.65937840                6.12593154               76.36036175                0.50679545                0.10044177                0.10065737               -0.33501534                0.00001402                0.03865043               -0.01245070
              16.66049684                6.12451174               76.21458333                0.75478449                0.11184403                0.12353048               -0.41109323                0.00024633                0.01780048               -0.01830133
               6.66084082                7.13745648               77.66401549                0.75563824               -0.09295907               -0.10465006                0.34810067               -0.00019556                0.01548288                0.01861210
               7.65991123                7.13630706               77.51813441                0.50642660               -0.08159224               -0.08172850                0.27203486                0.00006312                0.05085023                0.01068741
               8.65920898                7.13515346               77.37288107                0.50177703               -0.05883877               -0.05880837                0.19602906                0.00000523                0.09562966                0.00665295
               9.65873446                7.13399442               77.22783546                0.49987319               -0.03604030               -0.03596399                0.11998171               -0.00009374                0.11442886                0.00390527
              10.65848817                7.13283001               77.08291751                0.49885109               -0.01320952               -0.01314617                0.04391236               -0.00014117                0.12425667                0.00181353
              11.65847026                7.13166066               76.93804739                0.49869506                0.00962728                0.00967382               -0.03217086               -0.00014520                0.12514458               -0.00005919
              12.65868072                7.13048677               76.79314570                0.49939476                0.03246329                0.03250054               -0.10826466               -0.00011680                0.11712795               -0.00206693
              13.65911953                7.12930866               76.64813333                0.50096253                0.05529623                0.05533981               -0.18436672               -0.00005788                0.10024285               -0.00458300
              14.65978664                7.12812659               76.50293158                0.50343461                0.07811500                0.07820898               -0.26047258                0.00002219                0.07459927               -0.00809284
              15.66068183                7.12694047               76.35746354                0.50686300                0.10091242                0.10112588               -0.33657427                0.00006229                0.04050793               -0.01323033
              16.66180489                7.12574951               76.21165672                0.75482040                0.11230586                0.12404430               -0.41265495                0.00027904                0.01875452               -0.02057363
               6.66187399                8.13641195               77.66104471                0.75559026               -0.09248958               -0.10430992                0.34654739               -0.00014593                0.01672232                0.01828701
               7.66094909                8.13549224               77.51512630                0.50637371               -0.08115239               -0.08118662                0.27047740                0.00009075                0.05436379                0.00885759
               8.66025094                8.13456798               77.36988152                0.50177478               -0.05841133               -0.05828693                0.19447525               -0.00004458                0.10213308                0.00533824
               9.65978087                8.13363721               77.22485873                0.49989769               -0.03557716               -0.03549876                0.11843080               -0.00013949                0.12195253                0.00312483
              10.65953940                8.13270087               77.07997012                0.49889822               -0.01273164               -0.01268834                0.04236324               -0.00015940                0.13218396                0.00146132
              11.65952623                8.13175970               76.93513132                0.49875559                0.01009625                0.01013261               -0.03371941               -0.00014710                0.13307255               -0.00001487
              12.65974132                8.13081405               76.79025940                0.49946102                0.03292546                0.03295982               -0.10981290               -0.00012124                0.12468750               -0.00161061
              13.66018474                8.12986428               76.64527136                0.50103507                0.05576607                0.05579178               -0.18591531               -0.00006810                0.10696494               -0.00367745
              14.66085664                8.12891085               76.50008302                0.50350472                0.07859897                0.07863674               -0.26202202                0.00002615                0.07980178               -0.00674122
              15.66175672                8.12795405               76.35460934                0.50693204                0.10138395                0.10156934               -0.33812505                0.00011230                0.04339286               -0.01178588
              16.66288432                8.12699263               76.20876999                0.75485732                0.11276013                0.12462116               -0.41420893                0.00033256                0.02027609               -0.02031650
               6.66267733                9.13537028               77.65801250                0.75553976               -0.09203045               -0.10412809                0.34498177               -0.00016904                0.01847480                0.01350090
               7.66175702                9.13468333               77.51205202                0.50632664               -0.08071076               -0.08053876                0.26890659               -0.00001004                0.05969513                0.00451058
               8.66106311                9.13398772               77.36683716                0.50179211               -0.05791237               -0.05786817                0.19291248               -0.00012269                0.11161070                0.00296310
               9.66059878                9.13328444               77.22185560                0.49994481               -0.03503063               -0.03506174                0.11687397               -0.00015161                0.13217184                0.00174070
              10.66036250                9.13257624               77.07701223                0.49897022               -0.01223190               -0.01223943                0.04081105               -0.00011749                0.14265016                0.00082382
              11.66035414                9.13186332               76.93222004                0.49883989                0.01056070                0.01059379               -0.03526708               -0.00010100                0.14352491                0.00001128
              12.66057371                9.13114597               76.78739350                0.49955379                0.03336172                0.03343013               -0.11135712               -0.00008748                0.13484091               -0.00087348
              13.66102137                9.13042450               76.64244648                0.50112679                0.05618366                0.05626526               -0.18745569               -0.00007050                0.11641514               -0.00204660
              14.66169739                9.12969933               76.49728981                0.50359040                0.07904639                0.07910167               -0.26355933               -0.00000367                0.08772345               -0.00386727
              15.66260230                9.12897185               76.35182692                0.50700713                0.10185032                0.10195692               -0.33966092                0.00010254                0.04808705               -0.00713273
              16.66373439                9.12824194               76.20595511                0.75489218                0.11320937                0.12531914               -0.41574874                0.00033372                0.02278801               -0.01480551
               6.66324452               10.13432939               77.65485679                0.87775387               -0.09130639               -0.10408918                0.34339600                0.01192683                0.02458687                0.01178250
               7.66233146               10.13388147               77.50888772                0.75315363               -0.07985764               -0.08018603                0.26731903                0.01150452                0.06958517                0.00344137
               8.66164737               10.13341061               77.36374045                0.75090729               -0.05710750               -0.05771043                0.19133763                0.01115130                0.12499562                0.00281451
               9.66118931               10.13293598               77.21882102                0.74999528               -0.03445962               -0.03484648                0.11530825                0.01132643                0.14534175                0.00165815
              10.66095818               10.13245608               77.07404148                0.74951415               -0.01174091               -0.01201654                0.03925462                0.01134733                0.15589833                0.00069254
              11.66095449               10.13197157               76.92931342                0.74945584                0.01101077                0.01082578               -0.03681431                0.01136401                0.15673965               -0.00022211
              12.66117839               10.13148266               76.78455042                0.74981469                0.03377423                0.03366878               -0.11289593                0.01136814                0.14791888               -0.00117668
              13.66162997               10.13098958               76.63966518                0.75060107                0.05654119                0.05650841               -0.18898575                0.01137156                0.12918993               -0.00229017
              14.66230921               10.13049288               76.49456634                0.75182893                0.07930935                0.07935573               -0.26508056                0.01136334                0.09987488               -0.00378190
              15.66321616               10.12999319               76.34915305                0.75353138                0.10208059                0.10213393               -0.34117477                0.01169243                0.05756212               -0.00608370
              16.66435083               10.12949901               76.20328571                0.87745948                0.11346662                0.12570723               -0.41726111                0.01222516                0.02999630               -0.01292009
               6.79354754                0.14772897               78.68796938                0.87836180               -0.09184689               -0.10357466                0.34342714               -0.01176602                0.02036843               -0.00508392
               7.79262908                0.14499091               78.54146630                0.75429524               -0.08094683               -0.08084165                0.27062970               -0.01111811                0.04816232               -0.00476063
               8.79192861                0.14226119               78.39543671                0.75173435               -0.05919418               -0.05918298                0.19787813               -0.01081879                0.08651341               -0.00178507
               9.79144519                0.13952743               78.24963782                0.75037196               -0.03746667               -0.03732312                0.12512173               -0.01089610                0.10694434               -0.00095825
              10.79117927                0.13678969               78.10397350                0.74962022               -0.01569844               -0.01548765                0.05236000               -0.01090641                0.11764456               -0.00036772
              11.79113122                0.13404742               77.95836479                0.74946427                0.00609332                0.00635408               -0.02040651               -0.01091541                0.11961602                0.00010484
              12.79130114                0.13130050               77.81273561                0.74990360                0.02789162                0.02819629               -0.09317914               -0.01091571                0.11306009                0.00053403
              13.79168906                0.12854880               77.66701105                0.75094443                0.04968597                0.05003614               -0.16596009               -0.01091794                0.09802522                0.00096231
              14.79229486                0.12579180               77.52111601                0.75260431                0.07147939                0.07189420               -0.23874971               -0.01089499                0.07443458                0.00144875
              15.79311864                0.12302924               77.37497403                0.75491657                0.09324334                0.09364685               -0.31154790               -0.01117550                0.04169321                0.00204238
              16.79415973                0.12025317               77.22849812                0.87840069                0.10410838                0.11631640               -0.38435392               -0.01119738                0.02032383                0.00400737
               6.79616795                1.14669323               78.68508290                0.75601938               -0.09161609               -0.10316117                0.34197297               -0.00027784                0.01633474               -0.00360722
               7.79525178                1.14418250               78.53855862                0.50731279               -0.08078926               -0.08069591                0.26917210               -0.00006240                0.04546369               -0.00435877
               8.79455216                1.14166937               78.39253475                0.50253629               -0.05899008               -0.05891192                0.19641922                0.00001036                0.08407429               -0.00102259
               9.79407198                1.13915420               78.24671992                0.50027041               -0.03709716               -0.03708961                0.12365532                0.00004852                0.10328210               -0.00017123
              10.79381022                1.13663481               78.10103713                0.49902203               -0.01526602               -0.01526016                0.05088567                0.00002446                0.11376834                0.00000125
              11.79376666                1.13411096               77.95540856                0.49876331                0.00655393                0.00657612               -0.02188907                0.00001018                0.11561814               -0.00011138
              12.79394130                1.13158247               77.80975889                0.49949162                0.02837826                0.02841481               -0.09467000                0.00000100                0.10899644               -0.00034233
              13.79433423                1.12904916               77.66401359                0.50121975                0.05021968                0.05025415               -0.16745950               -0.00000786                0.09394300               -0.00058207
              14.79494569                1.12651074               77.51809815                0.50398025                0.07209873                0.07210110               -0.24025823               -0.00007263                0.07038288               -0.00069692
              15.79577620                1.12396571               77.37193657                0.50783381                0.09390647                0.09397204               -0.31306498               -0.00009280                0.03830549               -0.00042443
              16.79682382                1.12141634               77.22545417                0.75548163                0.10476165                0.11633400               -0.38587419                0.00024303                0.01756087                0.00118619
               6.79856345                2.14566575               78.68213305                0.75530375               -0.09117589               -0.10245564                0.34051902               -0.00030605                0.01319650               -0.00229097
               7.79765169                2.14337700               78.53558646                0.50602254               -0.08031698               -0.08037840                0.26771823               -0.00013172                0.04503896               -0.00283254
               8.79695711                2.14108296               78.38959495                0.50160850               -0.05854889               -0.05845439                0.19497539               -0.00006413                0.08495018               -0.00067211
               9.79648071                2.13878564               78.24378430                0.49980203               -0.03670526               -0.03663487                0.12220243                0.00000152                0.10216043                0.00018154
              10.79622301                2.13648449               78.09809428                0.49880459               -0.01484694               -0.01480903                0.04941962                0.00000933                0.11182225                0.00018842
              11.79618377                2.13417894               77.95245376                0.49860201                0.00699796                0.00702308               -0.02336971               -0.00000608                0.11330961               -0.00020665
              12.79636296                2.13186880               77.80678999                0.49918414                0.02884240                0.02886031               -0.09616560               -0.00002537                0.10654032               -0.00079451
              13.79676062                2.12955388               77.66103020                0.50056286                0.05069471                0.05070424               -0.16896995               -0.00006233                0.09152983               -0.00142593
              14.79737686                2.12723382               77.51510194                0.50276399                0.07252854                0.07256671               -0.24178351               -0.00012245                0.06834794               -0.00191748
              15.79821119                2.12490868               77.36893387                0.50583408                0.09432348                0.09453558               -0.31460164               -0.00015205                0.03723165               -0.00192773
              16.79926333                2.12257985               77.22245821                0.75416635                0.10521346                0.11652838               -0.38741106                0.00012300                0.01712929               -0.00104617
               6.80073934                3.14464412               78.67918074                0.75525698               -0.09073912               -0.10191724                0.33905954               -0.00026553                0.01356294                0.00283841
               7.79983195                3.14257493               78.53263706                0.50596046               -0.07985522               -0.07999749                0.26626180               -0.00010196                0.04533340                0.00199401
               8.79914223                3.14050028               78.38664741                0.50157340               -0.05807316               -0.05807120                0.19351784               -0.00010732                0.08526008                0.00151361
               9.79867048                3.13842151               78.24084042                0.49977535               -0.03625648               -0.03620421                0.12074016               -0.00005597                0.10224586                0.00120545
              10.79841710                3.13633863               78.09514820                0.49878764               -0.01441268               -0.01436447                0.04794841               -0.00003722                0.11140967                0.00061641
              11.79838223                3.13425142               77.94950177                0.49859231                0.00743744                0.00747345               -0.02485176               -0.00004293                0.11258519               -0.00021837
              12.79856585                3.13215967               77.80382996                0.49918970                0.02928649                0.02931694               -0.09765916               -0.00006238                0.10564305               -0.00122826
              13.79896796                3.13006324               77.65806121                0.50058046                0.05112945                0.05117423               -0.17047489               -0.00009235                0.09059771               -0.00235075
              14.79958844                3.12796208               77.51212461                0.50280225                0.07295864                0.07306537               -0.24329754               -0.00012311                0.06756940               -0.00349606
              15.80042713                3.12585642               77.36595101                0.50588927                0.09477457                0.09499598               -0.31612203               -0.00010017                0.03678586               -0.00453685
              16.80148393                3.12374691               77.21947405                0.75419964                0.10568004                0.11690859               -0.38893256                0.00017079                0.01687380               -0.00538688
               6.80269651                4.14362741               78.67624186                0.75521478               -0.09030216               -0.10144182                0.33759594               -0.00024379                0.01375017                0.00836755
               7.80179349                4.14177705               78.52968949                0.50589964               -0.07940617               -0.07956946                0.26479889               -0.00006321                0.04589678                0.00555846
               8.80110839                4.13992153               78.38369909                0.50154543               -0.05761265               -0.05766254                0.19205325               -0.00009107                0.08626387                0.00383383
               9.80064124                4.13806156               78.23789264                0.49975522               -0.03580226               -0.03578011                0.11927156               -0.00008061                0.10328851                0.00242500
              10.80039234                4.13619720               78.09220086                0.49878125               -0.01396804               -0.01392329                0.04647374               -0.00007508                0.11234707                0.00114120
              11.80036188                4.13432841               77.94655328                0.49859922                0.00787768                0.00792339               -0.02633463               -0.00007907                0.11333412               -0.00019278
              12.80054990                4.13245514               77.80087854                0.49920276                0.02972474                0.02977464               -0.09915122               -0.00008735                0.10619483               -0.00167041
              13.80095637                4.13057736               77.65510508                0.50061088                0.05156617                0.05164280               -0.17197557               -0.00009518                0.09096472               -0.00335791
              14.80158122                4.12869513               77.50916224                0.50284310                0.07339955                0.07353473               -0.24480479               -0.00009165                0.06778116               -0.00530338
              15.80242436                4.12680860               77.36298122                0.50594476                0.09522758                0.09544054               -0.31763331               -0.00006092                0.03687932               -0.00753646
              16.80348577                4.12491803               77.21649605                0.75423044                0.10614093                0.11732728               -0.39044418                0.00019482                0.01690733               -0.01007295
               6.80443518                5.14261528               78.67330896                0.75517079               -0.08986270               -0.10099276                0.33612837               -0.00022973                0.01410820                0.01306756
               7.80353656                5.14098354               78.52673983                0.50584407               -0.07896416               -0.07912985                0.26333095               -0.00002770                0.04690537                0.00848247
               8.80285590                5.13934703               78.38074606                0.50151583               -0.05716758               -0.05722807                0.19058403               -0.00005833                0.08815464                0.00564763
               9.80239320                5.13770590               78.23494089                0.49974587               -0.03535764               -0.03534244                0.11779937               -0.00008123                0.10550256                0.00344879
              10.80214875                5.13606017               78.08925263                0.49878179               -0.01352488               -0.01347994                0.04499641               -0.00009905                0.11466231                0.00160142
              11.80212271                5.13440989               77.94360876                0.49861238                0.00832026                0.00837100               -0.02781791               -0.00010608                0.11556428               -0.00015037
              12.80231515                5.13275517               77.79793623                0.49922878                0.03016784                0.03022588               -0.10064154               -0.00010066                0.10818760               -0.00202926
              13.80272606                5.13109610               77.65216213                0.50064640                0.05201103                0.05209653               -0.17347166               -0.00008314                0.09259222               -0.00423397
              14.80335537                5.12943277               77.50621459                0.50289128                0.07384775                0.07398743               -0.24630641               -0.00005632                0.06893607               -0.00695465
              15.80420302                5.12776523               77.36002387                0.50600310                0.09568020                0.09588740               -0.31913881               -0.00002681                0.03747971               -0.01036379
              16.80526898                5.12609345               77.21352330                0.75426586                0.10659580                0.11776760               -0.39195074                0.00021342                0.01720348               -0.01458730
               6.80595539                6.14160755               78.67037333                0.75512660               -0.08942063               -0.10056288                0.33465794               -0.00021394                0.01466409                0.01666241
               7.80506119                6.14019445               78.52377959                0.50578504               -0.07852679               -0.07868585                0.26185849                0.00001096                0.04850455                0.01034987
               8.80438486                6.13877697               78.37778251                0.50149670               -0.05673590               -0.05677204                0.18911114               -0.00002262                0.09118303                0.00669923
               9.80392647                6.13735471               78.23198173                0.49974191               -0.03492426               -0.03488845                0.11632455               -0.00007940                0.10911636                0.00400376
              10.80368637                6.13592760               78.08630224                0.49879533               -0.01308571               -0.01303182                0.04351757               -0.00011904                0.11854200                0.00185643
              11.80366476                6.13449583               77.94066848                0.49863928                0.00876506                0.00881547               -0.02930130               -0.00012812                0.11941731               -0.00010539
              12.80386167                6.13305966               77.79500459                0.49926691                0.03061729                0.03066782               -0.10212953               -0.00010973                0.11174438               -0.00219716
              13.80427710                6.13161930               77.64923507                0.50069254                0.05246435                0.05253587               -0.17496441               -0.00006847                0.09559124               -0.00472912
              14.80491096                6.13017488               77.50328543                0.50294198                0.07430225                0.07442794               -0.24780353               -0.00001830                0.07112171               -0.00804027
              15.80576315                6.12872635               77.35708341                0.50606575                0.09613181                0.09633759               -0.32063893                0.00001058                0.03863439               -0.01248323
              16.80683360                6.12727338               77.21056050                0.75430011                0.10704511                0.11822917               -0.39345352                0.00023459                0.01778655               -0.01834026
               6.80725711                7.14060402               78.66742197                0.75508320               -0.08897541               -0.10016440                0.33318135               -0.00018799                0.01549000                0.01864347
               7.80636735                7.13940982               78.52079653                0.50573231               -0.07809610               -0.07822668                0.26037898                0.00005713                0.05089383                0.01070978
               8.80569519                7.13821159               78.37479943                0.50148601               -0.05631839               -0.05628952                0.18763273               -0.00000133                0.09568723                0.00667169
               9.80524099                7.13700813               78.22900962                0.49975239               -0.03449724               -0.03442454                0.11484531               -0.00009738                0.11445914                0.00391867
              10.80500524                7.13579953               78.08334727                0.49882517               -0.01264504               -0.01258504                0.04203738               -0.00014322                0.12427160                0.00182052
              11.80498809                7.13458620               77.93773261                0.49868235                0.00921256                0.00925665               -0.03078427               -0.00014695                0.12514805               -0.00005994
              12.80518949                7.13336852               77.79208629                0.49931835                0.03106922                0.03110450               -0.10361473               -0.00011927                0.11712093               -0.00207559
              13.80560947                7.13214682               77.64632920                0.50074619                0.05292299                0.05296438               -0.17645324               -0.00006175                0.10022664               -0.00459998
              14.80624795                7.13092133               77.50038269                0.50299927                0.07476304                0.07485288               -0.24929556                0.00001663                0.07457885               -0.00811788
              15.80710473                7.12969198               77.35416994                0.50612602                0.09658273                0.09678657               -0.32213305                0.00005721                0.04049331               -0.01326260
              16.80817961                7.12845804               77.20761861                0.75433280                0.10748763                0.11872140               -0.39495025                0.00026598                0.01874150               -0.02061321
               6.80834003                8.13960426               78.66443599                0.75503895               -0.08852646               -0.09983919                0.33169573               -0.00014057                0.01673168                0.01831629
               7.80745477                8.13862992               78.51777318                0.50568367               -0.07767548               -0.07770840                0.25888921                0.00008415                0.05441312                0.00887454
               8.80678652                8.13765118               78.37178467                0.50148709               -0.05590949               -0.05579064                0.18614617               -0.00004733                0.10219971                0.00535290
               9.80633658                8.13666622               78.22601772                0.49978182               -0.03405393               -0.03397939                0.11336138               -0.00013906                0.12199038                0.00313625
              10.80610544                8.13567590               78.08038472                0.49887328               -0.01218754               -0.01214689                0.04055468               -0.00015877                0.13220510                0.00146702
              11.80609283                8.13468097               77.93480139                0.49874163                0.00966151                0.00969585               -0.03226656               -0.00014704                0.13308172               -0.00001510
              12.80629867                8.13368175               77.78918483                0.49938578                0.03151163                0.03154431               -0.10509725               -0.00012166                0.12468600               -0.00161785
              13.80672306                8.13267858               77.64345208                0.50081625                0.05337278                0.05339723               -0.17793607               -0.00006972                0.10695354               -0.00369111
              14.80736613                8.13167194               77.49751896                0.50306771                0.07522646                0.07526250               -0.25077898                0.00002176                0.07978544               -0.00676163
              15.80822759                8.13066208               77.35130056                0.50619000                0.09703421                0.09721140               -0.32361817                0.00010585                0.04338247               -0.01181406
              16.80930681                8.12964781               77.20471668                0.75436559                0.10792251                0.11927389               -0.39643869                0.00031767                0.02026776               -0.02035442
               6.80920299                9.13860724               78.66138847                0.75499285               -0.08808734               -0.09966564                0.33019891               -0.00016246                0.01848560                0.01352232
               7.80832212                9.13785566               78.51468353                0.50564491               -0.07725281               -0.07708828                0.25738600               -0.00001108                0.05975268                0.00451914
               8.80765794                9.13709577               78.36872501                0.50150761               -0.05543165               -0.05538989                0.18465009               -0.00011971                0.11169217                0.00297218
               9.80721349                9.13632855               78.22299936                0.49982900               -0.03353092               -0.03356126                0.11187175               -0.00014808                0.13222301                0.00174768
              10.80698732                9.13555659               78.07741164                0.49894230               -0.01170952               -0.01171712                0.03906892               -0.00011614                0.14268330                0.00082720
              11.80697930                9.13478012               77.93187496                0.49882623                0.01010614                0.01013725               -0.03374786               -0.00010047                0.14354550                0.00001145
              12.80718944                9.13399941               77.78630381                0.49947510                0.03192943                0.03199461               -0.10657564               -0.00008721                0.13485039               -0.00087745
              13.80761789                9.13321476               77.64061211                0.50090436                0.05377248                0.05385068               -0.17941122               -0.00007026                0.11641495               -0.00205461
              14.80826489                9.13242658               77.49471071                0.50314646                0.07565472                0.07570778               -0.25225102               -0.00000532                0.08771712               -0.00387909
              15.80913098                9.13163621               77.34850311                0.50625927                0.09748082                0.09758291               -0.32508936                0.00009744                0.04808314               -0.00714954
              16.81021451                9.13084351               77.20188674                0.75439819                0.10835279                0.11994250               -0.39791328                0.00031938                0.02278390               -0.01483307
               6.80983995               10.13761095               78.65821724                0.87748237               -0.08739368               -0.09962867                0.32868081                0.01141511                0.02460644                0.01180128
               7.80896601               10.13708815               78.51150370                0.75281071               -0.07643548               -0.07675056                0.25586614                0.01101050                0.06965840                0.00344806
               8.80831124               10.13654338               78.36561289                0.75076877               -0.05466077               -0.05523899                0.18314277                0.01067203                0.12509781                0.00282260
               9.80787279               10.13599499               78.21994946                0.74993697               -0.03298439               -0.03335535                0.11037329                0.01083934                0.14541232                0.00166340
              10.80765155               10.13544156               78.07442565                0.74950246               -0.01123964               -0.01150374                0.03757918                0.01085883                0.15595113                0.00069521
              11.80764800               10.13488371               77.92895320                0.74944642                0.01053679                0.01035928               -0.03522862                0.01087455                0.15677933               -0.00022194
              12.80786228               10.13432164               77.78344569                0.74977268                0.03232399                0.03222302               -0.10804806                0.01087858                0.14794679               -0.00117944
              13.80829448               10.13375560               77.63781584                0.75048654                0.05411442                0.05408352               -0.18087570                0.01088222                0.12920801               -0.00229627
              14.80894457               10.13318609               77.49197235                0.75160646                0.07590622                0.07595118               -0.25370783                0.01087519                0.09988656               -0.00379118
              15.80981261               10.13261374               77.34581442                0.75315727                0.09770116                0.09775272               -0.32653899                0.01119066                0.05757240               -0.00609633
              16.81089860               10.13204666               77.19920253                0.87721118                0.10859908                0.12031433               -0.39936127                0.01170065                0.03000301               -0.01294293
               6.94061841                0.15057189               79.69132665                0.87802549               -0.08772366               -0.09892533                0.32800933               -0.01123814                0.02038790               -0.00508519
               7.93974117                0.14785828               79.54411191                0.75383840               -0.07731321               -0.07721205                0.25847943               -0.01061964                0.04821268               -0.00475872
               8.93907215                0.14515263               79.39737111                0.75151162               -0.05653743               -0.05652626                0.18899508               -0.01033398                0.08659065               -0.00177821
               9.93861043                0.14244311               79.25086099                0.75027890               -0.03578535               -0.03564817                0.11950603               -0.01040820                0.10702124               -0.00095308
              10.93835644                0.13972977               79.10448538                0.74959701               -0.01499448               -0.01479355                0.05001267               -0.01041824                0.11771909               -0.00036458
              11.93831054                0.13701211               78.95816533                0.74945540                0.00581873                0.00606687               -0.01948500               -0.01042672                0.11968620                0.00010577
              12.93847281                0.13429002               78.81182476                0.74985555                0.02663791                0.02692776               -0.08898822               -0.01042693                0.11312217                0.00053269
              13.93884329                0.13156336               78.66538872                0.75079556                0.04745315                0.04778647               -0.15849924               -0.01042872                0.09807591                0.00095870
              14.93942188                0.12883166               78.51878212                0.75230291                0.06826770                0.06866285               -0.22801937               -0.01040638                0.07447128                0.00144254
              15.94020865                0.12609467               78.37192848                0.75440283                0.08905409                0.08943880               -0.29754842               -0.01067386                0.04171474                0.00203583
              16.94120296                0.12334479               78.22474084                0.87805932                0.09943106                0.11109066               -0.36708576               -0.01069482                0.02033289                0.00400620
               6.94321964                1.14958263               79.68842595                0.75540551               -0.08750311               -0.09853068                0.32662132               -0.00026570                0.01634515               -0.00359937
               7.94234460                1.14708616               79.54118998                0.50650953               -0.07716215               -0.07707298                0.25708784               -0.00006118                0.04550619               -0.00434752
               8.94167639                1.14458737               79.39445490                0.50216866               -0.05634156               -0.05626749                0.18760185                0.00000664                0.08414196               -0.00100257
               9.94121777                1.14208663               79.24792876                0.50011316               -0.03543186               -0.03542530                0.11810596                0.00004190                0.10334623               -0.00015573
              10.94096776                1.13958184               79.10153460                0.49898515               -0.01458135               -0.01457641                0.04860502                0.00001833                0.11382984                0.00001019
              11.94092615                1.13707278               78.95519462                0.49875106                0.00625828                0.00627885               -0.02090029                0.00000474                0.11567495               -0.00010978
              12.94109292                1.13455930               78.80883346                0.49940929                0.02710188                0.02713641               -0.09041137               -0.00000374                0.10904485               -0.00034814
              13.94146818                1.13204122               78.66237661                0.50097654                0.04796185                0.04799467               -0.15993058               -0.00001117                0.09397936               -0.00059517
              14.94205216                1.12951829               78.51574951                0.50347922                0.06885809                0.06886036               -0.22945934               -0.00007160                0.07040545               -0.00071725
              15.94284535                1.12698906               78.36887620                0.50697824                0.08968648                0.08974926               -0.29899649               -0.00008951                0.03831625               -0.00044903
              16.94384589                1.12445570               78.22168204                0.75491394                0.10005419                0.11110745               -0.36853596                0.00023165                0.01756177                0.00116591
               6.94560604                2.14860127               79.68546188                0.75475333               -0.08708301               -0.09785724                0.32523368               -0.00029322                0.01320356               -0.00227665
               7.94473521                2.14631682               79.53820362                0.50533191               -0.07671157               -0.07677002                0.25570063               -0.00012910                0.04508267               -0.00281318
               8.94407181                2.14402728               79.39150100                0.50131506               -0.05592088               -0.05583073                0.18622442               -0.00006782                0.08501378               -0.00064609
               9.94361680                2.14173460               79.24497894                0.49967655               -0.03505800               -0.03499126                0.11671957               -0.00000708                0.10220892                0.00020257
              10.94337065                2.13943824               79.09857741                0.49877823               -0.01418117               -0.01414580                0.04720557               -0.00000055                0.11186538                0.00020066
              11.94333317                2.13713769               78.95222534                0.49859209                0.00668219                0.00670562               -0.02231405               -0.00001519                0.11334685               -0.00020514
              12.94350430                2.13483275               78.80584994                0.49911837                0.02754505                0.02756190               -0.09183982               -0.00003303                0.10656923               -0.00080396
              13.94388407                2.13252325               78.65937845                0.50036596                0.04841578                0.04842458               -0.16137376               -0.00006676                0.09154688               -0.00144610
              14.94447261                2.13020887               78.51273839                0.50236632                0.06926892                0.06930499               -0.23091634               -0.00012175                0.06835292               -0.00194680
              15.94526945                2.12788965               78.36585847                0.50515568                0.09008485                0.09028733               -0.30046413               -0.00014744                0.03723203               -0.00196248
              16.94627431                2.12556694               78.21867106                0.75371443                0.10048563                0.11129302               -0.37000356                0.00011641                0.01712527               -0.00107853
               6.94778268                3.14762549               79.68249532                0.75471070               -0.08666631               -0.09734318                0.32384140               -0.00025497                0.01356963                0.00285697
               7.94691601                3.14555076               79.53523999                0.50527413               -0.07627106               -0.07640661                0.25431096               -0.00010202                0.04537461                0.00201607
               8.94625725                3.14347076               79.38853922                0.50128398               -0.05546713               -0.05546501                0.18483359               -0.00011121                0.08531743                0.00153454
               9.94580667                3.14138680               79.24202077                0.49965130               -0.03462981               -0.03458016                0.11532401               -0.00006396                0.10228444                0.00122255
              10.94556466                3.13929892               79.09561696                0.49876092               -0.01376643               -0.01372139                0.04580108               -0.00004715                0.11143952                0.00062610
              11.94553134                3.13720689               78.94925886                0.49858638                0.00710193                0.00713570               -0.02372931               -0.00005259                0.11260780               -0.00021822
              12.94570670                3.13511053               78.80287531                0.49912224                0.02796911                0.02799811               -0.09326664               -0.00007022                0.10565705               -0.00123821
              13.94609072                3.13300971               78.65639474                0.50038468                0.04883122                0.04887356               -0.16281178               -0.00009728                0.09060099               -0.00237029
              14.94668332                3.13090439               78.50974626                0.50239736                0.06968019                0.06978155               -0.23236402               -0.00012414                0.06756347               -0.00352292
              15.94748433                3.12879480               78.36286076                0.50520456                0.09051606                0.09072736               -0.30191725               -0.00009917                0.03677877               -0.00456743
              16.94849364                3.12668156               78.21567202                0.75374327                0.10093150                0.11165643               -0.37145743                0.00016151                0.01686412               -0.00541620
               6.94975040                4.14665441               79.67954214                0.75467147               -0.08624965               -0.09688930                0.32244525               -0.00023437                0.01375638                0.00839073
               7.94888791                4.14478869               79.53227812                0.50521839               -0.07584284               -0.07599843                0.25291575               -0.00006590                0.04593573                0.00558196
               8.94823355                4.14291798               79.38557657                0.50125680               -0.05502776               -0.05507514                0.18343618               -0.00009706                0.08631661                0.00385472
               9.94778735                4.14104300               79.23905864                0.49963544               -0.03419638               -0.03417546                0.11392261               -0.00008872                0.10332012                0.00244111
              10.94754962                4.13916382               79.09265520                0.49875369               -0.01334210               -0.01330017                0.04439326               -0.00008462                0.11236754                0.00114954
              11.94752051                4.13728040               78.94629587                0.49858916                0.00752255                0.00756541               -0.02514563               -0.00008867                0.11334585               -0.00019336
              12.94770007                4.13539271               78.79990930                0.49913795                0.02838802                0.02843534               -0.09469199               -0.00009557                0.10619761               -0.00168104
              13.94808827                4.13350072               78.65342394                0.50040937                0.04924857                0.04932141               -0.16424592               -0.00010107                0.09095790               -0.00337755
              14.94868504                4.13160450               78.50676914                0.50243965                0.07010165                0.07023037               -0.23380507               -0.00009498                0.06776769               -0.00532984
              15.94949030                4.12970420               78.35987618                0.50525458                0.09094936                0.09115267               -0.30336306               -0.00006243                0.03686891               -0.00756771
              16.95050403                4.12780007               78.21267923                0.75377357                0.10137255                0.11205710               -0.37290442                0.00018411                0.01689695               -0.01010446
               6.95150943                5.14568770               79.67659490                0.75463089               -0.08583089               -0.09646082                0.32104628               -0.00022097                0.01411421                0.01309583
               7.95065112                5.14403079               79.52931411                0.50516758               -0.07542136               -0.07557945                0.25151624               -0.00003212                0.04694341                0.00850825
               8.95000100                5.14236925               79.38260920                0.50123484               -0.05460299               -0.05466088                0.18203492               -0.00006609                0.08820505                0.00566973
               9.94955906                5.14070329               79.23609251                0.49962768               -0.03377203               -0.03375784                0.11251783               -0.00008975                0.10552936                0.00346490
              10.94932556                5.13903292               79.08969253                0.49875621               -0.01291923               -0.01287691                0.04298304               -0.00010779                0.11467655                0.00160917
              11.94930068                5.13735820               78.94333686                0.49860489                0.00794512                0.00799297               -0.02656236               -0.00011489                0.11556859               -0.00015148
              12.94948447                5.13567924               78.79695242                0.49915995                0.02881158                0.02886660               -0.09611623               -0.00010897                0.10818267               -0.00203997
              13.94987691                5.13399614               78.65046635                0.50044390                0.04967396                0.04975549               -0.16567719               -0.00009006                0.09257951               -0.00425367
              14.95047794                5.13230900               78.50380681                0.50247990                0.07053018                0.07066344               -0.23524112               -0.00006144                0.06891760               -0.00698174
              15.95128751                5.13061786               78.35690410                0.50531055                0.09138224                0.09158000               -0.30480272               -0.00002955                0.03746562               -0.01039631
              16.95230559                5.12892270               78.20969173                0.75380338                0.10180768                0.11247786               -0.37434576                0.00020207                0.01719083               -0.01462323
               6.95305981                6.14472519               79.67364490                0.75459131               -0.08540932               -0.09605061                0.31964413               -0.00020579                0.01466994                0.01669414
               7.95220571                6.14327710               79.52633950                0.50511606               -0.07500422               -0.07515620                0.25011227                0.00000535                0.04854300                0.01037655
               8.95155972                6.14182477               79.37963126                0.50121821               -0.05419115               -0.05422600                0.18063003               -0.00003138                0.09123317                0.00672137
               9.95112189                6.14036784               79.23311893                0.49962895               -0.03335843               -0.03332458                0.11111000               -0.00008758                0.10914078                0.00401928
              10.95089255                6.13890628               79.08672769                0.49877117               -0.01250007               -0.01244903                0.04157106               -0.00012658                0.11855268                0.00186416
              11.95087189                6.13744026               78.94038207                0.49862766                0.00836970                0.00841765               -0.02797927               -0.00013560                0.11941781               -0.00010680
              12.95105995                6.13597004               78.79400623                0.49919636                0.02924099                0.02928918               -0.09753863               -0.00011706                0.11173562               -0.00220729
              13.95145671                6.13449583               78.64752469                0.50048810                0.05010753                0.05017570               -0.16710461               -0.00007567                0.09557482               -0.00474826
              14.95206210                6.13301777               78.50086300                0.50252858                0.07096507                0.07108488               -0.23667354               -0.00002517                0.07110112               -0.00806797
              15.95287601                6.13153580               78.35394897                0.50536683                0.09181414                0.09201049               -0.30623750                0.00000605                0.03861966               -0.01251722
              16.95389838                6.13004963               78.20671426                0.75383617                0.10223711                0.11291844               -0.37578093                0.00022242                0.01777369               -0.01837944
               6.95440150                7.14376669               79.67067912                0.75455194               -0.08498455               -0.09567038                0.31823546               -0.00018069                0.01549707                0.01867626
               7.95355166                7.14252767               79.52334199                0.50506904               -0.07459344               -0.07471834                0.24870125                0.00005029                0.05093474                0.01073435
               8.95290963                7.14128473               79.37663373                0.50121033               -0.05379297               -0.05376565                0.17921949               -0.00000969                0.09574034                0.00669176
               9.95247580                7.14003680               79.23013237                0.49963836               -0.03295108               -0.03288190                0.10969852               -0.00010353                0.11448541                0.00393278
              10.95225061                7.13878394               79.08375825                0.49880110               -0.01207965               -0.01202238                0.04015767               -0.00014854                0.12428270                0.00182769
              11.95223420                7.13752655               78.93743171                0.49867029                0.00879709                0.00883918               -0.02939608               -0.00015213                0.12514845               -0.00006111
              12.95242655                7.13626502               78.79107341                0.49924510                0.02967305                0.02970661               -0.09895827               -0.00012463                0.11711227               -0.00208489
              13.95282766                7.13499966               78.64460426                0.50053979                0.05054600                0.05058526               -0.16852735               -0.00006796                0.10020951               -0.00461775
              14.95343747                7.13373070               78.49794567                0.50258105                0.07140566                0.07149124               -0.23809978                0.00000909                0.07455783               -0.00814355
              15.95425578                7.13245807               78.35102088                0.50542247                0.09224570                0.09244010               -0.30766745                0.00005059                0.04047917               -0.01329618
              16.95528239                7.13118107               78.20375771                0.75386719                0.10266092                0.11338915               -0.37721416                0.00025229                0.01872974               -0.02065559
               6.95553424                8.14281179               79.66767863                0.75451318               -0.08455634               -0.09536040                0.31681869               -0.00013493                0.01673994                0.01834695
               7.95468868                8.14178273               79.52030408                0.50502668               -0.07419228               -0.07422395                0.24728033                0.00007737                0.05445859                0.00889320
               8.95405039                8.14074945               79.37360444                0.50121201               -0.05340309               -0.05328967                0.17780133               -0.00005153                0.10226047                0.00536882
               9.95362062                8.13971020               79.22712596                0.49966886               -0.03252824               -0.03245707                0.10828236               -0.00014088                0.12202336                0.00314799
              10.95339983                8.13866583               79.08078122                0.49884739               -0.01164274               -0.01160402                0.03874193               -0.00016057                0.13222175                0.00147279
              11.95338776                8.13761705               78.93448599                0.49873003                0.00922611                0.00925871               -0.03081207               -0.00014924                0.13308671               -0.00001572
              12.95358435                8.13656417               78.78815745                0.49931125                0.03009582                0.03012688               -0.10037491               -0.00012433                0.12468137               -0.00162553
              13.95398968                8.13550754               78.64171264                0.50060542                0.05097595                0.05099910               -0.16994509               -0.00007341                0.10694084               -0.00370580
              14.95460387                8.13444760               78.49506744                0.50264534                0.07184867                0.07188299               -0.23951828                0.00001612                0.07976851               -0.00678277
              15.95542665                8.13338460               78.34813698                0.50548138                0.09267752                0.09284654               -0.30908767                0.00009854                0.04336989               -0.01184297
              16.95645742                8.13231741               78.20084122                0.75389634                0.10307714                0.11391785               -0.37863917                0.00030219                0.02025603               -0.02039435
               6.95645691                9.14185948               79.66461648                0.75447017               -0.08413717               -0.09519525                0.31538975               -0.00015546                0.01849545                0.01354387
               7.95561554                9.14104319               79.51719974                0.50499008               -0.07378887               -0.07363202                0.24584586               -0.00001233                0.05980642                0.00452782
               8.95498113                9.14021894               79.37053016                0.50123936               -0.05294682               -0.05290740                0.17637365               -0.00011780                0.11176679                0.00298162
               9.95455660                9.13938766               79.22409304                0.49971896               -0.03202861               -0.03205780                0.10685969               -0.00014554                0.13226795                0.00175511
              10.95434056                9.13855186               79.07779361                0.49891699               -0.01118612               -0.01119360                0.03732305               -0.00011553                0.14271134                0.00083080
              11.95433288                9.13771173               78.93154508                0.49881293                0.00965076                0.00968045               -0.03222738               -0.00010070                0.14356147                0.00001135
              12.95453357                9.13686756               78.78526198                0.49940005                0.03049478                0.03055718               -0.10178733               -0.00008768                0.13485578               -0.00088202
              13.95494277                9.13601964               78.63885825                0.50069040                0.05135784                0.05143271               -0.17135531               -0.00007068                0.11641213               -0.00206348
              14.95556073                9.13516836               78.49224479                0.50272248                0.07225807                0.07230882               -0.24092600               -0.00000731                0.08770915               -0.00389231
              15.95638794                9.13431500               78.34532514                0.50554592                0.09310438                0.09320185               -0.31049426                0.00009222                0.04807684               -0.00716800
              16.95742282                9.13345943               78.19799685                0.75392698                0.10348833                0.11455715               -0.38004908                0.00030483                0.02277685               -0.01486041
               6.95716372               10.14090788               79.66143040                0.87722222               -0.08347469               -0.09516020                0.31394008                0.01090242                0.02462369                0.01181985
               7.95632897               10.14031009               79.51400504                0.75248943               -0.07300765               -0.07330955                0.24439431                0.01051491                0.06972685                0.00345359
               8.95570357               10.13969130               79.36740330                0.75063221               -0.05220934               -0.05276349                0.17493343                0.01019146                0.12519279                0.00283023
               9.95528479               10.13906905               79.22102849                0.74988300               -0.03150583               -0.03186111                0.10542827                0.01035140                0.14547567                0.00166935
              10.95507345               10.13844196               79.07479306                0.74948937               -0.01073722               -0.01098979                0.03589999                0.01036955                0.15599771                0.00069800
              11.95507004               10.13781065               78.92860885                0.74944206                0.01006185                0.00989267               -0.03364214                0.01038429                0.15681372               -0.00022181
              12.95527469               10.13717532               78.78238946                0.74973536                0.03087127                0.03077547               -0.10319409                0.01038828                0.14797004               -0.00118276
              13.95568747               10.13653619               78.63604766                0.75037998                0.05168396                0.05165534               -0.17275476                0.01039223                0.12922248               -0.00230298
              14.95630837               10.13589377               78.48949218                0.75139189                0.07249788                0.07254150               -0.24231817                0.01038600                0.09989520               -0.00380149
              15.95713743               10.13524864               78.34262227                0.75279811                0.09331466                0.09336427               -0.31187997                0.01068806                0.05758039               -0.00611085
              16.95817466               10.13460855               78.19529849                0.87697500                0.10372348                0.11491261               -0.38143258                0.01117544                0.03000812               -0.01296550
               7.08838479                0.15342867               80.69452957                0.87770339               -0.08359241               -0.09426660                0.31256072               -0.01070926                0.02040751               -0.00508511
               8.08754886                0.15073958               80.54663589                0.75340133               -0.07367258               -0.07357531                0.24630555               -0.01012025                0.04826294               -0.00475627
               9.08691134                0.14805807               80.39921661                0.75130216               -0.05387558               -0.05386418                0.18009394               -0.00984865                0.08666691               -0.00177221
              10.08647135                0.14537284               80.25202794                0.75018692               -0.03410085               -0.03396954                0.11387829               -0.00991988                0.10709723               -0.00094795
              11.08622932                0.14268396               80.10497376                0.74957609               -0.01428903               -0.01409788                0.04766000               -0.00992957                0.11779366               -0.00036158
              12.08618557                0.13999096               79.95797509                0.74944903                0.00554378                0.00577951               -0.01856271               -0.00993777                0.11975637                0.00010662
              13.08634019                0.13729375               79.81095585                0.74980721                0.02538214                0.02565725               -0.08479055               -0.00993750                0.11318450                0.00053131
              14.08669321                0.13459220               79.66384106                0.75065612                0.04521685                0.04553282               -0.15102575               -0.00993873                0.09812684                0.00095506
              15.08724453                0.13188587               79.51655562                0.75201526                0.06505032                0.06542533               -0.21726963               -0.00991704                0.07450884                0.00143695
              16.08799422                0.12917451               79.36902306                0.75391472                0.08485659                0.08522232               -0.28352171               -0.01017152                0.04173677                0.00202783
              17.08894166                0.12645089               79.22115641                0.87773323                0.09474430                0.10585457               -0.34978298               -0.01019152                0.02034110                0.00400258
               7.09096678                1.15248600               80.69161532                0.75482001               -0.08338182               -0.09389115                0.31123904               -0.00025415                0.01635572               -0.00359005
               8.09013296                1.15000383               80.54370038                0.50574162               -0.07352781               -0.07344275                0.24497963               -0.00006066                0.04554848               -0.00433567
               9.08949622                1.14751943               80.39628678                0.50181524               -0.05368782               -0.05361769                0.17876692                0.00000211                0.08420919               -0.00098314
              10.08905920                1.14503314               80.24908204                0.49996403               -0.03376325               -0.03375745                0.11254501                0.00003428                0.10341074               -0.00014003
              11.08882096                1.14254298               80.10200923                0.49894682               -0.01389529               -0.01389102                0.04631914                0.00001083                0.11389237                0.00001897
              12.08878130                1.14004876               79.95499056                0.49873563                0.00596218                0.00598145               -0.01991066               -0.00000222                0.11573289               -0.00010837
              13.08894020                1.13755032               79.80795066                0.49933400                0.02582338                0.02585598               -0.08614562               -0.00000950                0.10909441               -0.00035436
              14.08929777                1.13504753               79.66081498                0.50074341                0.04570020                0.04573117               -0.15238840               -0.00001547                0.09401697               -0.00060902
              15.08985421                1.13254012               79.51350896                0.50300460                0.06561143                0.06561352               -0.21864014               -0.00007161                0.07042895               -0.00073767
              16.09061000                1.13002673               79.36595664                0.50616564                0.08545815                0.08551830               -0.28490029               -0.00008700                0.03832668               -0.00047464
              17.09156337                1.12750943               79.21808345                0.75437338                0.09533735                0.10587107               -0.35116433                0.00021978                0.01756147                0.00114390
               7.09334405                2.15155085               80.68863772                0.75422719               -0.08298212               -0.09325007                0.30991887               -0.00028077                0.01321009               -0.00226063
               8.09251423                2.14927073               80.54070048                0.50467117               -0.07309900               -0.07315417                0.24365865               -0.00012764                0.04512538               -0.00279285
               9.09188207                2.14698571               80.39331944                0.50104091               -0.05328743               -0.05320152                0.17745507               -0.00007324                0.08507709               -0.00061946
              10.09144848                2.14469769               80.24611869                0.49955890               -0.03340764               -0.03334409                0.11122529               -0.00001733                0.10225823                0.00022445
              11.09121392                2.14240614               80.09903839                0.49874721               -0.01351458               -0.01348077                0.04498625               -0.00001277                0.11190966                0.00021279
              12.09117819                2.14011059               79.95200748                0.49858255                0.00636604                0.00638799               -0.02125743               -0.00002710                0.11338580               -0.00020389
              13.09134124                2.13781087               79.80495319                0.49905653                0.02624587                0.02626136               -0.08750670               -0.00004305                0.10659936               -0.00081426
              14.09170310                2.13550682               79.65780272                0.50017944                0.04613287                0.04614090               -0.15376406               -0.00007323                0.09156572               -0.00146749
              15.09226389                2.13319814               79.51048362                0.50198520                0.06600321                0.06603744               -0.22002964               -0.00012283                0.06835996               -0.00197782
              16.09302317                2.13088488               79.36292458                0.50450679                0.08583809                0.08603152               -0.28629996               -0.00014387                0.03723271               -0.00199858
              17.09398066                2.12856831               79.21505813                0.75328223                0.09574871                0.10604880               -0.35256431                0.00010954                0.01712070               -0.00111084
               7.09552140                3.15062100               80.68565756                0.75418892               -0.08258573               -0.09276045                0.30859372               -0.00024455                0.01357616                0.00287775
               8.09469554                3.14854075               80.53772328                0.50461743               -0.07267987               -0.07280853                0.24233659               -0.00010333                0.04541530                0.00204039
               9.09406780                3.14645540               80.39034409                0.50101064               -0.05285557               -0.05285333                0.17613113               -0.00011748                0.08537458                0.00155745
              10.09363843                3.14436626               80.24314690                0.49953682               -0.03300023               -0.03295252                0.10989640               -0.00007471                0.10232313                0.00124063
              11.09340780                3.14227337               80.09606422                0.49873051               -0.01312002               -0.01307650                0.04364883               -0.00005997                0.11147035                0.00063592
              12.09337603                3.14017652               79.94902719                0.49857407                0.00676578                0.00679777               -0.02260585               -0.00006542                0.11263188               -0.00021846
              13.09354311                3.13807555               79.80196463                0.49905950                0.02665017                0.02667721               -0.08886683               -0.00008138                0.10567227               -0.00124897
              14.09390903                3.13597035               79.65480497                0.50019668                0.04652923                0.04656912               -0.15513563               -0.00010493                0.09060583               -0.00239109
              15.09447370                3.13386087               79.50747733                0.50201532                0.06639577                0.06649211               -0.22141108               -0.00012712                0.06755948               -0.00355193
              16.09523695                3.13174736               79.35991267                0.50455156                0.08624972                0.08645155               -0.28768727               -0.00009895                0.03677418               -0.00460067
              17.09619869                3.12963041               79.21204490                0.75330943                0.09617428                0.10639567               -0.35395149                0.00015217                0.01685761               -0.00544868
               7.09749967                4.14969564               80.68269076                0.75415146               -0.08218988               -0.09232857                0.30726718               -0.00022528                0.01376264                0.00841728
               8.09667777                4.14781456               80.53474781                0.50456872               -0.07227290               -0.07242072                0.24101071               -0.00007000                0.04597408                0.00560906
               9.09605421                4.14592865               80.38736781                0.50098393               -0.05243779               -0.05248279                0.17480274               -0.00010598                0.08636846                0.00387777
              10.09562901                4.14403864               80.24017109                0.49952032               -0.03258765               -0.03256746                0.10856295               -0.00010063                0.10335103                0.00245787
              11.09540245                4.14214461               80.09308872                0.49872661               -0.01271573               -0.01267542                0.04230812               -0.00009778                0.11238833                0.00115832
              12.09537470                4.14024655               79.94605037                0.49857790                0.00716640                0.00720732               -0.02395557               -0.00010160                0.11335881               -0.00019464
              13.09554578                4.13834441               79.79898470                0.49907069                0.02704939                0.02709418               -0.09022583               -0.00010725                0.10620159               -0.00169243
              14.09591568                4.13643821               79.65182016                0.50021822                0.04692755                0.04699644               -0.15650396               -0.00011028                0.09095256               -0.00339899
              15.09648433                4.13452798               79.50448614                0.50204884                0.06679833                0.06692058               -0.22278666               -0.00010077                0.06775544               -0.00535877
              16.09725165                4.13261391               79.35691396                0.50460050                0.08666354                0.08685754               -0.28906757               -0.00006483                0.03685818               -0.00760131
              17.09821760                4.13069622               79.20903796                0.75333640                0.09659538                0.10677770               -0.35533229                0.00017316                0.01688548               -0.01013983
               7.09927905                5.14877443               80.67972989                0.75411767               -0.08179192               -0.09192084                0.30593765               -0.00021270                0.01411979                0.01312741
               8.09846113                5.14709233               80.53177015                0.50452208               -0.07187235               -0.07202261                0.23968055               -0.00003817                0.04697979                0.00853743
               9.09784160                5.14540574               80.38438676                0.50096452               -0.05203396               -0.05208897                0.17347020               -0.00007708                0.08825281                0.00569370
              10.09742045                5.14371491               80.23719125                0.49951509               -0.03218377               -0.03217009                0.10722594               -0.00010217                0.10555464                0.00348164
              11.09719793                5.14201986               80.09011229                0.49872940               -0.01231285               -0.01227240                0.04096522               -0.00012066                0.11468994                0.00161751
              12.09717419                5.14032067               79.94307751                0.49859158                0.00756915                0.00761484               -0.02530590               -0.00012745                0.11557318               -0.00015313
              13.09734931                5.13861743               79.79601391                0.49909536                0.02745322                0.02750544               -0.09158385               -0.00012049                0.10817804               -0.00205215
              14.09772326                5.13691027               79.64884859                0.50025213                0.04733344                0.04741068               -0.15786964               -0.00010014                0.09256651               -0.00427561
              15.09829598                5.13519928               79.50150977                0.50208855                0.06720755                0.06733422               -0.22415843               -0.00006946                0.06890048               -0.00701192
              16.09906741                5.13348451               79.35392782                0.50464665                0.08707705                0.08726570               -0.29044284               -0.00003436                0.03745247               -0.01043164
              17.10003752                5.13176596               79.20603638                0.75336484                0.09701103                0.10717924               -0.35670884                0.00018990                0.01717821               -0.01466002
               7.10085961                6.14785722               80.67676621                0.75408072               -0.08139119               -0.09153039                0.30460431               -0.00019819                0.01467508                0.01672851
               8.10004569                6.14637411               80.52878184                0.50447758               -0.07147582               -0.07162036                0.23834574               -0.00000217                0.04857876                0.01040592
               9.09943009                6.14488687               80.38139511                0.50095374               -0.05164235               -0.05167527                0.17213348               -0.00004323                0.09127922                0.00674539
              10.09901285                6.14339523               80.23420393                0.49951679               -0.03179026               -0.03175762                0.10588560               -0.00009938                0.10916278                0.00403611
              11.09879428                6.14189916               80.08713366                0.49874570               -0.01191367               -0.01186483                0.03962045               -0.00013802                0.11856169                0.00187225
              12.09877457                6.14039885               79.94010889                0.49861709                0.00797400                0.00801956               -0.02665629               -0.00014669                0.11941686               -0.00010854
              13.09895376                6.13889452               79.79305382                0.49912994                0.02786292                0.02790852               -0.09294063               -0.00012773                0.11172564               -0.00221937
              14.09933183                6.13738642               79.64589298                0.50029199                0.04774703                0.04781181               -0.15923188               -0.00008575                0.09555707               -0.00476948
              15.09990871                6.13587467               79.49855196                0.50213350                0.06762253                0.06773660               -0.22552567               -0.00003423                0.07108042               -0.00809786
              16.10068428                6.13435922               79.35095866                0.50469849                0.08748983                0.08767693               -0.29181431               -0.00000007                0.03860629               -0.01255448
              17.10165850                6.13283981               79.20304489                0.75339123                0.09742192                0.10759995               -0.35808207                0.00020945                0.01776370               -0.01842115
               7.10224131                7.14694382               80.67378668                0.75404504               -0.08098744               -0.09116881                0.30326570               -0.00017391                0.01550297                0.01871064
               8.10143144                7.14565993               80.52577056                0.50443512               -0.07108522               -0.07120423                0.23700423                0.00004192                0.05097210                0.01076102
               9.10081961                7.14437223               80.37838381                0.50094541               -0.05126362               -0.05123735                0.17079154               -0.00002043                0.09578859                0.00671385
              10.10040617                7.14307976               80.23120359                0.49952982               -0.03140271               -0.03133628                0.10454249               -0.00011242                0.11450801                0.00394877
              11.10019156                7.14178256               80.08415042                0.49877483               -0.01151327               -0.01145834                0.03827388               -0.00015686                0.12429081                0.00183539
              12.10017590                7.14048106               79.93714469                0.49865630                0.00838136                0.00842139               -0.02800663               -0.00016054                0.12514612               -0.00006263
              13.10035918                7.13917560               79.79010712                0.49917638                0.02827493                0.02830687               -0.09429533               -0.00013323                0.11710112               -0.00209567
              14.10074140                7.13786651               79.64295865                0.50034095                0.04816550                0.04820290               -0.16059020               -0.00007684                0.10019093               -0.00463736
              15.10132249                7.13655402               79.49562069                0.50218337                0.06804333                0.06812464               -0.22688755                0.00000003                0.07453597               -0.00817154
              16.10210227                7.13523805               79.34801659                0.50475154                0.08790206                0.08808707               -0.29317951                0.00004392                0.04046451               -0.01333224
              17.10308053                7.13391796               79.20007432                0.75342084                0.09782670                0.10804895               -0.35945039                0.00023881                0.01871858               -0.02069991
               7.10342392                8.14603384               80.67077236                0.75400931               -0.08058003               -0.09087423                0.30191807               -0.00012951                0.01674708                0.01837824
               8.10261812                8.14495002               80.52271879                0.50439795               -0.07070356               -0.07073394                0.23565267                0.00006987                0.05450034                0.00891376
               9.10200985                8.14386212               80.37534069                0.50095265               -0.05089258               -0.05078449                0.16944249               -0.00005721                0.10231572                0.00538659
              10.10160027                8.14276851               80.22818337                0.49956039               -0.03100017               -0.03093194                0.10319460               -0.00014464                0.12205138                0.00316092
              11.10138985                8.14167000               80.08115956                0.49882335               -0.01109737               -0.01105981                0.03692549               -0.00016470                0.13223396                0.00147920
              12.10137832                8.14056727               79.93418515                0.49871613                0.00879001                0.00882145               -0.02935660               -0.00015423                0.13308788               -0.00001669
              13.10156565                8.13946066               79.78717733                0.49923959                0.02867811                0.02870792               -0.09564690               -0.00012956                0.12467333               -0.00163396
              14.10195188                8.13835048               79.64005317                0.50040473                0.04857585                0.04859803               -0.16194354               -0.00007904                0.10692521               -0.00372211
              15.10253716                8.13723716               79.49272860                0.50224068                0.06846644                0.06849908               -0.22824299                0.00000909                0.07974979               -0.00680617
              16.10332121                8.13612096               79.34511880                0.50480385                0.08831462                0.08847548               -0.29453687                0.00009103                0.04335759               -0.01187324
              17.10430346                8.13500079               79.19714390                0.75344871                0.09822432                0.10855345               -0.36081110                0.00028723                0.02024620               -0.02043463
               7.10440637                9.14512634               80.66769626                0.75397264               -0.08018082               -0.09071752                0.30055716               -0.00014839                0.01850479                0.01356599
               8.10360456                9.14424525               80.51960045                0.50436811               -0.07031952               -0.07017022                0.23428728               -0.00001350                0.05985592                0.00453867
               9.10299998                9.14335654               80.37225248                0.50097860               -0.05045814               -0.05042069                0.16808346               -0.00011666                0.11183427                0.00299201
              10.10259540                9.14246112               80.22513655                0.49961426               -0.03052407               -0.03055182                0.10183958               -0.00014476                0.13230660                0.00176246
              11.10238950                9.14156137               80.07815810                0.49889281               -0.01066218               -0.01066883                0.03557375               -0.00011672                0.14273343                0.00083461
              12.10238215                9.14065749               79.93123042                0.49879648                0.00919457                0.00922368               -0.03070601               -0.00010265                0.14357212                0.00001088
              13.10257339                9.13974976               79.78426806                0.49932713                0.02905834                0.02911844               -0.09699406               -0.00008968                0.13485668               -0.00088675
              14.10296332                9.13883847               79.63718500                0.50048637                0.04894006                0.04901192               -0.16328939               -0.00007216                0.11640530               -0.00207327
              15.10355219                9.13792400               79.48989219                0.50231564                0.06885694                0.06890585               -0.22958710               -0.00000996                0.08769921               -0.00390615
              16.10434046                9.13700756               79.34229322                0.50486399                0.08872194                0.08881506               -0.29588007                0.00008646                0.04807032               -0.00718642
              17.10532663                9.13608903               79.19428575                0.75347521                0.09861686                0.10916366               -0.36215768                0.00028992                0.02277041               -0.01488807
               7.10518314               10.14421949               80.66449604                0.87697442               -0.07954907               -0.09068443                0.29917538                0.01038903                0.02464058                0.01183858
               8.10438765               10.14354662               80.51639159                0.75217894               -0.06957448               -0.06986296                0.23290438                0.01001906                0.06978985                0.00346118
               9.10379165               10.14285371               80.36911156                0.75050508               -0.04975468               -0.05028374                0.16671141                0.00970950                0.12527871                0.00283782
              10.10339255               10.14215747               80.22205802                0.74983139               -0.03002510               -0.03036455                0.10047563                0.00986103                0.14553182                0.00167442
              11.10319114               10.14145662               80.07514365                0.74947844               -0.01023387               -0.01047465                0.03421721                0.00987840                0.15603706                0.00070074
              12.10318787               10.14075175               79.92828036                0.74943528                0.00958623                0.00942607               -0.03205475                0.00989237                0.15684165               -0.00022212
              13.10338287               10.14004303               79.78138180                0.74969759                0.02941666                0.02932667               -0.09833521                0.00989641                0.14798779               -0.00118582
              14.10377621               10.13933072               79.63436075                0.75028055                0.04925027                0.04922441               -0.16462383                0.00990093                0.12923204               -0.00230991
              15.10436787               10.13861528               79.48712599                0.75118850                0.06908499                0.06912795               -0.23091437                0.00989582                0.09990112               -0.00381127
              16.10515791               10.13789726               79.33957682                0.75245585                0.08892199                0.08897012               -0.29720054                0.01018388                0.05758671               -0.00612434
              17.10614631               10.13718406               79.19157388                0.87674842                0.09884071                0.10950279               -0.36347694                0.01064824                0.03001239               -0.01298732
               7.23681393                0.15629868               81.69757786                0.87739562               -0.07945335               -0.08959948                0.29708447               -0.01017966                0.02042797               -0.00508358
               8.23601939                0.15363417               81.54903802                0.75298906               -0.07002497               -0.06993122                0.23410745               -0.00962005                0.04831203               -0.00475426
               9.23541343                0.15097684               81.40097299                0.75109776               -0.05120856               -0.05119639                0.17117420               -0.00936246                0.08674199               -0.00176531
              10.23499522                0.14831595               81.25313856                0.75010208               -0.03241305               -0.03228744                0.10823937               -0.00943066                0.10717430               -0.00094231
              11.23476517                0.14565159               81.10543858                0.74955575               -0.01358248               -0.01340025                0.04530163               -0.00944028                0.11786916               -0.00035891
              12.23472357                0.14298330               80.95779408                0.74944169                0.00526816                0.00549206               -0.01763948               -0.00944805                0.11982687                0.00010723
              13.23487053                0.14031102               80.81012895                0.74976325                0.02412421                0.02438470               -0.08058569               -0.00944763                0.11324725                0.00052994
              14.23520606                0.13763463               80.66236821                0.75052270                0.04297631                0.04327525               -0.14353873               -0.00944820                0.09817848                0.00095150
              15.23573006                0.13495372               80.51443673                0.75174102                0.06182701                0.06218193               -0.20650011               -0.00942690                0.07454686                0.00143113
              16.23644260                0.13226806               80.36625804                0.75344923                0.08065146                0.08099797               -0.26946916               -0.00966828                0.04175936                0.00202062
              17.23734309                0.12957077               80.21774518                0.87742180                0.09004884                0.10060835               -0.33244750               -0.00968730                0.02035097                0.00399867
               7.23937664                1.15540268               81.69465073                0.75426436               -0.07925254               -0.08924291                0.29582765               -0.00024219                0.01636692               -0.00357886
               8.23858411                1.15293486               81.54608958                0.50500882               -0.06988628               -0.06980514                0.23284736               -0.00006020                0.04559063               -0.00432351
               9.23797891                1.15046487               81.39803023                0.50148531               -0.05102864               -0.05096227                0.16991368               -0.00000362                0.08427658               -0.00096323
              10.23756354                1.14799308               81.25017966                0.49982513               -0.03209128               -0.03208585                0.10697228                0.00002536                0.10347629               -0.00012407
              11.23733709                1.14551759               81.10246098                0.49891144               -0.01320814               -0.01320375                0.04402792                0.00000223                0.11395635                0.00002755
              12.23729938                1.14303823               80.95479640                0.49872362                0.00566517                0.00568394               -0.01891988               -0.00001033                0.11579261               -0.00010735
              13.23745039                1.14055487               80.80711055                0.49925604                0.02454226                0.02457366               -0.08187290               -0.00001670                0.10914600               -0.00036094
              14.23779022                1.13806738               80.65932884                0.50052292                0.04343408                0.04346385               -0.14483260               -0.00002093                0.09405659               -0.00062326
              15.23831907                1.13557554               80.51137671                0.50254892                0.06235857                0.06236091               -0.20780094               -0.00007241                0.07045461               -0.00075941
              16.23903739                1.13307804               80.36317819                0.50538848                0.08122181                0.08127968               -0.27077775               -0.00008515                0.03833898               -0.00050097
              17.23994351                1.13057685               80.21465876                0.75385719                0.09061147                0.10062497               -0.33375921                0.00020747                0.01756282                0.00112018
               7.24174473                2.15451382               81.69166026                0.75372635               -0.07887354               -0.08863416                0.29457462               -0.00026838                0.01321643               -0.00224217
               8.24095600                2.15223807               81.54307679                0.50404020               -0.06947986               -0.06953113                0.23159379               -0.00012711                0.04516767               -0.00277058
               9.24035514                2.14995759               81.39505010                0.50077263               -0.05064908               -0.05056695                0.16866884               -0.00008120                0.08514080               -0.00059256
              10.23994302                2.14767423               81.24720344                0.49944861               -0.03175371               -0.03169312                0.10571886               -0.00003093                0.10230876                0.00024612
              11.23972006                2.14538751               81.09947714                0.49872084               -0.01284650               -0.01281401                0.04276193               -0.00002783                0.11195594                0.00022496
              12.23968609                2.14309698               80.95180019                0.49857290                0.00604876                0.00607033               -0.02019971               -0.00004143                0.11342740               -0.00020341
              13.23984104                2.14080249               80.80409981                0.49899477                0.02494373                0.02495907               -0.08316698               -0.00005545                0.10663246               -0.00082566
              14.24018496                2.13850391               80.65630317                0.50000414                0.04384564                0.04385349               -0.14614097               -0.00008183                0.09158678               -0.00149067
              15.24071795                2.13620094               80.50833780                0.50162352                0.06273138                0.06276428               -0.20912304               -0.00012559                0.06836916               -0.00201121
              16.24143959                2.13389366               80.36013247                0.50388971                0.08158342                0.08176841               -0.27211057               -0.00014161                0.03723542               -0.00203824
              17.24234962                2.13158327               80.21161977                0.75287124                0.09100303                0.10079565               -0.33509353                0.00010178                0.01711736               -0.00114842
               7.24392278                3.15363000               81.68866719                0.75369276               -0.07849782               -0.08816949                0.29331864               -0.00023477                0.01358351                0.00290200
               8.24313780                3.15154423               81.54008672                0.50399375               -0.06908268               -0.06920352                0.23034027               -0.00010616                0.04545497                0.00206804
               9.24254112                3.14945353               81.39206184                0.50074413               -0.05023990               -0.05023643                0.16741291               -0.00012639                0.08543126                0.00158227
              10.24213300                3.14735921               81.24421869                0.49942769               -0.03136708               -0.03132140                0.10445794               -0.00008906                0.10236377                0.00125957
              11.24191378                3.14526131               81.09648993                0.49870757               -0.01247146               -0.01242995                0.04149148               -0.00007668                0.11150321                0.00064603
              12.24188357                3.14315963               80.94880674                0.49856251                0.00642882                0.00645988               -0.02148153               -0.00008176                0.11265828               -0.00021951
              13.24204236                3.14105405               80.80109798                0.49900028                0.02532827                0.02535446               -0.08446022               -0.00009542                0.10569000               -0.00126153
              14.24239014                3.13894445               80.65329203                0.50001848                0.04422282                0.04426099               -0.14744609               -0.00011519                0.09061281               -0.00241490
              15.24292681                3.13683083               80.50531804                0.50165109                0.06310516                0.06319730               -0.21043852               -0.00013230                0.06755741               -0.00358435
              16.24365224                3.13471341               80.35710701                0.50392927                0.08197552                0.08216869               -0.27343202               -0.00010029                0.03677000               -0.00463797
              17.24456632                3.13259276               80.20859299                0.75289643                0.09140848                0.10112654               -0.33641593                0.00014178                0.01685051               -0.00548392
               7.24591157                4.15275043               81.68568748                0.75365838               -0.07812280               -0.08775978                0.29206226               -0.00021674                0.01376871                0.00844769
               8.24513034                4.15085400               81.53709834                0.50394923               -0.06869689               -0.06883623                0.22908392               -0.00007580                0.04601083                0.00563957
               9.24453763                4.14895286               81.38907263                0.50072167               -0.04984379               -0.04988528                0.16615365               -0.00011774                0.08641911                0.00390424
              10.24413346                4.14704781               81.24122990                0.49941003               -0.03097595               -0.03095606                0.10319308               -0.00011599                0.10338290                0.00247695
              11.24391811                4.14513892               81.09350136                0.49870256               -0.01208768               -0.01204896                0.04021815               -0.00011532                0.11241005                0.00116751
              12.24389171                4.14322618               80.94581676                0.49856607                0.00680985                0.00684919               -0.02276457               -0.00011908                0.11337297               -0.00019657
              13.24405431                4.14130958               80.79810478                0.49901250                0.02570828                0.02575119               -0.08575324               -0.00012284                0.10620712               -0.00170585
              14.24440588                4.13938913               80.65029386                0.50003635                0.04460205                0.04466800               -0.14874916               -0.00012277                0.09094852               -0.00342323
              15.24494635                4.13746489               80.50231341                0.50168268                0.06348871                0.06360573               -0.21174966               -0.00010932                0.06774534               -0.00539189
              16.24567565                4.13553703               80.35409483                0.50397069                0.08237001                0.08255585               -0.27474806               -0.00006901                0.03685101               -0.00763958
              17.24659375                4.13360580               80.20557259                0.75291891                0.09180990                0.10149048               -0.33773236                0.00016160                0.01687912               -0.01017762
               7.24771131                5.15187480               81.68271366                0.75362701               -0.07774601               -0.08737296                0.29080313               -0.00020493                0.01412511                0.01316199
               8.24693385                5.15016751               81.53410772                0.50390603               -0.06831745               -0.06845936                0.22782433               -0.00004617                0.04701461                0.00857006
               9.24634496                5.14845583               81.38607860                0.50070625               -0.04946095               -0.04951224                0.16489095               -0.00009143                0.08829919                0.00572088
              10.24594463                5.14674009               81.23823703                0.49940763               -0.03059296               -0.03057911                0.10192469               -0.00011855                0.10557965                0.00350069
              11.24573310                5.14502033               81.09051184                0.49870615               -0.01170528               -0.01166620                0.03894291               -0.00013821                0.11470307                0.00162657
              12.24571052                5.14329662               80.94283074                0.49858008                0.00719274                0.00723664               -0.02404834               -0.00014497                0.11557776               -0.00015538
              13.24587695                5.14156907               80.79512074                0.49903328                0.02609257                0.02614268               -0.08704569               -0.00013687                0.10817418               -0.00206587
              14.24623237                5.13983781               80.64730896                0.50006888                0.04498863                0.04506273               -0.15005005               -0.00011442                0.09255402               -0.00429987
              15.24677673                5.13810294               80.49932364                0.50171684                0.06387888                0.06400022               -0.21305763               -0.00008048                0.06888374               -0.00704512
              16.24750995                5.13636453               80.35109524                0.50401533                0.08276479                0.08294533               -0.27606101               -0.00004066                0.03744173               -0.01047183
              17.24843202                5.13462257               80.20255755                0.75294644                0.09220702                0.10187327               -0.33904667                0.00017737                0.01717014               -0.01470403
               7.24932206                6.15100297               81.67973699                0.75359426               -0.07736657               -0.08700261                0.28954045               -0.00019097                0.01468063                0.01676654
               8.24854839                6.14948481               81.53110641                0.50386953               -0.06794188               -0.06807857                0.22656000               -0.00001158                0.04861261                0.01043928
               9.24796322                6.14796262               81.38307393                0.50069757               -0.04908978               -0.04912011                0.16362344               -0.00005862                0.09132275                0.00677238
              10.24756659                6.14643622               81.23523664                0.49941136               -0.03021975               -0.03018781                0.10065309               -0.00011517                0.10918334                0.00405513
              11.24735882                6.14490559               81.08752010                0.49871998               -0.01132641               -0.01127913                0.03766590               -0.00015401                0.11856918                0.00188112
              12.24734007                6.14337091               80.93984894                0.49860542                0.00757745                0.00762153               -0.02533234               -0.00016275                0.11941488               -0.00011062
              13.24751037                6.14183244               80.79214742                0.49906595                0.02648240                0.02652645               -0.08833706               -0.00014327                0.11171505               -0.00223286
              14.24786971                6.14029038               80.64434005                0.50010325                0.04538270                0.04544503               -0.15134806               -0.00010007                0.09553897               -0.00479337
              15.24841803                6.13874489               80.49635249                0.50175840                0.06427471                0.06438403               -0.21436149               -0.00004614                0.07105904               -0.00813069
              16.24915521                6.13719594               80.34811268                0.50406167                0.08315895                0.08333756               -0.27736970               -0.00000729                0.03859163               -0.01259464
              17.25008121                6.13564326               80.19955261                0.75297232                0.09259965                0.10227414               -0.34035829                0.00019627                0.01775194               -0.01846695
               7.25074381                7.15013475               81.67674443                0.75356306               -0.07698433               -0.08665996                0.28827281               -0.00016727                0.01550805                0.01874910
               8.24997397                7.14880594               81.52808207                0.50382915               -0.06757194               -0.06768461                0.22528950                0.00003198                0.05100633                0.01079177
               9.24939237                7.14747343               81.38004956                0.50069436               -0.04873073               -0.04870498                0.16235123               -0.00003455                0.09583270                0.00673893
              10.24899935                7.14613634               81.23222322                0.49942906               -0.02985214               -0.02978796                0.09937851               -0.00012517                0.11452717                0.00396660
              11.24879533                7.14479474               81.08452373                0.49874980               -0.01094644               -0.01089298                0.03638687               -0.00016921                0.12429566                0.00184378
              12.24878042                7.14344905               80.93687158                0.49864430                0.00796455                0.00800369               -0.02661623               -0.00017310                0.12514095               -0.00006444
              13.24895462                7.14209960               80.78918750                0.49910804                0.02687459                0.02690579               -0.08962702               -0.00014572                0.11708713               -0.00210804
              14.24931791                7.14074671               80.64139246                0.50015229                0.04578153                0.04581785               -0.15264296               -0.00008885                0.10017019               -0.00465954
              15.24987025                7.13939062               80.49340791                0.50180275                0.06467610                0.06475413               -0.21566079               -0.00001125                0.07451329               -0.00820279
              16.25061144                7.13803128               80.34515729                0.50411031                0.08355228                0.08372848               -0.27867208                0.00003606                0.04044981               -0.01337089
              17.25154130                7.13666805               80.19656871                0.75299788                0.09298583                0.10270120               -0.34166218                0.00022496                0.01870759               -0.02074519
               7.25197634                8.14926977               81.67371699                0.75353137               -0.07659818               -0.08638121                0.28699545               -0.00012448                0.01675282                0.01841174
               8.25121035                8.14813112               81.52501713                0.50379815               -0.06721032               -0.06723891                0.22400886                0.00006096                0.05453789                0.00893734
               9.25063213                8.14698852               81.37699329                0.50070273               -0.04837902               -0.04827554                0.16107236               -0.00006539                0.10236490                0.00540682
              10.25024277                8.14584046               81.22918985                0.49945882               -0.02947001               -0.02940423                0.09809906               -0.00015152                0.12207366                0.00317522
              11.25004273                8.14468773               81.08151973                0.49880179               -0.01055124               -0.01051433                0.03510568               -0.00017214                0.13224021                0.00148624
              12.25003175                8.14353099               80.93389886                0.49870396                0.00835303                0.00838418               -0.02790000               -0.00016224                0.13308353               -0.00001810
              13.25020979                8.14237055               80.78624452                0.49917276                0.02725823                0.02728763               -0.09091379               -0.00013742                0.12466056               -0.00164383
              14.25057691                8.14120674               80.63847377                0.50021321                0.04617239                0.04619432               -0.15393239               -0.00008673                0.10690556               -0.00374024
              15.25113324                8.14003998               80.49050258                0.50186079                0.06507933                0.06511099               -0.21695257                0.00000061                0.07972823               -0.00683216
              16.25187850                8.13887051               80.34224624                0.50416021                0.08394563                0.08409863               -0.27996632                0.00008247                0.04334412               -0.01190680
              17.25281215                8.13769729               80.19362499                0.75302236                0.09336505                0.10318143               -0.34295910                0.00027160                0.02023649               -0.02047691
               7.25301863                9.14840713               81.67062762                0.75349710               -0.07621913               -0.08623344                0.28570419               -0.00014177                0.01851295                0.01358786
               8.25225644                9.14746116               81.52188549                0.50377377               -0.06684566               -0.06670366                0.22271303               -0.00001565                0.05990055                0.00455039
               9.25168172                9.14650792               81.37389183                0.50073165               -0.04796643               -0.04793050                0.15978244               -0.00011661                0.11189435                0.00300394
              10.25129711                9.14554825               81.22612983                0.49951489               -0.02901767               -0.02904352                0.09681264               -0.00014530                0.13233813                0.00177118
              11.25110136                9.14458446               81.07850509                0.49886992               -0.01013751               -0.01014290                0.03382123               -0.00011989                0.14274767                0.00083862
              12.25109436                9.14361673               80.93093096                0.49878421                0.00873785                0.00876674               -0.02918337               -0.00010648                0.14357501                0.00001013
              13.25127612                9.14264535               80.78332210                0.49925844                0.02761987                0.02767844               -0.09219593               -0.00009309                0.13485084               -0.00089251
              14.25164676                9.14167060               80.63559247                0.50029532                0.04651884                0.04658846               -0.15521381               -0.00007486                0.11639232               -0.00208419
              15.25220650                9.14069284               80.48765305                0.50193079                0.06545099                0.06549850               -0.21823313               -0.00001368                0.08768399               -0.00392173
              16.25295578                9.13971325               80.33940754                0.50421469                0.08433354                0.08442253               -0.28124658                0.00008019                0.04806155               -0.00720631
              17.25389317                9.13873168               80.19075369                0.75304708                0.09373905                0.10376305               -0.34424336                0.00027507                0.02276407               -0.01491659
               7.25386543               10.14754510               81.66741391                0.87673706               -0.07561819               -0.08620252                0.28439095                0.00987467                0.02465624                0.01185527
               8.25310925               10.14679704               81.51866313                0.75188339               -0.06613640               -0.06641170                0.22139899                0.00952182                0.06984794                0.00346778
               9.25254271               10.14602991               81.37073753                0.75038245               -0.04729632               -0.04780070                0.15847893                0.00922656                0.12535711                0.00284625
              10.25216333               10.14525959               81.22303800                0.74978211               -0.02854263               -0.02886579                0.09551628                0.00936991                0.14557936                0.00168090
              11.25197185               10.14448487               81.07547740                0.74946758               -0.00973007               -0.00995843                0.03253180                0.00938555                0.15606737                0.00070323
              12.25196872               10.14370632               80.92796775                0.74942816                0.00911021                0.00895923               -0.03046615                0.00939887                0.15686093               -0.00022258
              13.25215406               10.14292412               80.78042276                0.74966259                0.02796002                0.02787670               -0.09347210                0.00940316                0.14799742               -0.00118948
              14.25252792               10.14213851               80.63275519                0.75018214                0.04681286                0.04679079               -0.15648351                0.00940812                0.12923414               -0.00231734
              15.25309031               10.14134995               80.48487390                0.75099457                0.06566702                0.06571009               -0.21949673                0.00940424                0.09990108               -0.00382195
              16.25384127               10.14055896               80.33667826                0.75213244                0.08452357                0.08457055               -0.28250420                0.00967895                0.05759028               -0.00613715
              17.25478079               10.13977255               80.18802895                0.87653231                0.09395210                0.10408634               -0.34549985                0.01012101                0.03001574               -0.01300871
               7.38587304                0.15918126               82.70047126                0.87710373               -0.07530647               -0.08492376                0.28157920               -0.00964946                0.02044573               -0.00508368
               8.38511997                0.15654138               82.55131804                0.75259502               -0.06637012               -0.06627978                0.22188483               -0.00911957                0.04836057               -0.00475139
               9.38454563                0.15390828               82.40264009                0.75091018               -0.04853613               -0.04852284                0.16223623               -0.00887625                0.08681867               -0.00175870
              10.38414925                0.15127178               82.25419273                0.75002192               -0.03072259               -0.03060128                0.10258834               -0.00894152                0.10725228               -0.00093817
              11.38393118                0.14863198               82.10587979                0.74953660               -0.01287540               -0.01270067                0.04293792               -0.00895046                0.11794564               -0.00035598
              12.38389174                0.14598846               81.95762230                0.74943699                0.00499130                0.00520452               -0.01671501               -0.00895770                0.11989909                0.00010772
              13.38403101                0.14334114               81.80934413                0.74972197                0.02286310                0.02311013               -0.07637317               -0.00895698                0.11331076                0.00052770
              14.38434900                0.14068996               81.66097029                0.75039714                0.04073115                0.04101374               -0.13603785               -0.00895712                0.09823007                0.00094727
              15.38484563                0.13803453               81.51242562                0.75148056                0.05859757                0.05893291               -0.19571105               -0.00893620                0.07458543                0.00142512
              16.38552095                0.13537462               81.36363368                0.75300398                0.07643894                0.07676651               -0.25539245               -0.00916409                0.04178305                0.00201143
              17.38637441                0.13270370               81.21450746                0.87712721                0.08534557                0.09535362               -0.31508316               -0.00918229                0.02036187                0.00399197
               7.38841642                1.15833203               82.69753188                0.75373253               -0.07511560               -0.08458630                0.28038851               -0.00023047                0.01637871               -0.00356763
               8.38766527                1.15587858               82.54835733                0.50431838               -0.06623771               -0.06616027                0.22069126               -0.00006041                0.04563353               -0.00430964
               9.38709167                1.15342305               82.39968506                0.50116709               -0.04836428               -0.04830108                0.16104183               -0.00001062                0.08434534               -0.00094267
              10.38669798                1.15096577               82.25122149                0.49969096               -0.03041640               -0.03041045                0.10138791                0.00001460                0.10354412               -0.00010897
              11.38648334                1.14850498               82.10288979                0.49888376               -0.01251997               -0.01251467                0.04173167               -0.00000810                0.11402287                0.00003614
              12.38644758                1.14604050               81.95461216                0.49871708                0.00536714                0.00538635               -0.01792752               -0.00002010                0.11585414               -0.00010676
              13.38659069                1.14357225               81.80631320                0.49918916                0.02325783                0.02328928               -0.07759194               -0.00002519                0.10919916               -0.00036880
              14.38691274                1.14110010               81.65791833                0.50030920                0.04116287                0.04119274               -0.13726296               -0.00002740                0.09409825               -0.00063903
              15.38741394                1.13862386               81.50935294                0.50211704                0.05909930                0.05910285               -0.19694253               -0.00007390                0.07048197               -0.00078210
              16.38809473                1.13614228               81.36054109                0.50465211                0.07697790                0.07703382               -0.25663054               -0.00008335                0.03835256               -0.00053002
              17.38895350                1.13365724               81.21140826                0.75336613                0.08587747                0.09537025               -0.31632410                0.00019523                0.01756550                0.00109240
               7.39077531                2.15748954               82.69452921                0.75324966               -0.07475737               -0.08401015                0.27920328               -0.00025628                0.01322532               -0.00222066
               8.39002774                2.15521818               82.54533235                0.50344323               -0.06585395               -0.06590095                0.21950587               -0.00012764                0.04521142               -0.00274573
               9.38945823                2.15294226               82.39669282                0.50052136               -0.04800610               -0.04792680                0.15986504               -0.00009105                0.08520545               -0.00056323
              10.38906762                2.15066358               82.24823307                0.49934345               -0.03009712               -0.03003862                0.10020164               -0.00004712                0.10236179                0.00026904
              11.38885629                2.14838169               82.09989363                0.49869703               -0.01217738               -0.01214556                0.04053281               -0.00004631                0.11200505                0.00023683
              12.38882407                2.14609618               81.95160348                0.49856266                0.00573070                0.00575261               -0.01914052               -0.00005950                0.11347061               -0.00020380
              13.38897091                2.14380693               81.80328985                0.49893898                0.02363868                0.02365485               -0.07881935               -0.00007116                0.10666757               -0.00083863
              14.38929684                2.14151382               81.65487990                0.49983877                0.04155333                0.04156264               -0.13850474               -0.00009278                0.09161121               -0.00151623
              15.38980197                2.13921659               81.50630116                0.50127812                0.05945309                0.05948592               -0.19819743               -0.00013012                0.06838093               -0.00204789
              16.39048590                2.13691529               81.35748237                0.50330167                0.07732135                0.07749823               -0.25789692               -0.00014023                0.03723911               -0.00208155
              17.39134840                2.13461111               81.20835626                0.75248038                0.08624940                0.09553390               -0.31759284                0.00009385                0.01711446               -0.00119098
               7.39295402                3.15665182               82.69152394                0.75321817               -0.07440270               -0.08357042                0.27801765               -0.00022522                0.01359154                0.00293068
               8.39221000                3.15456056               82.54233008                0.50340291               -0.06547864               -0.06559157                0.21832168               -0.00011060                0.04549589                0.00209879
               9.39164445                3.15246451               82.39369234                0.50049747               -0.04761930               -0.04761434                0.15867828               -0.00013829                0.08548969                0.00160994
              10.39125761                3.15036500               82.24523606                0.49932297               -0.02973204               -0.02968670                0.09900918               -0.00010668                0.10240594                0.00128093
              11.39104981                3.14826206               82.09689405                0.49868102               -0.01182285               -0.01178155                0.03932958               -0.00009749                0.11153804                0.00065618
              12.39102115                3.14615555               81.94859756                0.49855520                0.00609090                0.00612200               -0.02035559               -0.00010263                0.11268700               -0.00022155
              13.39117163                3.14404534               81.80027542                0.49893841                0.02400379                0.02403018               -0.08004690               -0.00011388                0.10571054               -0.00127580
              14.39150123                3.14193135               81.65185605                0.49984919                0.04191188                0.04194967               -0.13974410               -0.00012910                0.09062275               -0.00244134
              15.39200986                3.13981358               81.50326856                0.50130176                0.05980846                0.05989762               -0.19944753               -0.00014023                0.06755807               -0.00362123
              16.39269740                3.13769225               81.35444403                0.50333746                0.07769411                0.07787959               -0.25915417               -0.00010339                0.03676800               -0.00468029
              17.39356375                3.13556792               81.20531659                0.75250148                0.08663490                0.09584968               -0.31885140                0.00013073                0.01684456               -0.00552711
               7.39495333                4.15581813               82.68853201                0.75318838               -0.07404906               -0.08318301                0.27683205               -0.00020856                0.01377534                0.00848308
               8.39421284                4.15390634               82.53932949                0.50335912               -0.06511464               -0.06524510                0.21713627               -0.00008369                0.04604837                0.00567502
               9.39365103                4.15198997               82.39069089                0.50047827               -0.04724506               -0.04728268                0.15748870               -0.00013350                0.08647089                0.00393388
              10.39326793                4.15006984               82.24223496                0.49930982               -0.02936228               -0.02934102                0.09781285               -0.00013585                0.10341541                0.00249788
              11.39306379                4.14814606               82.09389308                0.49867444               -0.01145977               -0.01142055                0.03812377               -0.00013754                0.11243313                0.00117751
              12.39303874                4.14621862               81.94559508                0.49855661                0.00645201                0.00649124               -0.02157196               -0.00014142                0.11338902               -0.00019941
              13.39319283                4.14428753               81.79726963                0.49895184                0.02436442                0.02440682               -0.08127428               -0.00014311                0.10621456               -0.00172140
              14.39352603                4.14235281               81.64884518                0.49986742                0.04227229                0.04233651               -0.14098225               -0.00013928                0.09094662               -0.00345118
              15.39403827                4.14041454               81.50025115                0.50132910                0.06017338                0.06028646               -0.20069534               -0.00012078                0.06773694               -0.00542968
              16.39472949                4.13847289               81.35141900                0.50337610                0.07806985                0.07824867               -0.26040772               -0.00007496                0.03684305               -0.00768409
              17.39559967                4.13652810               81.20228331                0.75252742                0.08701758                0.09619685               -0.32010727                0.00014900                0.01686881               -0.01022411
               7.39677342                5.15498816               82.68554595                0.75315885               -0.07369405               -0.08281761                0.27564549               -0.00019759                0.01413126                0.01320257
               8.39603648                5.15325566               82.53632664                0.50332571               -0.06475689               -0.06488996                0.21594879               -0.00005637                0.04704925                0.00860846
               9.39547828                5.15151886               82.38768458                0.50046293               -0.04688370               -0.04693063                0.15629647               -0.00011003                0.08834446                0.00575176
              10.39509881                5.14977818               82.23922975                0.49930400               -0.02900030               -0.02898474                0.09661386               -0.00014025                0.10560392                0.00352195
              11.39489828                5.14803365               82.09089115                0.49868194               -0.01109786               -0.01105815                0.03691660               -0.00016122                0.11471637                0.00163676
              12.39487685                5.14628538               81.94259655                0.49856931                0.00681495                0.00685875               -0.02278940               -0.00016791                0.11558283               -0.00015829
              13.39503458                5.14453348               81.79427299                0.49897209                0.02472945                0.02477868               -0.08250160               -0.00015833                0.10817054               -0.00208194
              14.39537144                5.14277808               81.64584759                0.49989515                0.04263993                0.04271197               -0.14221918               -0.00013269                0.09254218               -0.00432830
              15.39588737                5.14101931               81.49724862                0.50136277                0.06054478                0.06066211               -0.20194029               -0.00009400                0.06886782               -0.00708390
              16.39658233                5.13925722               81.34840659                0.50341781                0.07844588                0.07861956               -0.26165815               -0.00004789                0.03742954               -0.01051779
              17.39745629                5.13749186               81.19925545                0.75254909                0.08739587                0.09656075               -0.32135896                0.00016409                0.01715779               -0.01475227
               7.39841438                6.15416178               82.68255702                0.75313220               -0.07333656               -0.08246783                0.27445528               -0.00018420                0.01468558                0.01680984
               8.39768101                6.15260855               82.53331304                0.50328683               -0.06440296               -0.06453118                0.21475690               -0.00002286                0.04864474                0.01047801
               9.39712632                6.15105136               82.38466758                0.50045375               -0.04653364               -0.04656075                0.15510061               -0.00007825                0.09136401                0.00680313
              10.39675034                6.14949015               82.23621699                0.49931077               -0.02864760               -0.02861513                0.09541258               -0.00013661                0.10920205                0.00407650
              11.39655336                6.14792489               82.08788698                0.49869697               -0.01073910               -0.01069185                0.03570780               -0.00017567                0.11857480                0.00189119
              12.39653555                6.14635580               81.93960224                0.49859488                0.00717958                0.00722382               -0.02400696               -0.00018416                0.11941107               -0.00011316
              13.39669696                6.14478311               81.79128708                0.49899949                0.02509959                0.02514344               -0.08372861               -0.00016401                0.11170305               -0.00224867
              14.39703755                6.14320705               81.64286602                0.49992825                0.04301503                0.04307590               -0.14345464               -0.00011872                0.09551965               -0.00482098
              15.39755726                6.14162778               81.49426473                0.50140118                0.06092199                0.06102772               -0.20318246               -0.00006094                0.07103727               -0.00816881
              16.39825599                6.14004528               81.34541127                0.50346040                0.07882129                0.07899289               -0.26290447               -0.00001609                0.03857666               -0.01264045
              17.39913368                6.13845932               81.19623772                0.75257052                0.08776954                0.09694116               -0.32260648                0.00018222                0.01773886               -0.01851616
               7.39987620                7.15333881               82.67955214                0.75310450               -0.07297584               -0.08214424                0.27325894               -0.00016121                0.01551291                0.01879128
               8.39914644                7.15196504               82.53027635                0.50325967               -0.06405415               -0.06415973                0.21355841                0.00002023                0.05103791                0.01082765
               9.39859512                7.15058765               82.38163084                0.50045266               -0.04619519               -0.04616879                0.15389985               -0.00005243                0.09587247                0.00676815
              10.39822254                7.14920588               82.23319116                0.49932875               -0.02830022               -0.02823717                0.09420760               -0.00014287                0.11454255                0.00398670
              11.39802911                7.14781982               82.08487816                0.49872992               -0.01037920               -0.01032633                0.03449697               -0.00018704                0.12429626                0.00185317
              12.39801495                7.14642985               81.93661237                0.49863508                0.00754652                0.00758621               -0.02522448               -0.00019099                0.12513093               -0.00006653
              13.39818004                7.14503635               81.78831458                0.49904489                0.02547182                0.02550377               -0.08495365               -0.00016319                0.11706916               -0.00212234
              14.39852439                7.14363960               81.63990579                0.49997047                0.04339434                0.04343072               -0.14468706               -0.00010536                0.10014622               -0.00468475
              15.39904793                7.14223986               81.49130748                0.50144537                0.06130420                0.06138017               -0.20441999               -0.00002589                0.07448793               -0.00823737
              16.39975047                7.14083708               81.34244315                0.50350205                0.07919625                0.07936505               -0.26414587                0.00002594                0.04043356               -0.01341352
              17.40063185                7.13943068               81.19324108                0.75259595                0.08813806                0.09734718               -0.32385062                0.00020991                0.01869541               -0.02079320
               7.40115869                8.15251889               82.67651227                0.75307572               -0.07261120               -0.08188167                0.27205346               -0.00011961                0.01675913                0.01844853
               8.40043257                8.15132535               82.52719896                0.50322648               -0.06371282               -0.06373911                0.21234995                0.00005040                0.05457229                0.00896489
               9.39988443                8.15012798               82.37856214                0.50046568               -0.04586324               -0.04576310                0.15269181               -0.00007690                0.10240759                0.00543044
              10.39951531                8.14892540               82.23014535                0.49936204               -0.02793924               -0.02787425                0.09299756               -0.00016222                0.12208951                0.00319188
              11.39932565                8.14771837               82.08186168                0.49877560               -0.01000530               -0.00996767                0.03328363               -0.00018393                0.13224025                0.00149407
              12.39931520                8.14650752               81.93362715                0.49869267                0.00791497                0.00794699               -0.02644194               -0.00017497                0.13307198               -0.00001973
              13.39948394                8.14529318               81.78535906                0.49910648                0.02583619                0.02586623               -0.08617541               -0.00014970                0.12464056               -0.00165497
              14.39983193                8.14407567               81.63697453                0.50003219                0.04376585                0.04378852               -0.14591308               -0.00009829                0.10688053               -0.00376038
              15.40035926                8.14285538               81.48838955                0.50149680                0.06168795                0.06171954               -0.20564925               -0.00001084                0.07970266               -0.00685989
              16.40106569                8.14163258               81.33951948                0.50355052                0.07957089                0.07971707               -0.26537783                0.00007256                0.04332816               -0.01194159
              17.40195068                8.14040626               81.19028472                0.75261941                0.08849929                0.09780326               -0.32508503                0.00025563                0.02022550               -0.02052039
               7.40226089                9.15170117               82.67341035                0.75304395               -0.07225313               -0.08174376                0.27083395               -0.00013510                0.01852035                0.01361219
               8.40153836                9.15069026               82.52405471                0.50320991               -0.06336821               -0.06323326                0.21112632               -0.00001901                0.05994087                0.00456486
               9.40099353                9.14967238               82.37544813                0.50049691               -0.04547257               -0.04543744                0.15147281               -0.00011885                0.11194673                0.00301774
              10.40062891                9.14864839               82.22707280                0.49941752               -0.02751057               -0.02753307                0.09178007               -0.00014817                0.13236114                0.00178092
              11.40044331                9.14762046               82.07883453                0.49885154               -0.00961338               -0.00961583                0.03206673               -0.00012504                0.14275311                0.00084356
              12.40043664                9.14658879               81.93064675                0.49877369                0.00827954                0.00830983               -0.02765897               -0.00011268                0.14356839                0.00000906
              13.40060891                9.14555367               81.78242415                0.49919198                0.02617913                0.02623745               -0.08739314               -0.00009918                0.13483551               -0.00089908
              14.40096022                9.14451537               81.63408073                0.50011270                0.04409471                0.04416292               -0.14713039               -0.00007991                0.11637176               -0.00209589
              15.40149080                9.14347425               81.48552753                0.50156245                0.06204122                0.06208782               -0.20686714               -0.00001926                0.08766330               -0.00393817
              16.40220105                9.14243142               81.33666829                0.50360105                0.07994001                0.08002514               -0.26659617                0.00007331                0.04804841               -0.00722743
              17.40308960                9.14138674               81.18740089                0.75264052                0.08885528                0.09835540               -0.32630577                0.00026056                0.02275371               -0.01494613
               7.40317782               10.15088402               82.67018386                0.87651345               -0.07168344               -0.08171561                0.26959142                0.00935957                0.02467065                0.01187307
               8.40246098               10.15006069               82.52081957                0.75160316               -0.06269496               -0.06295711                0.20988230                0.00902325                0.06990027                0.00347645
               9.40192392               10.14921923               82.37228113                0.75026615               -0.04483577               -0.04531506                0.15023762                0.00874205                0.12542508                0.00285566
              10.40156427               10.14837474               82.22396835                0.74973572               -0.02705884               -0.02736495                0.09055128                0.00887690                0.14561709                0.00168701
              11.40138274               10.14752605               82.07579429                0.74945508               -0.00922635               -0.00944115                0.03084465                0.00889154                0.15608697                0.00070685
              12.40137974               10.14667372               81.92767104                0.74942148                0.00863208                0.00849245               -0.02887563                0.00890407                0.15686766               -0.00022326
              13.40155538               10.14581793               81.77951236                0.74963089                0.02650051                0.02642589               -0.08860450                0.00890804                0.14799584               -0.00119376
              14.40190975               10.14495892               81.63123108                0.75008883                0.04437226                0.04435517               -0.14833611                0.00891326                0.12922672               -0.00232434
              15.40244283               10.14409714               81.48273605                0.75081151                0.06224541                0.06228893               -0.20806825                0.00891075                0.09989274               -0.00383250
              16.40315466               10.14323308               81.33392674                0.75182046                0.08012066                0.08016611               -0.26779311                0.00917270                0.05758775               -0.00615178
              17.40404524               10.14237337               81.18466389                0.87632888                0.08905826                0.09866255               -0.32750125                0.00959307                0.03001461               -0.01303066
               7.53552929                0.16207577               83.70320945                0.87682702               -0.07115180               -0.08023922                0.26604376               -0.00911855                0.02046500               -0.00508154
               8.53481777                0.15946056               83.55347571                0.75221998               -0.06270914               -0.06262113                0.20963863               -0.00861868                0.04841063               -0.00474848
               9.53427511                0.15685173               83.40421772                0.75072563               -0.04585995               -0.04584397                0.15328109               -0.00838923                0.08689792               -0.00175226
              10.53390057                0.15423967               83.25519032                0.74994608               -0.02902974               -0.02891149                0.09692591               -0.00845167                0.10733466               -0.00093302
              11.53369451                0.15162447               83.10629734                0.74951796               -0.01216808               -0.01199922                0.04057002               -0.00846074                0.11802622               -0.00035339
              12.53365721                0.14900574               82.95745978                0.74943192                0.00471226                0.00491714               -0.01578858               -0.00846746                0.11997348                0.00010785
              13.53378876                0.14638344               82.80860148                0.74968126                0.02159813                0.02183371               -0.07215251               -0.00846634                0.11337569                0.00052573
              14.53408917                0.14375750               82.65964745                0.75027473                0.03848099                0.03874859               -0.12852379               -0.00846534                0.09828286                0.00094214
              15.53455838                0.14112758               82.51052250                0.75123213                0.05536233                0.05567836               -0.18490367               -0.00844429                0.07462346                0.00141711
              16.53519642                0.13849347               82.36115019                0.75258367                0.07221925                0.07252767               -0.24129161               -0.00865875                0.04180489                0.00200249
              17.53600276                0.13584900               82.21144351                0.87684800                0.08063418                0.09008947               -0.29768827               -0.00867665                0.02037048                0.00398533
               7.53805331                1.16127338               83.70025850                0.75322991               -0.07097107               -0.07992121                0.26492087               -0.00021920                0.01639020               -0.00355374
               8.53734360                1.15883435               83.55050340                0.50366018               -0.06258274               -0.06250816                0.20851185               -0.00006172                0.04567724               -0.00429492
               9.53680166                1.15639329               83.40125107                0.50086363               -0.04569564               -0.04563460                0.15215351               -0.00001854                0.08441795               -0.00092153
              10.53642969                1.15395056               83.25220742                0.49956340               -0.02873928               -0.02873145                0.09579319                0.00000271                0.10361749               -0.00009299
              11.53622687                1.15150447               83.10329561                0.49885208               -0.01183197               -0.01182361                0.03943124               -0.00002047                0.11409411                0.00004431
              12.53619305                1.14905491               82.95443785                0.49870703                0.00506688                0.00508887               -0.01693307               -0.00003173                0.11591965               -0.00010700
              13.53632821                1.14660177               82.80555871                0.49912031                0.02196988                0.02200304               -0.07330255               -0.00003532                0.10925513               -0.00037750
              14.53663245                1.14414499               82.65658358                0.50011319                0.03888701                0.03891782               -0.12967927               -0.00003515                0.09414164               -0.00065670
              15.53710595                1.14168437               82.50743786                0.50170674                0.05583386                0.05583915               -0.18606439               -0.00007588                0.07051113               -0.00080797
              16.53774912                1.13921875               82.35804558                0.50395561                0.07272592                0.07278063               -0.24245744               -0.00008154                0.03836712               -0.00056208
              17.53856047                1.13674989               82.20833227                0.75290209                0.08113437                0.09010626               -0.29885609                0.00018253                0.01756764                0.00106047
               7.54040296                2.16047734               83.69724433                0.75279687               -0.07063421               -0.07937806                0.26380536               -0.00024454                0.01323321               -0.00219544
               8.53969662                2.15821040               83.54746691                0.50287484               -0.06222174               -0.06226365                0.20739517               -0.00012982                0.04525584               -0.00271804
               9.53915853                2.15593904               83.39824740                0.50028259               -0.04535864               -0.04528130                0.15104439               -0.00010366                0.08527423               -0.00053222
              10.53878945                2.15366504               83.24920748                0.49923823               -0.02843874               -0.02838048                0.09467475               -0.00006619                0.10242066                0.00029253
              11.53858975                2.15138799               83.10028780                0.49867216               -0.01150859               -0.01147505                0.03829963               -0.00006781                0.11205933                0.00024869
              12.53855927                2.14910751               82.95141738                0.49855632                0.00541084                0.00543496               -0.01807921               -0.00008047                0.11351848               -0.00020545
              13.53869797                2.14682350               82.80252342                0.49889063                0.02233022                0.02234882               -0.07446324               -0.00008953                0.10670580               -0.00085464
              14.53900588                2.14453586               82.65353307                0.49967547                0.03925659                0.03926811               -0.13085454               -0.00010644                0.09163759               -0.00154573
              15.53948310                2.14224436               82.50437385                0.50095181                0.05616917                0.05620241               -0.18725351               -0.00013653                0.06839504               -0.00208923
              16.54012926                2.13994908               82.35497453                0.50274933                0.07305111                0.07322134               -0.24365751               -0.00013959                0.03724421               -0.00213255
              17.54094412                2.13765112               82.20526792                0.75211335                0.08148601                0.09026415               -0.30005883                0.00008553                0.01711159               -0.00124266
               7.54258232                3.15968582               83.69422755                0.75277047               -0.07030094               -0.07896348                0.26269050               -0.00021609                0.01359888                0.00296459
               8.54187931                3.15758908               83.54445315                0.50283871               -0.06186899               -0.06197276                0.20628163               -0.00011682                0.04553711                0.00213475
               9.54134494                3.15548767               83.39523540                0.50025825               -0.04499475               -0.04498681                0.14992723               -0.00015381                0.08555089                0.00164076
              10.54097941                3.15338295               83.24619888                0.49922217               -0.02809462               -0.02804829                0.09355028               -0.00012839                0.10245353                0.00130337
              11.54078305                3.15127497               83.09727653                0.49865618               -0.01117389               -0.01113123                0.03716403               -0.00012206                0.11157841                0.00066684
              12.54075594                3.14916361               82.94839963                0.49854507                0.00575138                0.00578435               -0.01922789               -0.00012767                0.11271939               -0.00022456
              13.54089807                3.14704875               82.79949704                0.49888599                0.02267582                0.02270437               -0.07562549               -0.00013635                0.10573349               -0.00129362
              14.54120945                3.14493035               82.65049715                0.49968671                0.03959612                0.03963545               -0.13202991               -0.00014625                0.09063583               -0.00247269
              15.54169000                3.14280841               82.50132909                0.50097273                0.05650616                0.05659373               -0.18844029               -0.00015065                0.06756074               -0.00366454
              16.54233958                3.14068317               82.35192393                0.50277867                0.07340524                0.07358494               -0.24485334               -0.00010767                0.03676630               -0.00473158
              17.54315810                3.13855517               82.20221596                0.75213020                0.08185250                0.09056654               -0.30125793                0.00011933                0.01683868               -0.00557952
               7.54459212                4.15889808               83.69122412                0.75274426               -0.06996892               -0.07859858                0.26157719               -0.00020105                0.01378191                0.00852510
               8.54389243                4.15697094               83.54144106                0.50280335               -0.06152707               -0.06164736                0.20516813               -0.00009366                0.04608565                0.00571658
               9.54336158                4.15503931               83.39222240                0.50024445               -0.04464283               -0.04467483                0.14880810               -0.00015318                0.08652369                0.00396787
              10.54299957                4.15310408               83.24318615                0.49921145               -0.02774634               -0.02772243                0.09242287               -0.00016048                0.10345163                0.00252159
              11.54280665                4.15116537               83.09426384                0.49865105               -0.01083155               -0.01079030                0.03602604               -0.00016493                0.11246047                0.00118835
              12.54278294                4.14922320               82.94538532                0.49854603                0.00609227                0.00613384               -0.02037800               -0.00016932                0.11340770               -0.00020313
              13.54292850                4.14727759               82.79647930                0.49889471                0.02301743                0.02306163               -0.07678877               -0.00016898                0.10622408               -0.00173992
              14.54324329                4.14532857               82.64747422                0.49970295                0.03993838                0.04000288               -0.13320491               -0.00016035                0.09094690               -0.00348360
              15.54372726                4.14337624               82.49829950                0.50099797                0.05685284                0.05696361               -0.18962557               -0.00013545                0.06772958               -0.00547459
              16.54438035                4.14142078               82.34888667                0.50281742                0.07376217                0.07393663               -0.24604544               -0.00008244                0.03683637               -0.00773644
              17.54520251                4.13946245               82.19917044                0.75215247                0.08221596                0.09089715               -0.30245175                0.00013575                0.01686033               -0.01027821
               7.54643256                5.15811384               83.68822657                0.75272017               -0.06963595               -0.07825475                0.26046391               -0.00019093                0.01413580                0.01324988
               8.54573620                5.15635613               83.53842670                0.50276963               -0.06119131               -0.06131424                0.20405366               -0.00006885                0.04708231                0.00865352
               9.54520874                5.15459417               83.38920453                0.50022995               -0.04430323               -0.04434419                0.14768786               -0.00013298                0.08838986                0.00578830
              10.54485014                5.15282850               83.24016930                0.49920791               -0.02740573               -0.02738707                0.09129434               -0.00016719                0.10563027                0.00354725
              11.54466062                5.15105917               83.09125017                0.49865930               -0.01049039               -0.01044828                0.03488710               -0.00019019                0.11473141                0.00164826
              12.54464033                5.14928628               82.94237495                0.49855990                0.00643510                0.00648151               -0.02152899               -0.00019694                0.11558856               -0.00016194
              13.54478933                5.14750998               82.79347071                0.49891331                0.02336293                0.02341429               -0.07795193               -0.00018563                0.10816780               -0.00210088
              14.54510759                5.14573041               82.64446457                0.49972587                0.04028737                0.04035958               -0.13437941               -0.00015646                0.09253126               -0.00436139
              15.54559507                5.14394769               82.49528484                0.50102853                0.05720608                0.05732099               -0.19080948               -0.00011216                0.06885171               -0.00712855
              16.54625171                5.14216191               82.34586208                0.50285052                0.07411995                0.07428955               -0.24723507               -0.00005831                0.03741833               -0.01057009
              17.54707747                5.14037312               82.19613038                0.75217359                0.08257594                0.09124270               -0.30364310                0.00014949                0.01714795               -0.01480690
               7.54810373                6.15733298               83.68522609                0.75269465               -0.06930064               -0.07792595                0.25934783               -0.00017815                0.01468967                0.01685904
               8.54741073                6.15574466               83.53540155                0.50274126               -0.06085924               -0.06097812                0.20293603               -0.00003694                0.04867521                0.01052359
               9.54688655                6.15415242               83.38617594                0.50022490               -0.04397457               -0.04399713                0.14656536               -0.00010263                0.09140361                0.00684030
              10.54653123                6.15255634               83.23714489                0.49921835               -0.02707422               -0.02703937                0.09016418               -0.00016368                0.10921962                0.00410205
              11.54634506                6.15095640               83.08823426                0.49867452               -0.01015239               -0.01010273                0.03374684               -0.00020400                0.11857880                0.00190285
              12.54632819                6.14935283               82.93936880                0.49858641                0.00677978                0.00682654               -0.02267992               -0.00021241                0.11940459               -0.00011613
              13.54648066                6.14774587               82.79047285                0.49894397                0.02371364                0.02375975               -0.07911425               -0.00019078                0.11168826               -0.00226668
              14.54680246                6.14613576               82.64147096                0.49975948                0.04064322                0.04070509               -0.13555247               -0.00014286                0.09549890               -0.00485354
              15.54729352                6.14452266               82.49228884                0.50106242                0.05756452                0.05766859               -0.19199078               -0.00008063                0.07101438               -0.00821207
              16.54795375                6.14290657               82.34285460                0.50288957                0.07447760                0.07464449               -0.24842190               -0.00002801                0.03856207               -0.01269123
              17.54878308                6.14128731               82.19310048                0.75219560                0.08293252                0.09160367               -0.30483256                0.00016703                0.01772850               -0.01857145
               7.54960565                7.15655533               83.68220961                0.75267064               -0.06896240               -0.07762230                0.25822612               -0.00015580                0.01551718                0.01883936
               8.54891602                7.15513657               83.53235324                0.50271299               -0.06053211               -0.06063021                0.20181219                0.00000544                0.05106733                0.01086967
               9.54839501                7.15371423               83.38312755                0.50022507               -0.04365699               -0.04362915                0.14543793               -0.00007523                0.09590886                0.00680245
              10.54804289                7.15228771               83.23410737                0.49923424               -0.02674789               -0.02668375                0.08903040               -0.00016618                0.11455402                0.00401047
              11.54786005                7.15085711               83.08521367                0.49870735               -0.00981344               -0.00975804                0.03260498               -0.00021128                0.12429208                0.00186435
              12.54784662                7.14942281               82.93636709                0.49862331                0.00712661                0.00716904               -0.02383093               -0.00021561                0.12511524               -0.00006892
              13.54800258                7.14798518               82.78748843                0.49898690                0.02406650                0.02410084               -0.08027444               -0.00018715                0.11704450               -0.00213796
              14.54832795                7.14654451               82.63849872                0.49980184                0.04100335                0.04104161               -0.13672198               -0.00012745                0.10011715               -0.00471361
              15.54882265                7.14510106               82.48931951                0.50110186                0.05792793                0.05800343               -0.19316756               -0.00004486                0.07445987               -0.00827648
              16.54948650                7.14365480               82.33987437                0.50292807                0.07483480                0.07499791               -0.24960332                0.00001372                0.04041529               -0.01346018
              17.55031934                7.14220519               82.19009169                0.75221445                0.08328391                0.09198817               -0.30601654                0.00019449                0.01868180               -0.02084585
               7.55093814                8.15578053               83.67915806                0.75264325               -0.06862039               -0.07737695                0.25709577               -0.00011529                0.01676362                0.01849039
               8.55025193                8.15453205               83.52926413                0.50269018               -0.06021191               -0.06023557                0.20067844                0.00003760                0.05460247                0.00899854
               9.54973390                8.15327984               83.38004713                0.50024344               -0.04334518               -0.04324762                0.14430222               -0.00009206                0.10244437                0.00545861
              10.54938503                8.15202266               83.23104980                0.49927145               -0.02640810               -0.02634213                0.08789125               -0.00017742                0.12209913                0.00321129
              11.54920574                8.15076124               83.08218540                0.49875573               -0.00946098               -0.00941982                0.03146064               -0.00020094                0.13223251                0.00150349
              12.54919581                8.14949621               82.93337002                0.49867997                0.00747421                0.00751023               -0.02498208               -0.00019314                0.13305208               -0.00002139
              13.54935522                8.14822789               82.78452101                0.49904439                0.02441117                0.02444431               -0.08143226               -0.00016755                0.12461156               -0.00166773
              14.54968403                8.14695659               82.63555551                0.49985664                0.04135603                0.04138111               -0.13788623               -0.00011472                0.10684749               -0.00378259
              15.55018234                8.14568273               82.48638960                0.50115004                0.05829298                0.05832587               -0.19433695               -0.00002554                0.07967221               -0.00689125
              16.55084989                8.14440653               82.33693868                0.50297018                0.07519179                0.07533224               -0.25077632                0.00006106                0.04330909               -0.01198011
              17.55168618                8.14312707               82.18712329                0.75223658                0.08362848                0.09242017               -0.30719145                0.00023937                0.02021223               -0.02056423
               7.55210031                9.15500779               83.67604430                0.75261688               -0.06828343               -0.07724954                0.25594974               -0.00012859                0.01852690                0.01363959
               8.55141747                9.15393185               83.52610801                0.50267799               -0.05988748               -0.05975953                0.19952843               -0.00002313                0.05997608                0.00458318
               9.55090256                9.15284928               83.37692129                0.50027774               -0.04297699               -0.04294140                0.14315442               -0.00012285                0.11198935                0.00303439
              10.55055793                9.15176087               83.22796543                0.49932530               -0.02600389               -0.02602074                0.08674362               -0.00015381                0.13237425                0.00179244
              11.55038248                9.15066872               83.07914642                0.49882637               -0.00909124               -0.00908776                0.03031203               -0.00013418                0.14274842                0.00084921
              12.55037611                9.14957302               82.93037779                0.49876420                0.00781851                0.00785334               -0.02613274               -0.00012274                0.14355014                0.00000823
              13.55053885                9.14847406               82.78157424                0.49912999                0.02473522                0.02479620               -0.08258604               -0.00010854                0.13480838               -0.00090692
              14.55087081                9.14737213               82.63264986                0.49993536                0.04166744                0.04173661               -0.13904177               -0.00008768                0.11634083               -0.00210887
              15.55137220                9.14626757               82.48351570                0.50121652                0.05862855                0.05867552               -0.19549431               -0.00002618                0.08763444               -0.00395694
              16.55204338                9.14516144               82.33407561                0.50301892                0.07554268                0.07562486               -0.25193489                0.00006579                0.04803225               -0.00725108
              17.55288305                9.14405359               82.18422758                0.75225483                0.08396686                0.09294318               -0.30835104                0.00024562                0.02274503               -0.01497478
               7.55308743               10.15423554               83.67280574                0.87630160               -0.06774482               -0.07722428                0.25477771                0.00884392                0.02468200                0.01189284
               8.55240998               10.15333686               83.52286078                0.75134105               -0.05925008               -0.05949926                0.19835496                0.00852405                0.06994535                0.00348652
               9.55190243               10.15242101               83.37374228                0.75015676               -0.04237333               -0.04282654                0.14198910                0.00825609                0.12548216                0.00286557
              10.55156251               10.15150225               83.22484903                0.74968908               -0.02557617               -0.02586231                0.08558386                0.00838183                0.14564369                0.00169411
              11.55139090               10.15057949               83.07609430                0.74944610               -0.00872541               -0.00892279                0.02915728                0.00839394                0.15609480                0.00071055
              12.55138800               10.14965328               82.92739024                0.74941505                0.00815163                0.00802598               -0.02728318                0.00840587                0.15686053               -0.00022332
              13.55155394               10.14872381               82.77865067                0.74959890                0.02503817                0.02497477               -0.08373257                0.00841085                0.14797912               -0.00119819
              14.55188877               10.14779132               82.62978847                0.75000024                0.04192867                0.04191917               -0.14018466                0.00841684                0.12920578               -0.00233206
              15.55239251               10.14685624               82.48071253                0.75063459                0.05882102                0.05886633               -0.19663367                0.00841620                0.09987326               -0.00384378
              16.55306519               10.14591903               82.33132239                0.75152745                0.07571369                0.07575871               -0.25307097                0.00866526                0.05757984               -0.00616653
              17.55390678               10.14498593               82.18147892                0.87613446                0.08415942                0.09323401               -0.30948592                0.00906364                0.03001367               -0.01305111
               7.68574980                0.16498153               84.70579213                0.87656590               -0.06698893               -0.07554569                0.25047802               -0.00858667                0.02048541               -0.00507935
               8.68507991                0.16239104               84.55551081                0.75186707               -0.05904101               -0.05895498                0.19736732               -0.00811705                0.04846407               -0.00474581
               9.68456898                0.15980653               84.40570571                0.75055676               -0.04317958               -0.04315943                0.14430823               -0.00790203                0.08698305               -0.00174625
              10.68421632                0.15721894               84.25613125                0.74987312               -0.02733632               -0.02721773                0.09125355               -0.00796161                0.10742317               -0.00092825
              11.68402226                0.15462836               84.10669119                0.74950051               -0.01146274               -0.01129577                0.03819922               -0.00797027                0.11811229               -0.00035092
              12.68398707                0.15203446               83.95730653                0.74942322                0.00442969                0.00462994               -0.01485891               -0.00797644                0.12005204                0.00010781
              13.68411085                0.14943720               83.80790108                0.74964179                0.02032863                0.02055558               -0.06792291               -0.00797470                0.11344205                0.00052258
              14.68439364                0.14683654               83.65839981                0.75016205                0.03622537                0.03647984               -0.12099539               -0.00797318                0.09833428                0.00093684
              15.68483536                0.14423217               83.50872755                0.75099936                0.05212017                0.05241830               -0.17407637               -0.00795237                0.07466002                0.00140986
              16.68543604                0.14162389               83.35880785                0.75218645                0.06799102                0.06828130               -0.22716453               -0.00815287                0.04182598                0.00199235
              17.68619518                0.13900589               83.20855369                0.87658488                0.07591342                0.08481550               -0.28025938               -0.00817001                0.02037812                0.00397665
               7.68825443                1.16422607               84.70283029                0.75275383               -0.06681838               -0.07524730                0.24942312               -0.00020792                0.01640322               -0.00353764
               8.68758624                1.16180149               84.55252756                0.50303871               -0.05892067               -0.05884859                0.19630811               -0.00006348                0.04572504               -0.00427874
               9.68707601                1.15937493               84.40272813                0.50057924               -0.04302267               -0.04296243                0.14324815               -0.00002788                0.08449688               -0.00090022
              10.68672579                1.15694676               84.25313735                0.49944386               -0.02706107               -0.02704845                0.09018817               -0.00001062                0.10369740               -0.00007697
              11.68653479                1.15451540               84.10367842                0.49882314               -0.01114536               -0.01113054                0.03712788               -0.00003382                0.11417188                0.00005230
              12.68650288                1.15208076               83.95427350                0.49869626                0.00476347                0.00479161               -0.01593557               -0.00004470                0.11599057               -0.00010805
              13.68663006                1.14964276               83.80484715                0.49905910                0.02067727                0.02071521               -0.06900438               -0.00004701                0.10931475               -0.00038805
              14.68691643                1.14720134               83.65532474                0.49992052                0.03660508                0.03663953               -0.12208112               -0.00004451                0.09418726               -0.00067653
              15.68736216                1.14475635               83.50563165                0.50131758                0.05256125                0.05257025               -0.17516599               -0.00007942                0.07054153               -0.00083696
              16.68796765                1.14230670               83.35569194                0.50329263                0.06846551                0.06852060               -0.22825824               -0.00008100                0.03838313               -0.00059853
              17.68873147                1.13985405               83.20543114                0.75246516                0.07638205                0.08483394               -0.28135513                0.00016906                0.01757170                0.00102269
               7.69059481                2.16347658               84.69980532                0.75237148               -0.06650301               -0.07473745                0.24837786               -0.00023322                0.01324222               -0.00216506
               8.68992978                2.16121406               84.54948025                0.50234178               -0.05858284               -0.05861898                0.19526069               -0.00013312                0.04530363               -0.00268642
               9.68942315                2.15894728               84.39971371                0.50005835               -0.04270705               -0.04263014                0.14220709               -0.00011843                0.08534913               -0.00049896
              10.68907564                2.15667797               84.25012657                0.49914593               -0.02677872               -0.02671834                0.08913739               -0.00008788                0.10248656                0.00031718
              11.68888758                2.15440575               84.10065962                0.49864819               -0.01084108               -0.01080237                0.03606317               -0.00009222                0.11212049                0.00026038
              12.68885882                2.15213029               83.95124190                0.49854886                0.00508738                0.00511775               -0.01701506               -0.00010480                0.11357210               -0.00020876
              13.68898933                2.14985151               83.80180058                0.49883557                0.02101715                0.02104156               -0.07009911               -0.00011178                0.10674845               -0.00087318
              14.68927916                2.14756934               83.65226281                0.49952873                0.03695426                0.03697064               -0.12319095               -0.00012331                0.09166695               -0.00158028
              15.68972841                2.14528357               83.50255609                0.50064473                0.05287827                0.05291431               -0.17629032               -0.00014487                0.06841158               -0.00213888
              16.69033673                2.14299430               83.35260922                0.50222498                0.06877264                0.06893877               -0.22939417               -0.00014007                0.03725243               -0.00219314
              17.69110386                2.14070257               83.20235509                0.75176212                0.07671387                0.08498786               -0.28249566                0.00007634                0.01711212               -0.00130740
               7.69277479                3.16273132               84.69677775                0.75234755               -0.06619123               -0.07434844                0.24733505               -0.00020775                0.01360760                0.00300522
               8.69211288                3.16062911               84.54645571                0.50230796               -0.05825257               -0.05834682                0.19421842               -0.00012510                0.04558169                0.00217598
               9.69160974                3.15852233               84.39669089                0.50003753               -0.04236609               -0.04235380                0.14116008               -0.00017249                0.08561779                0.00167559
              10.69126556                3.15641239               84.24710706                0.49913030               -0.02645602               -0.02640606                0.08808166               -0.00015413                0.10250726                0.00132802
              11.69108062                3.15429936               84.09763733                0.49863410               -0.01052655               -0.01047860                0.03499495               -0.00015153                0.11162431                0.00067782
              12.69105503                3.15218311               83.94821300                0.49853447                0.00540805                0.00544744               -0.01809766               -0.00015730                0.11275721               -0.00022941
              13.69118878                3.15006359               83.79876291                0.49883293                0.02134347                0.02137780               -0.07119675               -0.00016337                0.10576038               -0.00131511
              14.69148190                3.14794076               83.64921545                0.49953264                0.03727592                0.03731887               -0.12430345               -0.00016784                0.09065019               -0.00251051
              15.69193430                3.14581464               83.49949976                0.50066243                0.05319767                0.05328620               -0.17741571               -0.00016420                0.06756542               -0.00371648
              16.69254585                3.14368548               83.34954696                0.50225466                0.06910774                0.06928545               -0.23052849               -0.00011362                0.03676687               -0.00479423
              17.69331645                3.14155380               83.19929143                0.75178084                0.07706045                0.08527761               -0.28363432                0.00010682                0.01683378               -0.00564659
               7.69479508                4.16198961               84.69376355                0.75232567               -0.06588141               -0.07400659                0.24629625               -0.00019436                0.01378912                0.00857474
               8.69413627                4.16004713               84.54343285                0.50227951               -0.05793314               -0.05804296                0.19317804               -0.00010629                0.04612542                0.00576502
               9.69363642                4.15810020               84.39366705                0.50002358               -0.04203686               -0.04206190                0.14011257               -0.00017750                0.08658143                0.00400714
              10.69329553                4.15614985               84.24408341                0.49911838               -0.02612968               -0.02610035                0.08702465               -0.00019067                0.10349349                0.00254836
              11.69311382                4.15419618               84.09461360                0.49863036               -0.01020468               -0.01015787                0.03392520               -0.00019838                0.11249195                0.00120017
              12.69309144                4.15223924               83.94518752                0.49853899                0.00572963                0.00577719               -0.01918188               -0.00020299                0.11342961               -0.00020810
              13.69322842                4.15027906               83.79573386                0.49884265                0.02166613                0.02171594               -0.07229623               -0.00020010                0.10623561               -0.00176283
              14.69352476                4.14831571               83.64618108                0.49954874                0.03759950                0.03766772               -0.12541678               -0.00018658                0.09094824               -0.00352305
              15.69398041                4.14634930               83.49645864                0.50068396                0.05352627                0.05363830               -0.17854114               -0.00015484                0.06772396               -0.00552768
              16.69459528                4.14438001               83.34649809                0.50228349                0.06944677                0.06962112               -0.23166247               -0.00009308                0.03683122               -0.00779932
              17.69536934                4.14240812               83.19623428                0.75179953                0.07740584                0.08559351               -0.28477161                0.00012132                0.01685399               -0.01034453
               7.69665587                5.16125119               84.69075523                0.75230434               -0.06557091               -0.07368489                0.24525828               -0.00018512                0.01414225                0.01330570
               8.69600016                5.15946825               84.54040771                0.50224974               -0.05761991               -0.05773252                0.19213853               -0.00008462                0.04711761                0.00870683
               9.69550347                5.15768109               84.39063834                0.50001450               -0.04171968               -0.04175319                0.13906581               -0.00016179                0.08843814                0.00583125
              10.69516577                5.15589038               84.24105563                0.49911956               -0.02581082               -0.02578616                0.08596726               -0.00020076                0.10565958                0.00357646
              11.69498726                5.15409620               84.09158889                0.49863954               -0.00988435               -0.00983636                0.03285490               -0.00022625                0.11474835                0.00166137
              12.69496808                5.15229866               83.94216597                0.49855188                0.00605255                0.00610500               -0.02026639               -0.00023335                0.11559453               -0.00016612
              13.69510831                5.15049791               83.79271395                0.49886036                0.02199260                0.02204952               -0.07339560               -0.00022007                0.10816364               -0.00212284
              14.69540793                5.14869411               83.64316000                0.49957073                0.03792995                0.03800623               -0.12653004               -0.00018653                0.09251916               -0.00440026
              15.69586691                5.14688740               83.49343243                0.50071176                0.05386135                0.05397826               -0.17966576               -0.00013546                0.06883639               -0.00718135
              16.69648516                5.14507790               83.34346189                0.50231679                0.06978720                0.06995741               -0.23279523               -0.00007160                0.03740811               -0.01063229
              17.69726265                5.14326567               83.19318259                0.75181941                0.07774901                0.08592243               -0.28590771                0.00013421                0.01713943               -0.01487341
               7.69835726                6.16051591               84.68774398                0.75228147               -0.06525897               -0.07337787                0.24421969               -0.00017283                0.01469485                0.01691757
               8.69770467                6.15889248               84.53737176                0.50222480               -0.05731073               -0.05741998                0.19109781               -0.00005470                0.04870625                0.01057802
               9.69721105                6.15726514               84.38759889                0.50000968               -0.04141312               -0.04142942                0.13801798               -0.00013340                0.09144337                0.00688403
              10.69687641                6.15563412               84.23802027                0.49912579               -0.02550098               -0.02546057                0.08490891               -0.00019779                0.10923711                0.00413208
              11.69670103                6.15399945               84.08856192                0.49865072               -0.00956748               -0.00951179                0.03178428               -0.00024005                0.11858224                0.00191688
              12.69668506                6.15236134               83.93914865                0.49857619                0.00637690                0.00643015               -0.02135085               -0.00024886                0.11939627               -0.00011924
              13.69682856                6.15072006               83.78970480                0.49888640                0.02232391                0.02237592               -0.07449378               -0.00022563                0.11166944               -0.00228680
              14.69713154                6.14907584               83.64015497                0.49960350                0.03826732                0.03833350               -0.12764156               -0.00017422                0.09547361               -0.00488943
              15.69759391                6.14742886               83.49042491                0.50074145                0.05420215                0.05430825               -0.18078815               -0.00010576                0.07098900               -0.00826161
              16.69821558                6.14577916               83.34044283                0.50235180                0.07012815                0.07029443               -0.23392526               -0.00004246                0.03854552               -0.01274997
              17.69899647                6.14412657               83.19014107                0.75183704                0.07808939                0.08626393               -0.28704055                0.00015132                0.01771556               -0.01863369
               7.69989929                7.15978363               84.68471666                0.75226034               -0.06494441               -0.07309507                0.24317648               -0.00015092                0.01552161                0.01889616
               8.69924984                7.15831985               84.53431259                0.50220285               -0.05700630               -0.05709665                0.19005202               -0.00001228                0.05109530                0.01092065
               9.69875916                7.15685250               84.38453960                0.50001467               -0.04111711               -0.04108595                0.13696552               -0.00010373                0.09594185                0.00684330
              10.69842750                7.15538117               84.23497177                0.49914621               -0.02519620               -0.02512765                0.08384791               -0.00019632                0.11456188                0.00403880
              11.69825524                7.15390596               84.08553026                0.49868483               -0.00924995               -0.00918819                0.03071254               -0.00024295                0.12428406                0.00187820
              12.69824250                7.15242726               83.93613575                0.49861055                0.00670314                0.00675265               -0.02243505               -0.00024783                0.12509452               -0.00007110
              13.69838930                7.15094543               83.78670909                0.49892894                0.02265710                0.02269803               -0.07559044               -0.00021804                0.11701347               -0.00215592
              14.69869564                7.14946078               83.63717135                0.49964169                0.03860863                0.03865181               -0.12874926               -0.00015566                0.10008025               -0.00474568
              15.69916147                7.14797357               83.48744412                0.50077997                0.05454786                0.05462543               -0.18190590               -0.00006855                0.07442556               -0.00832059
              16.69978660                7.14648379               83.33745108                0.50238635                0.07046874                0.07062891               -0.23504917               -0.00000095                0.04039484               -0.01351246
              17.70057085                7.14499095               83.18712075                0.75185760                0.07842462                0.08662610               -0.28816544                0.00017823                0.01866843               -0.02090077
               7.70128181                8.15905401               84.68165419                0.75223894               -0.06462557               -0.07286742                0.24212316               -0.00011140                0.01676759                0.01853909
               8.70063555                8.15775055               84.53121253                0.50218283               -0.05670807               -0.05672870                0.18899556                0.00002271                0.05462926                0.00903898
               9.70014765                8.15644342               84.38144818                0.50003095               -0.04082648               -0.04072938                0.13590524               -0.00011198                0.10247452                0.00549126
              10.69981902                8.15513157               84.23190317                0.49918479               -0.02487835               -0.02480791                0.08278152               -0.00019867                0.12210137                0.00323458
              11.69965008                8.15381569               84.08249089                0.49873588               -0.00891927               -0.00887069                0.02963791               -0.00022427                0.13221596                0.00151512
              12.69964064                8.15249639               83.93312750                0.49867257                0.00703028                0.00707383               -0.02351910               -0.00021751                0.13302134               -0.00002275
              13.69979068                8.15117402               83.78373041                0.49898838                0.02298243                0.02302235               -0.07668459               -0.00019106                0.12457086               -0.00168207
              14.70010029                8.14984887               83.63421680                0.49969678                0.03894243                0.03897299               -0.12985248               -0.00013586                0.10680236               -0.00380866
              15.70056953                8.14852137               83.48450281                0.50082718                0.05489445                0.05493069               -0.18301623               -0.00004392                0.07963181               -0.00692622
              16.70119817                8.14719173               83.33450395                0.50242587                0.07080857                0.07094510               -0.23616407                0.00004711                0.04328571               -0.01202156
              17.70198570                8.14585909               83.18414089                0.75187445                0.07875303                0.08703321               -0.28928190                0.00022216                0.02019836               -0.02060995
               7.70250399                9.15832628               84.67852934                0.75221479               -0.06431053               -0.07275102                0.24105262               -0.00012229                0.01853100                0.01367005
               8.70186089                9.15718527               84.52804528                0.50217572               -0.05640486               -0.05628282                0.18792072               -0.00002866                0.06000479                0.00460521
               9.70137590                9.15603792               84.37831122                0.50006812               -0.04048146               -0.04044331                0.13483114               -0.00012971                0.11202302                0.00305372
              10.70105126                9.15488502               84.22880768                0.49924196               -0.02449852               -0.02450715                0.08170601               -0.00016298                0.13237785                0.00180639
              11.70088593                9.15372855               84.07944077                0.49880943               -0.00857179               -0.00855882                0.02855875               -0.00014654                0.14273054                0.00085627
              12.70087982                9.15256874               83.93012409                0.49875183                0.00735366                0.00739737               -0.02460341               -0.00013647                0.14351639                0.00000753
              13.70103300                9.15140588               83.78077243                0.49907071                0.02328745                0.02335487               -0.07777434               -0.00012209                0.13476393               -0.00091508
              14.70134557                9.15024024               83.63129989                0.49977054                0.03923663                0.03930968               -0.13094763               -0.00009893                0.11629320               -0.00212407
              15.70181773                9.14907218               83.48161764                0.50088752                0.05521231                0.05526212               -0.18411509               -0.00003596                0.08759341               -0.00397696
              16.70244982                9.14790269               83.33162959                0.50246728                0.07114201                0.07122272               -0.23726538                0.00005621                0.04800890               -0.00727460
              17.70324057                9.14673162               83.18123387                0.75189346                0.07907537                0.08752788               -0.29038507                0.00023031                0.02273188               -0.01500276
               7.70356138               10.15759899               84.67527941                0.87609976               -0.06380337               -0.07272905                0.23995336                0.00832798                0.02469223                0.01191227
               8.70292334               10.15662489               84.52478667                0.75108819               -0.05580336               -0.05603857                0.18682015                0.00802360                0.06998380                0.00349826
               9.70244531               10.15563455               84.37512092                0.75005490               -0.03991076               -0.04033623                0.13373751                0.00776822                0.12552805                0.00287758
              10.70212513               10.15464143               84.22568003                0.74964922               -0.02409429               -0.02435888                0.08061635                0.00788477                0.14565738                0.00170251
              11.70196343               10.15364451               84.07637744                0.74943592               -0.00822740               -0.00840381                0.02747227                0.00789558                0.15608639                0.00071488
              12.70196058               10.15264434               83.92712537                0.74941088                0.00766577                0.00756038               -0.02568797                0.00790576                0.15683531               -0.00022340
              13.70211674               10.15164111               83.77783771                0.74956855                0.02357100                0.02352375               -0.07885727                0.00791027                0.14794190               -0.00120212
              14.70243200               10.15063507               83.62842738                0.74991594                0.03948125                0.03948269               -0.13202958                0.00791773                0.12916473               -0.00234016
              15.70290637               10.14962661               83.47880338                0.75046991                0.05539301                0.05544312               -0.18519586                0.00791935                0.09983882               -0.00385443
              16.70353986               10.14861619               83.32886532                0.75125289                0.07130436                0.07135007               -0.23834486                0.00815616                0.05756248               -0.00617940
              17.70433245               10.14760965               83.17847417                0.87595250                0.07925911                0.08780337               -0.29146431                0.00853413                0.03000679               -0.01306842
               7.83650165                0.16789786               85.70821901                0.87632025               -0.06281779               -0.07084239                0.23488030               -0.00805417                0.02050780               -0.00507503
               8.83587347                0.16533213               85.55742306                0.75153460               -0.05536617               -0.05528062                0.18506990               -0.00761441                0.04852204               -0.00474243
               9.83539433                0.16277198               85.40710388                0.75039477               -0.04049556               -0.04046847                0.13531686               -0.00741360                0.08707645               -0.00173998
              10.83506356                0.16020890               85.25701539                0.74980502               -0.02564240               -0.02551991                0.08557172               -0.00747049                0.10752148               -0.00092348
              11.83488148                0.15764299               85.10706132                0.74948665               -0.01076015               -0.01059032                0.03582699               -0.00747919                0.11820581               -0.00034873
              12.83484836                0.15507395               84.95716260                0.74941760                0.00414173                0.00434275               -0.01392340               -0.00748504                0.12013396                0.00010749
              13.83496431                0.15250175               84.80724303                0.74960700                0.01905193                0.01927574               -0.06368197               -0.00748302                0.11350848                0.00051957
              14.83522940                0.14992638               84.65722754                0.75005387                0.03396156                0.03420736               -0.11345024               -0.00748032                0.09838318                0.00093014
              15.83564354                0.14734756               84.50704098                0.75078052                0.04886982                0.04915239               -0.16322727               -0.00745900                0.07469201                0.00139934
              16.83620679                0.14476513               84.35660690                0.75181291                0.06375421                0.06402701               -0.21301076               -0.00764560                0.04184308                0.00197887
              17.83691863                0.14217363               84.20583833                0.87633535                0.07118358                0.07953164               -0.26279728               -0.00766262                0.02038341                0.00396131
               7.83898684                1.16718944               85.70524696                0.75231113               -0.06265697               -0.07056365                0.23389257               -0.00019696                0.01641766               -0.00351800
               8.83836027                1.16477933               85.55442956                0.50245678               -0.05525157               -0.05518078                0.18407754               -0.00006548                0.04577716               -0.00426077
               9.83788181                1.16236730               85.40411603                0.50031346               -0.04034594               -0.04028399                0.13432403               -0.00003765                0.08458414               -0.00087777
              10.83755335                1.15995370               85.25401118                0.49933151               -0.02538221               -0.02536133                0.08457331               -0.00002497                0.10378725               -0.00006068
              11.83737416                1.15753709               85.10403817                0.49879792               -0.01046112               -0.01043533                0.03482263               -0.00004871                0.11425759                0.00005967
              12.83734413                1.15511738               84.95411914                0.49868629                0.00445510                0.00449458               -0.01493277               -0.00005931                0.11606651               -0.00011017
              13.83746326                1.15269451               84.80417862                0.49899821                0.01937811                0.01942583               -0.06469530               -0.00006033                0.10937673               -0.00040049
              14.83773169                1.15026846               84.65414196                0.49974464                0.03431586                0.03435784               -0.11446659               -0.00005523                0.09423291               -0.00070017
              15.83814958                1.14783909               84.50393454                0.50095249                0.04928058                0.04929612               -0.16424608               -0.00008398                0.07057144               -0.00087175
              16.83871730                1.14540540               84.35348042                0.50267588                0.06419583                0.06425332               -0.21403101               -0.00008094                0.03839846               -0.00064342
              17.83943350                1.14296895               84.20270517                0.75205266                0.07161974                0.07955266               -0.26381901                0.00015524                0.01757438                0.00097165
               7.84131793                2.16648659               85.70221188                0.75197028               -0.06236307               -0.07008764                0.23291859               -0.00022230                0.01325249               -0.00212863
               8.84069430                2.16422852               85.55137213                0.50184035               -0.05493680               -0.05496629                0.18309950               -0.00013773                0.04535590               -0.00265085
               9.84021920                2.16196630               85.40109155                0.49984715               -0.04005185               -0.03997287                0.13335138               -0.00013535                0.08543262               -0.00046323
              10.83989327                2.15970167               85.25099022                0.49905514               -0.02511848               -0.02505203                0.08359014               -0.00011227                0.10256228                0.00034282
              11.83971683                2.15743429               85.10100906                0.49862703               -0.01017584               -0.01012741                0.03382447               -0.00011981                0.11219010                0.00027153
              12.83968975                2.15516384               84.95107708                0.49853844                0.00475972                0.00480116               -0.01594676               -0.00013238                0.11363196               -0.00021387
              13.83981202                2.15289027               84.80112144                0.49879092                0.01969836                0.01973329               -0.06572547               -0.00013679                0.10679465               -0.00089656
              14.84008372                2.15061354               84.65106925                0.49938653                0.03464497                0.03467067               -0.11551268               -0.00014311                0.09169800               -0.00162203
              15.84050492                2.14833348               84.50084805                0.50035445                0.04957962                0.04962236               -0.16530776               -0.00015668                0.06842872               -0.00219813
              16.84107531                2.14605020               84.35038665                0.50173289                0.06448547                0.06465088               -0.21510640               -0.00014283                0.03725952               -0.00226721
              17.84179463                2.14376469               84.19961800                0.75143549                0.07193229                0.07970524               -0.26490180                0.00006643                0.01711015               -0.00138961
               7.84349854                3.16578769               85.69917425                0.75195205               -0.06207353               -0.06972518                0.23195049               -0.00019973                0.01361775                0.00305502
               8.84287780                3.16368000               85.54833752                0.50180885               -0.05462967               -0.05471357                0.18213043               -0.00013528                0.04563055                0.00222404
               9.84240594                3.16156784               85.39805861                0.49982855               -0.03973416               -0.03971510                0.13237537               -0.00019478                0.08569292                0.00171492
              10.84208312                3.15945266               85.24796051                0.49904157               -0.02481717               -0.02475982                0.08260360               -0.00018382                0.10257070                0.00135543
              11.84190960                3.15733454               85.09797643                0.49861154               -0.00988112               -0.00982368                0.03282377               -0.00018520                0.11167900                0.00068921
              12.84188550                3.15521340               84.94803768                0.49852974                0.00506137                0.00511139               -0.01696394               -0.00019155                0.11280059               -0.00023618
              13.84201083                3.15308918               84.79807310                0.49878592                0.02000589                0.02005090               -0.06675988               -0.00019525                0.10579034               -0.00134154
              14.84228561                3.15096187               84.64801108                0.49939239                0.03494832                0.03500095               -0.11656377               -0.00019430                0.09066705               -0.00255632
              15.84270979                3.14883153               84.49778077                0.50036706                0.04988142                0.04997645               -0.16637384               -0.00018229                0.06757182               -0.00378065
              16.84328324                3.14669842               84.34731336                0.50175767                0.06480259                0.06498336               -0.21618422               -0.00012271                0.03676871               -0.00487195
              17.84400584                3.14456305               84.19654327                0.75145031                0.07226035                0.07998586               -0.26598585                0.00009328                0.01683064               -0.00573182
               7.84552931                4.16509209               85.69615005                0.75193168               -0.06178657               -0.06940758                0.23098893               -0.00018823                0.01379761                0.00863527
               8.84491144                4.16313425               85.54530462                0.50178451               -0.05433335               -0.05443225                0.18116580               -0.00012178                0.04616904                0.00582203
               9.84444264                4.16117200               85.39502465                0.49981509               -0.03942788               -0.03944408                0.13140196               -0.00020662                0.08664685                0.00405269
              10.84412289                4.15920648               85.24492664                0.49903391               -0.02451285               -0.02447456                0.08161792               -0.00022612                0.10354383                0.00257942
              11.84395239                4.15723781               85.09494234                0.49860787               -0.00958016               -0.00952306                0.03182236               -0.00023768                0.11253062                0.00121327
              12.84393128                4.15526607               84.94500169                0.49853296                0.00536296                0.00542165               -0.01798237               -0.00024312                0.11345567               -0.00021453
              13.84405965                4.15329129               84.79503337                0.49879009                0.02030960                0.02037044               -0.06779628               -0.00023826                0.10624851               -0.00178954
              14.84433748                4.15131356               84.64496588                0.49940448                0.03525430                0.03533217               -0.11761765               -0.00021948                0.09094962               -0.00356959
              15.84476473                4.14933301               84.49472868                0.50038774                0.05019289                0.05031245               -0.16744314               -0.00017926                0.06771858               -0.00559248
              16.84534133                4.14734986               84.34425342                0.50178181                0.06512456                0.06530537               -0.21726511               -0.00010664                0.03682684               -0.00787789
              17.84606722                4.14536440               84.19347501                0.75146898                0.07258892                0.08029004               -0.26707347                0.00010568                0.01684783               -0.01043016
               7.84741045                5.16439953               85.69313173                0.75191218               -0.06150005               -0.06910927                0.23003110               -0.00018004                0.01414937                0.01337278
               8.84679545                5.16259136               85.54226947                0.50175716               -0.05404365               -0.05414561                0.18020461               -0.00010396                0.04715571                0.00877003
               9.84632958                5.16077896               85.39198585                0.49981112               -0.03913352               -0.03915795                0.13043040               -0.00019641                0.08849256                0.00588174
              10.84601278                5.15896317               85.24188865                0.49903362               -0.02421620               -0.02418195                0.08063317               -0.00024083                0.10569536                0.00361053
              11.84584525                5.15714408               85.09190727                0.49861819               -0.00928117               -0.00922212                0.03082133               -0.00026944                0.11477000                0.00167692
              12.84582716                5.15532183               84.94196962                0.49854309                0.00566568                0.00572984               -0.01900066               -0.00027726                0.11560250               -0.00017102
              13.84595857                5.15349659               84.79200280                0.49881067                0.02061707                0.02068526               -0.06883258               -0.00026187                0.10815862               -0.00214829
              14.84623950                5.15166852               84.64193397                0.49942456                0.03556683                0.03565293               -0.11867093               -0.00022323                0.09250446               -0.00444534
              15.84666991                5.14983778               84.49169152                0.50041311                0.05051095                0.05063585               -0.16851098               -0.00016390                0.06881817               -0.00724301
              16.84724972                5.14800452               84.34120617                0.50181467                0.06544858                0.06562601               -0.21834382               -0.00008777                0.03739612               -0.01070646
              17.84797888                5.14616886               84.19041222                0.75148536                0.07291589                0.08060329               -0.26815733                0.00011727                0.01712959               -0.01495198
               7.84914207                6.16370990               85.69011049                0.75189258               -0.06121249               -0.06882484                0.22907345               -0.00016836                0.01470056                0.01698722
               8.84852994                6.16205133               85.53922350                0.50173917               -0.05375826               -0.05385756                0.17924409               -0.00007584                0.04873879                0.01064329
               9.84806690                6.16038884               85.38893630                0.49980669               -0.03884978               -0.03885810                0.12945958               -0.00017043                0.09148623                0.00693586
              10.84775295                6.15872284               85.23884307                0.49904279               -0.02392836               -0.02387910                0.07964872               -0.00023934                0.10925805                0.00416765
              11.84758833                6.15705337               85.08886994                0.49863508               -0.00898565               -0.00891891                0.02982145               -0.00028382                0.11858652                0.00193425
              12.84757323                6.15538066               84.93894179                0.49856564                0.00596951                0.00603505               -0.02001845               -0.00029323                0.11938560               -0.00012223
              13.84770772                6.15370499               84.78898297                0.49883681                0.02092908                0.02099290               -0.06986776               -0.00026820                0.11164637               -0.00230980
              14.84799182                6.15202662               84.63891813                0.49945481                0.03588595                0.03596236               -0.11972252               -0.00021212                0.09544252               -0.00493077
              15.84842544                6.15034573               84.48867307                0.50044475                0.05083447                0.05094832               -0.16957568               -0.00013577                0.07095813               -0.00831802
              16.84900850                6.14866238               84.33817609                0.50184592                0.06577312                0.06594494               -0.21941755               -0.00006003                0.03852698               -0.01281641
              17.84974091                6.14697647               84.18735967                0.75150169                0.07324016                0.08092486               -0.26923391                0.00013389                0.01770374               -0.01870216
               7.85072422                7.16302304               85.68707314                0.75187467               -0.06092244               -0.06856321                0.22811155               -0.00014676                0.01552584                0.01896232
               8.85011499                7.16151420               85.53615428                0.50172017               -0.05347767               -0.05355943                0.17827899               -0.00003322                0.05112234                0.01098149
               9.84965467                7.16000180               85.38586686                0.49981070               -0.03857654               -0.03853983                0.12848549               -0.00013856                0.09597460                0.00689201
              10.84934346                7.15848559               85.23578433                0.49906364               -0.02364567               -0.02356958                0.07866286               -0.00023437                0.11456951                0.00407286
              11.84918175                7.15696570               85.08582792                0.49866589               -0.00868969               -0.00861690                0.02882106               -0.00028329                0.12427178                0.00189513
              12.84916967                7.15544253               84.93591838                0.49860381                0.00627488                0.00633731               -0.02103520               -0.00028895                0.12506576               -0.00007228
              13.84930725                7.15391644               84.78597662                0.49887561                0.02124254                0.02129601               -0.07090129               -0.00025784                0.11697296               -0.00217530
              14.84959452                7.15238776               84.63592373                0.49949086                0.03620879                0.03626277               -0.12077092               -0.00019153                0.10003390               -0.00478107
              15.85003143                7.15085675               84.48568140                0.50047776                0.05116286                0.05124788               -0.17063627               -0.00009772                0.07438278               -0.00836881
              16.85061778                7.14932342               84.33517339                0.50187697                0.06609780                0.06626022               -0.22048568               -0.00001882                0.04036977               -0.01356833
              17.85135338                7.14778735               84.18432838                0.75151988                0.07356037                0.08126418               -0.27030342                0.00016083                0.01865412               -0.02095819
               7.85215680                8.16233864               85.68400052                0.75185714               -0.06062783               -0.06835372                0.22713824               -0.00010758                0.01677134                0.01859465
               8.85155052                8.16098015               85.53304404                0.50170640               -0.05320250               -0.05321899                0.17730307                0.00000529                0.05465353                0.00908754
               9.85109275                8.15961804               85.38276523                0.49983425               -0.03830842               -0.03820889                0.12750360               -0.00013716                0.10250062                0.00553161
              10.85078435                8.15825145               85.23270543                0.49910354               -0.02335126               -0.02327218                0.07767153               -0.00022679                0.12209808                0.00326288
              11.85062572                8.15688103               85.08277816                0.49871818               -0.00838190               -0.00832047                0.02781780               -0.00025577                0.13219013                0.00152942
              12.85061671                8.15550741               84.93289964                0.49866250                0.00658080                0.00663826               -0.02205144               -0.00025050                0.13297726               -0.00002310
              13.85075734                8.15413091               84.78298732                0.49893190                0.02154836                0.02160086               -0.07193154               -0.00022285                0.12451461               -0.00169688
              14.85104768                8.15275187               84.63295846                0.49954257                0.03652447                0.03656534               -0.12181397               -0.00016422                0.10674239               -0.00383636
              15.85148783                8.15137069               84.48272927                0.50052201                0.05149218                0.05153575               -0.17168957               -0.00006734                0.07957920               -0.00696385
              16.85207752                8.14998759               84.33221540                0.50191246                0.06642182                0.06655786               -0.22154455                0.00003113                0.04325520               -0.01206490
              17.85281626                8.14860175               84.18133766                0.75153505                0.07387404                0.08164542               -0.27136279                0.00020483                0.02018141               -0.02065483
               7.85343905                9.16165596               85.68086535                0.75183662               -0.06033578               -0.06824934                0.22614645               -0.00011562                0.01853518                0.01370511
               8.85283569                9.16044982               85.52986643                0.50170009               -0.05292147               -0.05280450                0.17630790               -0.00003578                0.06003036                0.00463243
               9.85238062                9.15923762               85.37961791                0.49987393               -0.03798768               -0.03794405                0.12650728               -0.00014009                0.11204903                0.00307759
              10.85207594                9.15802014               85.22959955                0.49916253               -0.02299741               -0.02299241                0.07667022               -0.00017668                0.13236996                0.00182329
              11.85192067                9.15679929               85.07971760                0.49879338               -0.00805800               -0.00802911                0.02680967               -0.00016435                0.14269718                0.00086505
              12.85191478                9.15557530               84.92988572                0.49874296                0.00688283                0.00694191               -0.02306866               -0.00015553                0.14346322                0.00000721
              13.85205833                9.15434846               84.78001875                0.49901116                0.02183421                0.02191418               -0.07295808               -0.00014020                0.13469839               -0.00092406
              14.85235146                9.15311907               84.63003091                0.49961447                0.03680183                0.03688322               -0.12284970               -0.00011429                0.11622438               -0.00214068
              15.85279437                9.15188746               84.47983340                0.50058061                0.05179361                0.05184891               -0.17273236               -0.00004832                0.08753392               -0.00399965
              16.85338734                9.15065458               84.32933031                0.50195501                0.06673905                0.06682013               -0.22259116                0.00004622                0.04797484               -0.00730099
              17.85412915                9.14942026               84.17841987                0.75155120                0.07418116                0.08211039               -0.27240964                0.00021584                0.02271349               -0.01503102
               7.85456676               10.16097365               85.67760481                0.87591133               -0.05986132               -0.06823135                0.22512405                0.00781178                0.02470055                0.01193443
               8.85396815               10.15992406               85.52659718                0.75085109               -0.05235676               -0.05257696                0.17528392                0.00752139                0.07001631                0.00351232
               9.85351963               10.15885916               85.37641703                0.74995665               -0.03745038               -0.03784547                0.12548825                0.00727783                0.12556309                0.00289069
              10.85321914               10.15779160               85.22646136                0.74960891               -0.02261733               -0.02285450                0.07565266                0.00738471                0.14565590                0.00171196
              11.85306728               10.15672045               85.07664374                0.74942768               -0.00773536               -0.00788425                0.02579290                0.00739335                0.15605700                0.00071991
              12.85306443               10.15564625               84.92687648                0.74940625                0.00717415                0.00709508               -0.02408670                0.00740295                0.15678453               -0.00022379
              13.85321076               10.15456920               84.77707352                0.74953980                0.02209791                0.02207366               -0.07397852                0.00740796                0.14787775               -0.00120717
              14.85350639               10.15348954               84.62714787                0.74983865                0.03702932                0.03704698               -0.12387277                0.00741641                0.12909618               -0.00234919
              15.85395135               10.15240767               84.47700861                0.75031551                0.05196290                0.05202028               -0.17375845                0.00742102                0.09977933               -0.00386705
              16.85454565               10.15132399               84.32655550                0.75099402                0.06689351                0.06694096               -0.22361851                0.00764632                0.05752906               -0.00619459
              17.85528922               10.15024396               84.17564964                0.87578267                0.07435696                0.08237001               -0.27343663                0.00800447                0.02999021               -0.01308679
               7.98775185                0.17082412               86.71048974                0.87609031               -0.05863738               -0.06612846                0.21924715               -0.00752097                0.02053288               -0.00507165
               8.98716548                0.16828318               86.55921221                0.75122429               -0.05168381               -0.05159757                0.17274444               -0.00711105                0.04858741               -0.00474012
               9.98671818                0.16574743               86.40841205                0.75024497               -0.03780839               -0.03777106                0.12630765               -0.00692431                0.08718255               -0.00173388
              10.98640931                0.16320889               86.25784268                0.74974185               -0.02395031               -0.02381786                0.07988215               -0.00697839                0.10763249               -0.00091900
              11.98623917                0.16066769               86.10740773                0.74947100               -0.01006330               -0.00988269                0.03345559               -0.00698708                0.11830885               -0.00034670
              12.98620804                0.15812352               85.95702806                0.74941494                0.00384529                0.00405540               -0.01297872               -0.00699269                0.12021986                0.00010687
              13.98631608                0.15557640               85.80662744                0.74957245                0.01776533                0.01799390               -0.05942601               -0.00699013                0.11357240                0.00051539
              14.98656335                0.15302632               85.65613081                0.74995255                0.03168802                0.03193119               -0.10588631               -0.00698635                0.09842511                0.00092232
              15.98694984                0.15047303               85.50546300                0.75057381                0.04561020                0.04588110               -0.15235648               -0.00696479                0.07471548                0.00138689
              16.98747555                0.14791643               85.35454763                0.75146253                0.05950802                0.05976510               -0.19883025               -0.00713706                0.04185319                0.00196228
              17.98814000                0.14535143               85.20329775                0.87610351                0.06644412                0.07423734               -0.24530058               -0.00715451                0.02038273                0.00394106
               7.99021758                1.17016283               86.70750814                0.75189039               -0.05848635               -0.06586973                0.21832705               -0.00018618                0.01643601               -0.00349468
               8.98963271                1.16776721               86.55620911                0.50191046               -0.05157498               -0.05150451                0.17181869               -0.00006790                0.04583784               -0.00424136
               9.98918608                1.16536971               86.40541461                0.50006534               -0.03766591               -0.03759914                0.12538139               -0.00004805                0.08468477               -0.00085475
              10.98887939                1.16297071               86.25482882                0.49922643               -0.02370465               -0.02366996                0.07895003               -0.00003962                0.10389009               -0.00004424
              11.98871198                1.16056886               86.10437487                0.49877126               -0.00978166               -0.00973796                0.03251747               -0.00006386                0.11435378                0.00006677
              12.98868376                1.15816408               85.95397484                0.49868003                0.00413974                0.00419759               -0.01392196               -0.00007436                0.11614805               -0.00011383
              13.98879478                1.15575634               85.80355324                0.49894210                0.01807046                0.01813481               -0.06037251               -0.00007423                0.10943966               -0.00041601
              14.98904517                1.15334563               85.65303541                0.49957957                0.03201755                0.03207286               -0.10683354               -0.00006681                0.09427686               -0.00072840
              15.98943513                1.15093185               85.50234673                0.50061146                0.04599079                0.04601700               -0.15330305               -0.00008956                0.07059897               -0.00091413
              16.98996499                1.14851408               85.35141132                0.50209500                0.05991622                0.05997920               -0.19977492               -0.00008190                0.03841329               -0.00069924
              17.99063345                1.14609380               85.20015476                0.75166579                0.06684673                0.07426238               -0.24624524                0.00014016                0.01757746                0.00090536
               7.99253938                2.16950672               86.70446369                0.75159601               -0.05821424               -0.06542861                0.21742606               -0.00021149                0.01326551               -0.00208247
               8.99195724                2.16725309               86.55314224                0.50136740               -0.05128367               -0.05130585                0.17091131               -0.00014288                0.04541620               -0.00260934
               9.99151371                2.16499544               86.40238073                0.49964650               -0.03739330               -0.03730970                0.12447813               -0.00015322                0.08553033               -0.00042421
              10.99120937                2.16273549               86.25179837                0.49897246               -0.02345880               -0.02338173                0.07803446               -0.00013768                0.10265257                0.00037009
              11.99104453                2.16047293               86.10133611                0.49860777               -0.00951457               -0.00945026                0.03158538               -0.00014854                0.11227120                0.00028273
              12.99101908                2.15820748               85.95092296                0.49853287                0.00442560                0.00448511               -0.01487182               -0.00016166                0.11369867               -0.00022173
              13.99113304                2.15593910               85.80048608                0.49874322                0.01837149                0.01842427               -0.06134003               -0.00016456                0.10684397               -0.00092484
              14.99138651                2.15366777               85.64995256                0.49925189                0.03232735                0.03236873               -0.10781870               -0.00016617                0.09172913               -0.00167257
              15.99177959                2.15139337               85.49924993                0.50008509                0.04627248                0.04632724               -0.15430523               -0.00017136                0.06844520               -0.00227195
              16.99231196                2.14911602               85.34830709                0.50126888                0.06018857                0.06035895               -0.20079366               -0.00014795                0.03726803               -0.00236287
              17.99298336                2.14683668               85.19705705                0.75112785                0.06714013                0.07441801               -0.24727669                0.00005520                0.01711053               -0.00150093
               7.99472061                3.16885426               86.70141676                0.75157862               -0.05794722               -0.06509439                0.21653559               -0.00019200                0.01363066                0.00311702
               8.99414113                3.16674109               86.55009832                0.50134441               -0.05099985               -0.05107361                0.17001739               -0.00014673                0.04568724                0.00228092
               9.99370061                3.16462352               86.39933840                0.49963342               -0.03709899               -0.03707124                0.12357455               -0.00021896                0.08578194                0.00176058
              10.99339915                3.16250308               86.24875914                0.49895815               -0.02317888               -0.02310999                0.07711813               -0.00021588                0.10264889                0.00138602
              11.99323703                3.16037986               86.09829380                0.49859470               -0.00923965               -0.00916645                0.03065197               -0.00022171                0.11174507                0.00070140
              12.99321436                3.15825378               85.94787372                0.49852037                0.00470792                0.00477656               -0.01582481               -0.00022947                0.11285122               -0.00024508
              13.99333119                3.15612482               85.79742772                0.49874084                0.01866043                0.01872421               -0.06231275               -0.00023129                0.10582380               -0.00137349
              14.99358757                3.15399300               85.64688418                0.49925716                0.03261343                0.03268263               -0.10881142               -0.00022504                0.09068358               -0.00261256
              15.99398346                3.15185839               85.49617228                0.50009545                0.04655772                0.04666613               -0.15531696               -0.00020464                0.06757651               -0.00386018
              16.99451872                3.14972126               85.34522328                0.50129334                0.06048888                0.06068100               -0.20182203               -0.00013463                0.03677031               -0.00497295
              17.99519324                3.14758216               85.19397171                0.75114320                0.06745119                0.07469474               -0.24831676                0.00007859                0.01682814               -0.00584790
               7.99676188                4.16820483               86.69838333                0.75156316               -0.05768386               -0.06480277                0.21565508               -0.00018243                0.01380914                0.00870968
               8.99618504                4.16623162               86.54705616                0.50131863               -0.05072720               -0.05081603                0.16913131               -0.00013927                0.04622077                0.00588972
               9.99574733                4.16425402               86.39629509                0.49962277               -0.03681615               -0.03682176                0.12267666               -0.00023943                0.08672500                0.00410589
              10.99544872                4.16227329               86.24571577                0.49895422               -0.02289696               -0.02284545                0.07620408               -0.00026588                0.10360689                0.00261494
              11.99528940                4.16028960               86.09525005                0.49859216               -0.00895977               -0.00888595                0.02971924               -0.00028177                0.11257943                0.00122806
              12.99526952                4.15830301               85.94482787                0.49852148                0.00498991                0.00506783               -0.01677832               -0.00028877                0.11348794               -0.00022211
              13.99538919                4.15631358               85.79437793                0.49874590                0.01894607                0.01902602               -0.06328799               -0.00028201                0.10626347               -0.00182154
              14.99564844                4.15432143               85.64382873                0.49926833                0.03290207                0.03299758               -0.10980801               -0.00025775                0.09094970               -0.00362607
              15.99604723                4.15232670               85.49310977                0.50011360                0.04685246                0.04698798               -0.15633288               -0.00020865                0.06771013               -0.00567124
              16.99658549                4.15032964               85.34215279                0.50131450                0.06079477                0.06099205               -0.20285446               -0.00012320                0.03682030               -0.00797531
              17.99726313                4.14833057               85.19089281                0.75115458                0.06776380                0.07499038               -0.24935944                0.00008895                0.01684101               -0.01053945
               7.99866339                5.16755820               86.69535585                0.75154614               -0.05742217               -0.06452912                0.21478101               -0.00017554                0.01415864                0.01345399
               8.99808916                5.16572477               86.54401180                0.50130039               -0.05046204               -0.05055421                0.16825184               -0.00012607                0.04720035                0.00884501
               9.99765414                5.16388709               86.39324694                0.49961855               -0.03654553               -0.03655898                0.12178318               -0.00023630                0.08855749                0.00594027
              10.99735825                5.16204617               86.24266830                0.49895617               -0.02262306               -0.02257486                0.07529355               -0.00028716                0.10574152                0.00365028
              11.99720168                5.16020214               86.09220531                0.49859618               -0.00868240               -0.00860579                0.02878846               -0.00031961                0.11479938                0.00169511
              12.99718461                5.15835514               85.94178595                0.49853326                0.00527236                0.00535647               -0.01773047               -0.00032853                0.11561428               -0.00017611
              13.99730713                5.15650535               85.79133730                0.49875976                0.01923467                0.01932286               -0.06426292               -0.00031138                0.10815325               -0.00217731
              14.99756930                5.15465295               85.64078658                0.49928376                0.03319717                0.03330190               -0.11080464               -0.00026765                0.09248640               -0.00449738
              15.99797107                5.15279815               85.49006221                0.50013209                0.04715429                0.04729643               -0.15734835               -0.00019857                0.06879587               -0.00731508
              16.99851238                5.15094110               85.33909502                0.50134196                0.06110347                0.06129874               -0.20388370               -0.00010760                0.03738184               -0.01079310
              17.99919314                5.14908197               85.18781944                0.75117225                0.06807590                0.07528967               -0.25039611                0.00009926                0.01711925               -0.01504602
               8.00042524                6.16691425               86.69232545                0.75153005               -0.05716011               -0.06426787                0.21390807               -0.00016452                0.01470792                0.01706919
               8.99985364                6.16522053               86.54095664                0.50128315               -0.05020162               -0.05029144                0.16737441               -0.00010057                0.04877576                0.01071978
               9.99942121                6.16352284               86.39018808                0.49961783               -0.03628576               -0.03628382                0.12089210               -0.00021392                0.09153653                0.00699680
              10.99912792                6.16182180               86.23961325                0.49896751               -0.02235839               -0.02229525                0.07438531               -0.00028859                0.10928564                0.00420972
              11.99897404                6.16011748               86.08915835                0.49861754               -0.00840891               -0.00832415                0.02786022               -0.00033641                0.11859383                0.00195503
              12.99895974                6.15841014               85.93874828                0.49856057                0.00555557                0.00564147               -0.01868071               -0.00034654                0.11937367               -0.00012434
              13.99908515                6.15670004               85.78830744                0.49878997                0.01952713                0.01961171               -0.06523527               -0.00031960                0.11161777               -0.00233470
              14.99935029                6.15498746               85.63776052                0.49931304                0.03349823                0.03359371               -0.11179771               -0.00025841                0.09540425               -0.00497666
              15.99975511                6.15327263               85.48703340                0.50016019                0.04746164                0.04759200               -0.15835909               -0.00017267                0.07092079               -0.00838083
              17.00029952                6.15155561               85.33605448                0.50137146                0.06141336                0.06160021               -0.20490553               -0.00008172                0.03850395               -0.01288998
              18.00098338                6.14983637               85.18475639                0.75118746                0.06838623                0.07559184               -0.25142176                0.00011516                0.01768917               -0.01877840
               8.00204753                7.16627285               86.68927889                0.75151456               -0.05689619               -0.06402777                0.21303120               -0.00014320                0.01553074                0.01903891
               9.00147857                7.16471894               86.53787817                0.50126907               -0.04994617               -0.05001947                0.16649417               -0.00005827                0.05115213                0.01105313
              10.00104860                7.16316141               86.38710931                0.49962629               -0.03603653               -0.03599158                0.12000012               -0.00018054                0.09601106                0.00694998
              11.00075783                7.16160027               86.23654503                0.49898566               -0.02209936               -0.02200959                0.07347700               -0.00028079                0.11457810                0.00411355
              12.00060662                7.16003565               86.08610668                0.49864855               -0.00813568               -0.00804410                0.02693296               -0.00033301                0.12425635                0.00191617
              13.00059512                7.15846797               85.93571504                0.49859761                0.00583975                0.00592319               -0.01962914               -0.00033976                0.12502879               -0.00007190
              14.00072341                7.15689758               85.78529107                0.49882622                0.01982110                0.01989532               -0.06620496               -0.00030673                0.11691959               -0.00219555
              15.00099154                7.15532483               85.63475593                0.49935208                0.03380306                0.03387551               -0.11278668               -0.00023511                0.09997371               -0.00481968
              16.00139947                7.15374999               85.48403140                0.50019606                0.04777334                0.04787310               -0.15936289               -0.00013286                0.07432878               -0.00842151
              17.00194701                7.15217311               85.33304137                0.50139914                0.06172328                0.06189542               -0.20591944               -0.00004013                0.04033776               -0.01362817
              18.00263394                7.15059381               85.18171468                0.75120380                0.06869284                0.07590704               -0.25243756                0.00014225                0.01863551               -0.02101628
               8.00353019                8.16563370               86.68619695                0.75149863               -0.05662783               -0.06383735                0.21214377               -0.00010429                0.01677563                0.01865828
               9.00296391                8.16422015               86.53475859                0.50126105               -0.04969594               -0.04970770                0.16560380               -0.00001594                0.05467782                0.00914585
              10.00253627                8.16280301               86.38399826                0.49964754               -0.03579243               -0.03568705                0.11910029               -0.00016933                0.10252521                0.00557927
              11.00224806                8.16138161               86.23345660                0.49902852               -0.02182953               -0.02173533                0.07256422               -0.00026317                0.12209017                0.00329666
              12.00209968                8.15995660               86.08304724                0.49869946               -0.00785184               -0.00776939                0.02600366               -0.00029597                0.13215484                0.00154755
              13.00209102                8.15852860               85.93268648                0.49865200                0.00612376                0.00620363               -0.02057697               -0.00029234                0.13291819               -0.00002190
              14.00222215                8.15709794               85.78229178                0.49888125                0.02010753                0.02018052               -0.06717184               -0.00026288                0.12443873               -0.00171226
              15.00249317                8.15566497               85.63178052                0.49939957                0.03410118                0.03415932               -0.11377137               -0.00019949                0.10666148               -0.00386633
              16.00290418                8.15423009               85.48106902                0.50023627                0.04808619                0.04814301               -0.16036107               -0.00009577                0.07950902               -0.00700411
              17.00345490                8.15279352               85.33007306                0.50143402                0.06203249                0.06217335               -0.20692436                0.00001264                0.04321463               -0.01210892
              18.00414483                8.15135451               85.17871363                0.75121781                0.06899287                0.07626033               -0.25344129                0.00018692                0.02015965               -0.02069495
               8.00487254                9.16499610               86.68305227                0.75148271               -0.05636057               -0.06374627                0.21123629               -0.00010879                0.01853981                0.01374477
               9.00430894                9.16372479               86.53157144                0.50125859               -0.04943920               -0.04932573                0.16469353               -0.00004488                0.06005265                0.00466615
              10.00388376                9.16244767               86.38084136                0.49968887               -0.03549802               -0.03544417                0.11818572               -0.00015477                0.11206765                0.00310649
              11.00359897                9.16116556               86.23034108                0.49908574               -0.02150271               -0.02147756                0.07164082               -0.00019606                0.13235164                0.00184344
              12.00345370                9.15988027               86.07997696                0.49877749               -0.00755212               -0.00749921                0.02506878               -0.00018795                0.14264752                0.00087608
              13.00344793                9.15859204               85.92966272                0.49873540                0.00640386                0.00648692               -0.02152550               -0.00018035                0.14338684                0.00000788
              14.00358178                9.15730119               85.77931326                0.49896116                0.02037388                0.02047444               -0.06813528               -0.00016373                0.13460414               -0.00093352
              15.00385541                9.15600801               85.62884290                0.49947311                0.03436155                0.03445861               -0.11474918               -0.00013411                0.11612629               -0.00215870
              16.00426901                9.15471285               85.47816299                0.50029183                0.04837167                0.04843810               -0.16135069               -0.00006431                0.08745062               -0.00402340
              17.00482284                9.15341657               85.32717777                0.50147155                0.06233462                0.06241979               -0.20791903                0.00003425                0.04792708               -0.00732565
              18.00551570                9.15211901               85.17578567                0.75123265                0.06928599                0.07669411               -0.25443285                0.00020126                0.02268912               -0.01505173
               8.00607064               10.16435877               86.67978189                0.87573623               -0.05591961               -0.06373291                0.21029459                0.00729581                0.02470910                0.01195809
               9.00551144               10.16323363               86.52829234                0.75063249               -0.04891200               -0.04911546                0.16375110                0.00701833                0.07004369                0.00352985
              10.00509240               10.16209412               86.37763068                0.74986593               -0.03499512               -0.03535448                0.11724591                0.00678530                0.12558629                0.00290705
              11.00481154               10.16095205               86.22719308                0.74956964               -0.02114795               -0.02135051                0.07069918                0.00688126                0.14563847                0.00172257
              12.00466944               10.15980662               86.07689329                0.74941776               -0.00725235               -0.00736481                0.02412398                0.00688782                0.15600532                0.00072585
              13.00466649               10.15865834               85.92664364                0.74940221                0.00667318                0.00662994               -0.02247559                0.00689676                0.15670213               -0.00022346
              14.00480290               10.15750743               85.77635814                0.74951484                0.02061695                0.02062433               -0.06909312                0.00690264                0.14777503               -0.00121249
              15.00507883               10.15635415               85.62594993                0.74976494                0.03457133                0.03461317               -0.11571461                0.00691297                0.12898837               -0.00235841
              16.00549433               10.15519885               85.47532821                0.75017176                0.04852928                0.04859999               -0.16232443                0.00692031                0.09968733               -0.00387930
              17.00604942               10.15404192               85.32439295                0.75075250                0.06248215                0.06253409               -0.20889901                0.00713433                0.05747665               -0.00620625
              18.00674397               10.15288839               85.17300544                0.87562225                0.06945550                0.07693744               -0.25541257                0.00747417                0.02996500               -0.01309518
               8.13946737                0.17375962               87.71260395                0.87587598               -0.05444677               -0.06140258                0.20357321               -0.00698623                0.02056239               -0.00506508
               9.13892291                0.17124351               87.56087795                0.75093290               -0.04799379               -0.04790531                0.16038860               -0.00660621                0.04866333               -0.00473716
              10.13850750                0.16873219               87.40963004                0.75010210               -0.03511875               -0.03506712                0.11728068               -0.00643343                0.08730621               -0.00172807
              11.13822053                0.16621825               87.25861304                0.74968485               -0.02226106               -0.02211186                0.07418626               -0.00648462                0.10776115               -0.00091476
              12.13806228                0.16370178               87.10773044                0.74945738               -0.00937465               -0.00917331                0.03108883               -0.00649332                0.11842485               -0.00034450
              13.13803304                0.16118252               86.95690302                0.74941135                0.00353672                0.00376795               -0.01202076               -0.00649878                0.12031053                0.00010579
              14.13813301                0.15866046               86.80605450                0.74954270                0.01646509                0.01670992               -0.05515044               -0.00649622                0.11363108                0.00051063
              15.13836234                0.15613563               86.65510981                0.74986199                0.02940093                0.02965090               -0.09829888               -0.00649164                0.09845360                0.00091292
              16.13872103                0.15360784               86.50399385                0.75038384                0.04233840                0.04260378               -0.14145968               -0.00646973                0.07472237                0.00137171
              17.13920911                0.15107700               86.35263030                0.75113795                0.05525082                0.05549536               -0.18462074               -0.00662750                0.04185084                0.00194065
              18.13982605                0.14853843               86.20093232                0.87588783                0.06169382                0.06893245               -0.22776608               -0.00664548                0.02037304                0.00390987
               8.14191362                1.17314559               87.70961350                0.75150005               -0.05430588               -0.06116461                0.20272182               -0.00017526                0.01645713               -0.00346441
               9.14137056                1.17076446               87.55786594                0.50139677               -0.04789110               -0.04781960                0.15952986               -0.00006995                0.04590847               -0.00421859
              10.14095580                1.16838152               87.40662366                0.49983197               -0.03498348               -0.03490800                0.11642076               -0.00005737                0.08480301               -0.00082972
              11.14067089                1.16599713               87.25559018                0.49912849               -0.02202928               -0.02197467                0.07331962               -0.00005291                0.10401073               -0.00002731
              12.14051521                1.16361005               87.10468852                0.49875034               -0.00910895               -0.00903876                0.03021532               -0.00007774                0.11446316                0.00007346
              13.14048871                1.16122020               86.95384070                0.49867201                0.00381409                0.00390070               -0.01290002               -0.00008859                0.11623618               -0.00011905
              14.14059149                1.15882756               86.80297117                0.49889056                0.01675130                0.01684207               -0.05603217               -0.00008811                0.10950183               -0.00043480
              15.14082374                1.15643214               86.65200529                0.49942437                0.02970783                0.02978458               -0.09917894               -0.00007919                0.09431473               -0.00076307
              16.14118565                1.15403387               86.50086848                0.50029370                0.04269002                0.04273315               -0.14233472               -0.00009636                0.07061956               -0.00096645
              17.14167754                1.15163195               86.34948492                0.50155415                0.05562563                0.05569906               -0.18548897               -0.00008408                0.03842449               -0.00077131
              18.14229816                1.14922775               86.19778027                0.75130659                0.06206244                0.06896449               -0.22863329                0.00012400                0.01757895                0.00081223
               8.14422614                2.17253633               87.70656041                0.75124613               -0.05405536               -0.06076042                0.20189660               -0.00020066                0.01328169               -0.00202390
               9.14368558                2.17028712               87.55479035                0.50092990               -0.04762279               -0.04763809                0.15869456               -0.00014756                0.04548765               -0.00256050
              10.14327368                2.16803403               87.40358111                0.49946184               -0.03473193               -0.03464099                0.11558736               -0.00016977                0.08564664               -0.00038039
              11.14299094                2.16577876               87.25255091                0.49889661               -0.02180116               -0.02170767                0.07247130               -0.00016140                0.10276108                0.00039970
              12.14283766                2.16352101               87.10164077                0.49858872               -0.00885948               -0.00877107                0.02934830               -0.00017590                0.11236698                0.00029377
              13.14281376                2.16126053               86.95077964                0.49852671                0.00408244                0.00416971               -0.01378762               -0.00019035                0.11377382               -0.00023213
              14.14291931                2.15899730               86.79989464                0.49870539                0.01703445                0.01711465               -0.05693959               -0.00019284                0.10689459               -0.00095962
              15.14315444                2.15673132               86.64891288                0.49912847                0.02999924                0.03006560               -0.10010704               -0.00019102                0.09175791               -0.00173525
              16.14351929                2.15446250               86.49776194                0.49982956                0.04295521                0.04303066               -0.14328324               -0.00018856                0.06845812               -0.00236483
              17.14401355                2.15219098               86.34637078                0.50084001                0.05588168                0.05606546               -0.18645847               -0.00015512                0.03727278               -0.00248739
              18.14463693                2.14991772               86.19467247                0.75084142                0.06233768                0.06912950               -0.22962395                0.00004283                0.01710735               -0.00165431
               8.14640802                3.17193039               87.70350496                0.75123140               -0.05381115               -0.06045722                0.20108753               -0.00018422                0.01364684                0.00319581
               9.14586991                3.16981170               87.55173787                0.50090468               -0.04736255               -0.04742804                0.15787822               -0.00015826                0.04575529                0.00234851
              10.14546077                3.16768870               87.40053010                0.49944786               -0.03446100               -0.03442307                0.11475800               -0.00024328                0.08589061                0.00181274
              11.14518069                3.16556298               87.24950287                0.49888345               -0.02154240               -0.02145694                0.07162570               -0.00024789                0.10274605                0.00142046
              12.14502992                3.16343463               87.09858946                0.49857780               -0.00860393               -0.00850703                0.02848142               -0.00025845                0.11182603                0.00071473
              13.14500861                3.16130359               86.94772118                0.49851607                0.00434632                0.00444294               -0.01467751               -0.00026824                0.11291091               -0.00025632
              14.14511685                3.15916985               86.79682685                0.49869561                0.01730565                0.01739852               -0.05785393               -0.00026947                0.10585975               -0.00141193
              15.14535472                3.15703345               86.64583485                0.49913065                0.03026881                0.03036570               -0.10104604               -0.00025926                0.09069887               -0.00268086
              16.14572222                3.15489449               86.49467443                0.49983930                0.04322477                0.04335804               -0.14424671               -0.00023056                0.06757840               -0.00396011
              17.14621922                3.15275326               86.34327692                0.50085947                0.05616601                0.05638194               -0.18744465               -0.00014929                0.03676848               -0.00510322
              18.14684554                3.15061034               86.19157694                0.75085519                0.06263252                0.06940844               -0.23062893                0.00006252                0.01682189               -0.00600282
               8.14845983                4.17132718               87.70046315                0.75122014               -0.05357216               -0.06019427                0.20029301               -0.00017682                0.01382372                0.00880141
               9.14792410                4.16933856               87.54868725                0.50088589               -0.04711447               -0.04719589                0.15707432               -0.00015772                0.04628305                0.00596967
              10.14751754                4.16734557               87.39747819                0.49944033               -0.03420226               -0.03419634                0.11393811               -0.00027376                0.08682214                0.00416752
              11.14724006                4.16534962               87.24645073                0.49887923               -0.02128303               -0.02121391                0.07078503               -0.00030741                0.10368922                0.00265552
              12.14709188                4.16335087               87.09553673                0.49857220               -0.00834480               -0.00824685                0.02761774               -0.00032818                0.11264277                0.00124532
              13.14707316                4.16134939               86.94466612                0.49851782                0.00460901                0.00471562               -0.01556678               -0.00033723                0.11352852               -0.00023092
              14.14718406                4.15934527               86.79376761                0.49870563                0.01757311                0.01768383               -0.05877012               -0.00032949                0.10628039               -0.00185879
              15.14742463                4.15733864               86.64276972                0.49914057                0.03054072                0.03066628               -0.10198873               -0.00030074                0.09094689               -0.00369298
              16.14779487                4.15532966               86.49160202                0.49985672                0.04350405                0.04366843               -0.14521461               -0.00024274                0.06769717               -0.00576759
              17.14829471                4.15331862               86.34019634                0.50088088                0.05645707                0.05668576               -0.18843540               -0.00014322                0.03681015               -0.00809782
              18.14892401                4.15130589               86.18848782                0.75086770                0.06293056                0.06970041               -0.23163579                0.00007070                0.01683175               -0.01068053
               8.15038173                5.17072650               87.69742735                0.75120573               -0.05333603               -0.05994694                0.19950652               -0.00017142                0.01417147                0.01355035
               9.14984837                5.16886778               87.54563451                0.50087016               -0.04687460               -0.04696012                0.15627949               -0.00015038                0.04725508                0.00893174
              10.14944424                5.16700477               87.39442151                0.49943710               -0.03395625               -0.03395776                0.11312515               -0.00027961                0.08863958                0.00600814
              11.14916924                5.16513870               87.24339452                0.49888189               -0.02103259               -0.02096588                0.06995051               -0.00033756                0.10580448                0.00369632
              12.14902358                5.16326969               87.09248304                0.49858177               -0.00808929               -0.00798787                0.02675867               -0.00037461                0.11484077                0.00171679
              13.14900746                5.16139790               86.94161501                0.49852877                0.00487129                0.00498490               -0.01645317               -0.00038557                0.11563103               -0.00018054
              14.14912101                5.15952353               86.79071754                0.49871678                0.01784320                0.01796306               -0.05968432               -0.00036722                0.10814576               -0.00220945
              15.14936432                5.15764678               86.63971788                0.49915939                0.03081878                0.03095491               -0.10293044               -0.00031796                0.09246153               -0.00455704
              16.14973738                5.15576786               86.48854455                0.49987565                0.04379024                0.04396321               -0.14618064               -0.00023856                0.06876574               -0.00740025
              17.15024012                5.15388698               86.33712850                0.50090487                0.05675166                0.05698069               -0.18942052               -0.00013095                0.03736207               -0.01089736
              18.15087242                5.15200435               86.18540430                0.75088308                0.06322933                0.06998872               -0.23263254                0.00008002                0.01710569               -0.01516019
               8.15217384                6.17012824               87.69438865                0.75119160               -0.05310114               -0.05970956                0.19872304               -0.00016126                0.01471807                0.01716348
               9.15164283                6.16839936               87.54257099                0.50085927               -0.04664053               -0.04672338                0.15548914               -0.00012879                0.04882125                0.01080773
              10.15124103                6.16666641               87.39135414                0.49944241               -0.03372171               -0.03370780                0.11231709               -0.00026312                0.09160082                0.00706692
              11.15096839                6.16493030               87.24033078                0.49889146               -0.02079227               -0.02070991                0.06912092               -0.00034460                0.10932594                0.00425844
              12.15082518                6.16319111               87.08942715                0.49860009               -0.00783895               -0.00772812                0.02590394               -0.00039665                0.11860921                0.00198026
              13.15081161                6.16144909               86.93856817                0.49855109                0.00513288                0.00524967               -0.01733532               -0.00040870                0.11936243               -0.00012443
              14.15092784                6.15970453               86.78767827                0.49874221                0.01811648                0.01823319               -0.06059475               -0.00038034                0.11158259               -0.00236010
              15.15117394                6.15795773               86.63668218                0.49918315                0.03110312                0.03122935               -0.10386722               -0.00031332                0.09535395               -0.00502559
              16.15154990                6.15620892               86.48550589                0.49990200                0.04408254                0.04424222               -0.14713999               -0.00021621                0.07087110               -0.00844926
              17.15205559                6.15445823               86.33407798                0.50093164                0.05704814                0.05726504               -0.19039483               -0.00010674                0.03847451               -0.01297095
              18.15269086                6.15270566               86.18233124                0.75089614                0.06352712                0.07027159               -0.23361200                0.00009557                0.01767236               -0.01886108
               8.15383627                7.16953231               87.69133376                0.75117931               -0.05286521               -0.05949101                0.19793617               -0.00014001                0.01553887                0.01912553
               9.15330762                7.16793331               87.53948416                0.50085030               -0.04641215               -0.04647808                0.15469801               -0.00008732                0.05118799                0.01113555
              10.15290803                7.16633062               87.38826687                0.49944863               -0.03349834               -0.03344195                0.11151029               -0.00022976                0.09605580                0.00701663
              11.15263766                7.16472450               87.23725387                0.49891463               -0.02055843               -0.02044864                0.06829355               -0.00033568                0.11459369                0.00416119
              12.15249686                7.16311513               87.08636658                0.49863375               -0.00758996               -0.00747037                0.02505186               -0.00039196                0.12424283                0.00194218
              13.15248586                7.16150290               86.93552580                0.49858840                0.00539465                0.00551045               -0.01821413               -0.00040020                0.12498617               -0.00006913
              14.15260476                7.15988819               86.78465252                0.49877971                0.01839040                0.01849697               -0.06150062               -0.00036527                0.11685350               -0.00221511
              15.15285366                7.15827136               86.63366800                0.49921528                0.03139037                0.03149225               -0.10479808               -0.00028818                0.09989615               -0.00485887
              16.15323256                7.15665270               86.48249414                0.49993139                0.04437943                0.04450446               -0.14809047               -0.00017580                0.07425751               -0.00847388
              17.15374125                7.15503228               86.33105500                0.50095979                0.05734538                0.05753878               -0.19135666               -0.00006549                0.04029508               -0.01368637
              18.15437947                7.15340978               86.17927963                0.75090983                0.06382181                0.07056001               -0.23457445                0.00012279                0.01861203               -0.02106936
               8.15536903                8.16893842               87.68824339                0.75116521               -0.05262560               -0.05931953                0.19713975               -0.00010090                0.01678075                0.01872982
               9.15484277                8.16746980               87.53635612                0.50084077               -0.04618925               -0.04619584                0.15389908               -0.00004096                0.05470433                0.00921335
              10.15444524                8.16599758               87.38514724                0.49947546               -0.03328028               -0.03316471                0.11069803               -0.00020852                0.10255246                0.00563514
              11.15417717                8.16452133               87.23415672                0.49895478               -0.02031481               -0.02019826                0.06746342               -0.00030783                0.12208193                0.00333725
              12.15403895                8.16304170               87.08329823                0.49868354               -0.00733123               -0.00721804                0.02419927               -0.00034551                0.13211204                0.00156996
              13.15403054                8.16155930               86.93248810                0.49864215                0.00565593                0.00576970               -0.01909162               -0.00034351                0.13284339               -0.00001823
              14.15415207                8.16007447               86.78164388                0.49883613                0.01865653                0.01876182               -0.06240317               -0.00031198                0.12433974               -0.00172670
              15.15440367                8.15858758               86.63068303                0.49926900                0.03167031                0.03175628               -0.10572400               -0.00024319                0.10655392               -0.00389616
              16.15478547                8.15709901               86.47952205                0.49996839                0.04467637                0.04475509               -0.14903446               -0.00013144                0.07941520               -0.00704371
              17.15529720                8.15560901               86.32807691                0.50098506                0.05764184                0.05779510               -0.19230988               -0.00001041                0.04315937               -0.01214867
              18.15593831                8.15411686               86.17626883                0.75092483                0.06411088                0.07088218               -0.23552418                0.00016814                0.02013011               -0.02072328
               8.15677151                9.16834592               87.68509008                0.75115008               -0.05238588               -0.05924281                0.19632375               -0.00010158                0.01854394                0.01378849
               9.15624765                9.16700940               87.53316030                0.50084445               -0.04595904               -0.04584788                0.15308103               -0.00005676                0.06007384                0.00470616
              10.15585233                9.16566732               87.38198163                0.49951657               -0.03301401               -0.03294541                0.10987167               -0.00017424                0.11208281                0.00314087
              11.15558737                9.16432054               87.23103237                0.49901351               -0.02001738               -0.01996362                0.06662298               -0.00022111                0.13232444                0.00186813
              12.15545198                9.16297077               87.08021897                0.49875651               -0.00705797               -0.00696978                0.02334131               -0.00021838                0.14258096                0.00088961
              13.15544621                9.16161829               86.92945521                0.49872521                0.00591252                0.00603219               -0.01996951               -0.00021242                0.14328437                0.00001039
              14.15557023                9.16026343               86.77865605                0.49891114                0.01890238                0.01903608               -0.06330285               -0.00019449                0.13447501               -0.00094218
              15.15582426                9.15890649               86.62773592                0.49933555                0.03191364                0.03203663               -0.10664479               -0.00016059                0.11598901               -0.00217598
              16.15620851                9.15754780               86.47660639                0.50002321                0.04494675                0.04503142               -0.14997288               -0.00008526                0.08733276               -0.00404675
              17.15672320                9.15618818               86.32517192                0.50102033                0.05793096                0.05802514               -0.19325757                0.00001928                0.04785949               -0.00734873
              18.15736713                9.15482743               86.17333122                0.75093614                0.06439297                0.07128360               -0.23646635                0.00018667                0.02265568               -0.01506366
               8.15804004               10.16775357               87.68181070                0.87557101               -0.05198068               -0.05923503                0.19547106                0.00677997                0.02471709                0.01198296
               9.15752023               10.16655284               87.52987220                0.75042831               -0.04547107               -0.04565574                0.15222755                0.00651297                0.07006644                0.00355066
              10.15713062               10.16533867               87.37876195                0.74978034               -0.03254668               -0.03286556                0.10901717                0.00628958                0.12560005                0.00292536
              11.15686930               10.16412206               87.22787534                0.74953525               -0.01968968               -0.01984815                0.06576267                0.00637465                0.14560479                0.00173527
              12.15673683               10.16290231               87.07712622                0.74941138               -0.00678351               -0.00684613                0.02247200                0.00637850                0.15592765                0.00073255
              13.15673363               10.16167994               86.92642697                0.74939522                0.00615756                0.00616503               -0.02084999                0.00638613                0.15658347               -0.00022207
              14.15685998               10.16045520               86.77569166                0.74948958                0.01912299                0.01917649               -0.06419810                0.00639285                0.14762580               -0.00121698
              15.15711609               10.15922831               86.62483358                0.74969773                0.03210502                0.03218224               -0.10755610                0.00640517                0.12882882               -0.00236605
              16.15750208               10.15799964               86.47376212                0.75003441                0.04509356                0.04518398               -0.15090006                0.00641695                0.09954663               -0.00388917
              17.15801796               10.15676951               86.32237752                0.75052695                0.05807355                0.05813311               -0.19419768                0.00662108                0.05739263               -0.00621639
              18.15866355               10.15554253               86.17054139                0.87547455                0.06455872                0.07151071               -0.23740783                0.00694452                0.02992289               -0.01309732
               8.29161510                0.17670371               88.71456120                0.87567789               -0.05024427               -0.05666216                0.18785122               -0.00644964                0.02059695               -0.00505585
               9.29111266                0.17421246               88.56241998                0.75066353               -0.04429456               -0.04420310                0.14799981               -0.00609840                0.04875241               -0.00473331
              10.29072921                0.17172561               88.41075767                0.74997463               -0.03242628               -0.03235642                0.10823544               -0.00593950                0.08745112               -0.00172185
              11.29046413                0.16923631               88.25932641                0.74963064               -0.02057646               -0.02040175                0.06848574               -0.00598774                0.10791135               -0.00091027
              12.29031768                0.16674462               88.10802951                0.74944450               -0.00869740               -0.00846259                0.02873102               -0.00599673                0.11855749               -0.00034211
              13.29029018                0.16425028               87.95678764                0.74940847                0.00321120                0.00347976               -0.01104355               -0.00600245                0.12040720                0.00010479
              14.29038190                0.16175328               87.80552444                0.74951298                0.01514474                0.01542350               -0.05084797               -0.00600014                0.11368180                0.00050503
              15.29059308                0.15925363               87.65416483                0.74977251                0.02709476                0.02736704               -0.09068232               -0.00599511                0.09846132                0.00090099
              16.29092380                0.15675121               87.50263381                0.75020673                0.03905120                0.03932097               -0.13053376               -0.00597293                0.07470201                0.00135148
              17.29137410                0.15424600               87.35085521                0.75083659                0.05098101                0.05121771               -0.17038058               -0.00611616                0.04182706                0.00191057
              18.29194342                0.15173373               87.19874243                0.87568495                0.05693168                0.06361679               -0.21019248               -0.00613559                0.02034865                0.00386157
               8.29404185                1.17613709               88.71156258                0.75113950               -0.05011277               -0.05644611                0.18706710               -0.00016447                0.01648372               -0.00342361
               9.29354072                1.17377043               88.55939971                0.50092541               -0.04419798               -0.04412556                0.14720635               -0.00007056                0.04599321               -0.00419115
              10.29315789                1.17140205               88.40774302                0.49961791               -0.03229872               -0.03221059                0.10744058               -0.00006367                0.08494264               -0.00080268
              11.29289475                1.16903229               88.25629521                0.49903839               -0.02035819               -0.02027563                0.06768308               -0.00006234                0.10415184               -0.00000960
              12.29275073                1.16666000               88.10497918                0.49872886               -0.00844572               -0.00833813                0.02791935               -0.00008747                0.11458847                0.00008018
              13.29272583                1.16428508               87.95371684                0.49866817                0.00347512                0.00360337               -0.01186238               -0.00009923                0.11633153               -0.00012579
              14.29282023                1.16190751               87.80243260                0.49884274                0.01541637                0.01554753               -0.05166907               -0.00009956                0.10956111               -0.00045721
              15.29303416                1.15952730               87.65105183                0.49927803                0.02738284                0.02749363               -0.09149892               -0.00009052                0.09434203               -0.00080559
              16.29336789                1.15714442               87.49950004                0.50000067                0.03937620                0.03944543               -0.13133925               -0.00010362                0.07062721               -0.00103387
              17.29382169                1.15475818               87.34770154                0.50105333                0.05132265                0.05141361               -0.17117141               -0.00008732                0.03842801               -0.00086730
              18.29439434                1.15236989               87.19558209                0.75097469                0.05726542                0.06365975               -0.21098053                0.00010659                0.01757705                0.00068120
               8.29634512                2.17557479               88.70850162                0.75092353               -0.04988354               -0.05608269                0.18632244               -0.00018956                0.01330194               -0.00194536
               9.29584629                2.17332995               88.55631614                0.50052323               -0.04395235               -0.04396356                0.14644512               -0.00015034                0.04557297               -0.00250089
              10.29546608                2.17108140               88.40469248                0.49928780               -0.03206765               -0.03196754                0.10667805               -0.00018146                0.08578641               -0.00033047
              11.29520493                2.16883080               88.25324779                0.49882101               -0.02014658               -0.02003078                0.06690236               -0.00017888                0.10289351                0.00043222
              12.29506314                2.16657786               88.10192307                0.49857356               -0.00821234               -0.00809050                0.02711589               -0.00019665                0.11248168                0.00030542
              13.29504069                2.16432235               87.95064721                0.49851676                0.00372748                0.00385460               -0.01269021               -0.00021368                0.11385992               -0.00024480
              14.29513769                2.16206423               87.79934728                0.49866470                0.01568367                0.01580485               -0.05252094               -0.00021794                0.10694679               -0.00100119
              15.29535436                2.15980350               87.64795042                0.49902077                0.02765797                0.02776211               -0.09237446               -0.00021534                0.09177896               -0.00181232
              16.29569085                2.15754012               87.49638427                0.49959586                0.03962628                0.03973428               -0.13224086               -0.00020789                0.06846105               -0.00248432
              17.29614689                2.15527427               87.34457792                0.50044073                0.05156342                0.05177316               -0.17210246               -0.00016485                0.03727228               -0.00265366
              18.29672212                2.15300692               87.19246457                0.75057694                0.05752349                0.06384320               -0.21194489                0.00002934                0.01710212               -0.00186771
               8.29852773                3.17501543               88.70543851                0.75090919               -0.04966265               -0.05581581                0.18560236               -0.00017589                0.01366816                0.00329757
               9.29803110                3.17289116               88.55325589                0.50050728               -0.04371568               -0.04377886                0.14571075               -0.00016808                0.04583847                0.00243010
              10.29765342                3.17076270               88.40163356                0.49928279               -0.03181974               -0.03177215                0.10592497               -0.00026285                0.08602374                0.00187435
              11.29739471                3.16863168               88.25019165                0.49881240               -0.01990871               -0.01980202                0.06612793               -0.00027401                0.10286829                0.00146002
              12.29725524                3.16649819               88.09886343                0.49855804               -0.00797563               -0.00784648                0.02631535               -0.00028954                0.11192850                0.00072969
              13.29723519                3.16436217               87.94758017                0.49851284                0.00397384                0.00411035               -0.01351891               -0.00030290                0.11298390               -0.00026881
              14.29733472                3.16222361               87.79627064                0.49865826                0.01593838                0.01607437               -0.05337995               -0.00030605                0.10589844               -0.00145725
              15.29755396                3.16008254               87.64486326                0.49901540                0.02791212                0.02805156               -0.09326471               -0.00029462                0.09070729               -0.00276403
              16.29789296                3.15793911               87.49328735                0.49960568                0.03988131                0.04005515               -0.13316394               -0.00025963                0.06757036               -0.00408581
              17.29835159                3.15579364               87.34147438                0.50046022                0.05183355                0.05209137               -0.17305828               -0.00016691                0.03676109               -0.00527401
              18.29892963                3.15364676               87.18935913                0.75058877                0.05780422                0.06413402               -0.21293018                0.00004540                0.01681413               -0.00621461
               8.30059015                4.17445847               88.70238919                0.75089954               -0.04944877               -0.05558612                0.18490098               -0.00017065                0.01384450                0.00891453
               9.30009566                4.17245437               88.55019765                0.50048898               -0.04349241               -0.04357494                0.14499357               -0.00017535                0.04636168                0.00606315
              10.29972030                4.17044596               88.39857385                0.49927470               -0.03158506               -0.03156995                0.10518565               -0.00030550                0.08694435                0.00423842
              11.29946396                4.16843476               88.24713147                0.49880407               -0.01967220               -0.01958140                0.06536243               -0.00034585                0.10379657                0.00270194
              12.29932686                4.16642093               88.09580241                0.49855693               -0.00773759               -0.00760680                0.02552119               -0.00037176                0.11272837                0.00126574
              13.29930921                4.16440456               87.94451653                0.49850985                0.00421720                0.00436500               -0.01434475               -0.00038432                0.11358231               -0.00023992
              14.29941120                4.16238572               87.79320253                0.49866300                0.01618809                0.01634464               -0.05423942               -0.00037807                0.10629916               -0.00190037
              15.29963297                4.16036453               87.64178895                0.49902212                0.02816811                0.02834067               -0.09415917               -0.00034707                0.09093734               -0.00377084
              16.29997456                4.15834122               87.49020548                0.49961842                0.04014637                0.04035845               -0.13409204               -0.00028110                0.06767368               -0.00588325
              17.30043590                4.15631610               87.33838408                0.50048087                0.05211160                0.05239361               -0.17401738               -0.00016651                0.03679275               -0.00825059
              18.30101680                4.15428960               87.18626009                0.75060066                0.05808976                0.06442960               -0.21391452                0.00005121                0.01681941               -0.01086389
               8.30253251                5.17390371               88.69934598                0.75088637               -0.04923990               -0.05536801                0.18420924               -0.00016674                0.01419073                0.01366368
               9.30204011                5.17201966               88.54713739                0.50048028               -0.04327930               -0.04336697                0.14428809               -0.00017515                0.04732559                0.00903005
              10.30166692                5.17013130               88.39550945                0.49926697               -0.03136474               -0.03135688                0.10445706               -0.00032370                0.08874617                0.00608388
              11.30141281                5.16824005               88.24406731                0.49880860               -0.01944581               -0.01935690                0.06460686               -0.00038870                0.10589259                0.00374835
              12.30127801                5.16634605               88.09274049                0.49856736               -0.00750438               -0.00736926                0.02473478               -0.00043051                0.11490253                0.00174283
              13.30126273                5.16444947               87.94145689                0.49852188                0.00445869                0.00461514               -0.01516516               -0.00044425                0.11565871               -0.00018363
              14.30136718                5.16255050               87.79014362                0.49867712                0.01643935                0.01660701               -0.05509433               -0.00042591                0.10813842               -0.00224323
              15.30159151                5.16064936               87.63872797                0.49903816                0.02842971                0.02861495               -0.09504861               -0.00037281                0.09242735               -0.00462257
              16.30193577                5.15874628               87.48713860                0.49963287                0.04041843                0.04064160               -0.13501378               -0.00028376                0.06872269               -0.00749564
              17.30239988                5.15684151               87.33530661                0.50049990                0.05239402                0.05267951               -0.17496529               -0.00015816                0.03733327               -0.01101811
              18.30298365                5.15493535               87.18316679                0.75061415                0.05837720                0.06471048               -0.21488003                0.00005938                0.01708825               -0.01529731
               8.30435491                6.17335111               88.69629991                0.75087763               -0.04903407               -0.05515495                0.18351966               -0.00015747                0.01473399                0.01726916
               9.30386457                6.17158703               88.54406642                0.50046483               -0.04307366               -0.04315684                0.14358937               -0.00015887                0.04888062                0.01090453
              10.30349344                6.16981882               88.39243442                0.49927618               -0.03115707               -0.03113276                0.10373604               -0.00031613                0.09168677                0.00714412
              11.30324143                6.16804762               88.24099566                0.49882121               -0.01923079               -0.01912508                0.06385886               -0.00040448                0.10938801                0.00431384
              12.30310882                6.16627355               88.08967642                0.49858361               -0.00727779               -0.00713179                0.02395544               -0.00046123                0.11864027                0.00201032
              13.30309587                6.16449686               87.93840157                0.49854494                0.00469876                0.00485934               -0.01597845               -0.00047556                0.11935668               -0.00012124
              14.30320280                6.16271786               87.78709554                0.49870105                0.01669328                0.01685815               -0.05594258               -0.00044606                0.11154198               -0.00238479
              15.30342974                6.16093683               87.63568317                0.49906326                0.02869671                0.02887178               -0.09593004               -0.00037339                0.09528985               -0.00507645
              16.30377673                6.15915406               87.48409060                0.49965823                0.04069607                0.04090367               -0.13592310               -0.00026474                0.07080468               -0.00852140
              17.30424366                6.15736969               87.33224658                0.50052278                0.05267885                0.05294661               -0.17589548               -0.00013546                0.03843249               -0.01305524
              18.30483031                6.15558381               87.18008415                0.75062794                0.05866484                0.06497400               -0.21581877                0.00007494                0.01764888               -0.01894593
               8.30605751                7.17280061               88.69323762                0.75086754               -0.04882868               -0.05495647                0.18282640               -0.00013665                0.01555024                0.01921811
               9.30556922                7.17115652               88.54097213                0.50046064               -0.04287474               -0.04293794                0.14289188               -0.00011948                0.05123426                0.01122562
              10.30520001                7.16950864               88.38933951                0.49928904               -0.03096134               -0.03089338                0.10301874               -0.00028487                0.09611742                0.00709063
              11.30494999                7.16785755               88.23791090                0.49885141               -0.01902371               -0.01888833                0.06311541               -0.00039737                0.11462348                0.00421556
              12.30481954                7.16620342               88.08660772                0.49861779               -0.00705441               -0.00689681                0.02318136               -0.00045865                0.12423662                0.00197336
              13.30480891                7.16454666               87.93535076                0.49858328                0.00493725                0.00509848               -0.01678576               -0.00046921                0.12494102               -0.00006198
              14.30491828                7.16288767               87.78406106                0.49873450                0.01694694                0.01710136               -0.05678429               -0.00043266                0.11677320               -0.00223153
              15.30514785                7.16122679               87.63265997                0.49909571                0.02896691                0.02911470               -0.09680354               -0.00034892                0.09979598               -0.00489559
              16.30549762                7.15956435               87.48106959                0.49968588                0.04097862                0.04114541               -0.13682165               -0.00022406                0.07416419               -0.00852465
              17.30596742                7.15790044               87.32921424                0.50054834                0.05296449                0.05319657               -0.17680720               -0.00009366                0.04023927               -0.01373910
              18.30655691                7.15623483               87.17702319                0.75063929                0.05894943                0.06523228               -0.21672925                0.00010290                0.01858261               -0.02110883
               8.30764035                8.17225198               88.69013975                0.75085801               -0.04862019               -0.05480221                0.18212529               -0.00009724                0.01678902                0.01880474
               9.30715415                8.17072828               88.53783657                0.50045738               -0.04268173               -0.04268495                0.14218975               -0.00006940                0.05473738                0.00928892
              10.30678672                8.16920095               88.38621222                0.49931293               -0.03077219               -0.03064347                0.10229942               -0.00025448                0.10258786                0.00569822
              11.30653871                8.16766985               88.23480587                0.49889102               -0.01880901               -0.01866229                0.06237233               -0.00036078                0.12207743                0.00338372
              12.30641054                8.16613561               88.08353123                0.49866649               -0.00682325               -0.00666744                0.02240908               -0.00040405                0.13206550                0.00159755
              13.30640224                8.16459883               87.93230464                0.49863374                0.00517368                0.00533582               -0.01758993               -0.00040452                0.13275452               -0.00001057
              14.30651401                8.16305988               87.78104372                0.49879039                0.01719175                0.01734510               -0.05762138               -0.00037102                0.12421514               -0.00173774
              15.30674608                8.16151913               87.62966604                0.49914169                0.02922939                0.02935772               -0.09767097               -0.00029583                0.10641230               -0.00392211
              16.30709860                8.15997696               87.47808833                0.49972440                0.04126156                0.04137469               -0.13771278               -0.00017329                0.07928835               -0.00707757
              17.30757131                8.15843362               87.32622686                0.50057592                0.05324997                0.05342771               -0.17770906               -0.00003611                0.04308476               -0.01217940
              18.30816360                8.15688846               87.17400315                0.75064951                0.05922904                0.06551772               -0.21762353                0.00014935                0.02009219               -0.02073233
               8.30910297                9.17170457               88.68697875                0.75084552               -0.04841105               -0.05473966                0.18140765               -0.00009337                0.01854956                0.01383492
               9.30861886                9.17030283               88.53463306                0.50046559               -0.04248132               -0.04237191                0.14147205               -0.00007146                0.06009566                0.00475215
              10.30825335                9.16889577               88.38303880                0.49936216               -0.03053720               -0.03044866                0.10156810               -0.00019893                0.11209519                0.00318020
              11.30800812                9.16748430               88.23167354                0.49895020               -0.01854328               -0.01845191                0.06162096               -0.00025223                0.13228930                0.00189696
              12.30788248                9.16607007               88.08044379                0.49874086               -0.00657867               -0.00644207                0.02163296               -0.00025511                0.14249784                0.00090656
              13.30787654                9.16465338               87.92926333                0.49871591                0.00540424                0.00557714               -0.01839452               -0.00025090                0.14315342                0.00001521
              14.30799057                9.16323457               87.77804721                0.49886575                0.01741515                0.01759935               -0.05845600               -0.00023169                0.13430510               -0.00094899
              15.30822485                9.16181395               87.62671000                0.49920905                0.02945487                0.02961885               -0.09853586               -0.00019298                0.11580309               -0.00219225
              16.30857966                9.16039184               87.47516353                0.49977156                0.04151780                0.04163150               -0.13860266               -0.00011100                0.08716786               -0.00406662
              17.30905520                9.15896900               87.32331262                0.50060500                0.05352836                0.05363920               -0.17861264                0.00000198                0.04776154               -0.00736401
              18.30965023                9.15754518               87.17105635                0.75066289                0.05950265                0.06588243               -0.21851722                0.00017293                0.02260575               -0.01505794
               8.31044197               10.17115719               88.68369131                0.87541995               -0.04804525               -0.05473802                0.18065552                0.00626463                0.02472355                0.01200990
               9.30996152               10.16988084               88.53133689                0.75024043               -0.04203527               -0.04219881                0.14071888                0.00600494                0.07008386                0.00357456
              10.30960126               10.16859198               88.37981103                0.74970292               -0.03010747               -0.03037947                0.10080805                0.00579054                0.12560124                0.00294610
              11.30935937               10.16730081               88.22850833                0.74950377               -0.01824508               -0.01834871                0.06084865                0.00586446                0.14555101                0.00174976
              12.30923636               10.16600677               88.07734273                0.74940316               -0.00633208               -0.00632981                0.02084478                0.00586598                0.15581975                0.00074002
              13.30923273               10.16471037               87.92622664                0.74939228                0.00562223                0.00569970               -0.01920263                0.00587302                0.15642100               -0.00022028
              14.30934881               10.16341187               87.77507418                0.74946758                0.01761081                0.01773028               -0.05928779                0.00588066                0.14741747               -0.00122087
              15.30958494               10.16211150               87.62379881                0.74963593                0.02962606                0.02975578               -0.09939549                0.00589553                0.12860101               -0.00237444
              16.30994133               10.16080959               87.47231021                0.74990978                0.04165331                0.04177505               -0.13949016                0.00591144                0.09934128               -0.00389758
              17.31041801               10.15950641               87.32050899                0.75031531                0.05366804                0.05374061               -0.17952310                0.00610588                0.05726433               -0.00621934
              18.31101469               10.15820610               87.16825728                0.87533500                0.05966808                0.06609206               -0.21943016                0.00641570                0.02985303               -0.01308307
               8.44416177                0.17965575               89.71636097                0.87549335               -0.04602729               -0.05190457                0.17207077               -0.00591026                0.02063647               -0.00504019
               9.44370149                0.17718938               89.56383794                0.75041697               -0.04058380               -0.04049009                0.13557376               -0.00558691                0.04885412               -0.00472810
              10.44335009                0.17472704               89.41179474                0.74985427               -0.02972877               -0.02963872                0.09916954               -0.00544112                0.08761778               -0.00171528
              11.44310692                0.17226244               89.25998275                0.74957996               -0.01889496               -0.01868863                0.06278105               -0.00548604                0.10808764               -0.00090510
              12.44297219                0.16979560               89.10830506                0.74943187               -0.00803323               -0.00775163                0.02638577               -0.00549566                0.11871340               -0.00033926
              13.44294625                0.16732621               88.95668215                0.74940063                0.00286356                0.00319004               -0.01003919               -0.00550231                0.12051445                0.00010458
              14.44302946                0.16485423               88.80503755                0.74948717                0.01379708                0.01413379               -0.04650830               -0.00550139                0.11372155                0.00049965
              15.44322220                0.16237965               88.65329617                0.74969503                0.02476115                0.02507878               -0.08302596               -0.00549682                0.09843588                0.00088710
              16.44352469                0.15990240               88.50138317                0.75004057                0.03574180                0.03603345               -0.11957282               -0.00547473                0.07463798                0.00132556
              17.44393703                0.15742256               88.34922269                0.75055768                0.04669564                0.04693356               -0.15610965               -0.00560307                0.04176824                0.00186923
              18.44445860                0.15493632               88.19672847                0.87550019                0.05215671                0.05829079               -0.19257917               -0.00562464                0.02029887                0.00378798
               8.44656903                1.17913670               89.71335484                0.75080391               -0.04590517               -0.05171275                0.17135353               -0.00015324                0.01651595               -0.00336511
               9.44610998                1.17678448               89.56081006                0.50049023               -0.04049414               -0.04042262                0.13484383               -0.00006823                0.04609243               -0.00415620
              10.44575915                1.17443065               89.40877247                0.49941712               -0.02961026               -0.02950737                0.09843833               -0.00006331                0.08510546               -0.00077155
              11.44551778                1.17207555               89.25694384                0.49895373               -0.01869012               -0.01857396                0.06204076               -0.00006300                0.10431782                0.00001002
              12.44538535                1.16971808               89.10524691                0.49870792               -0.00779300               -0.00763720                0.02563233               -0.00008775                0.11473463                0.00008709
              13.44536192                1.16735811               88.95360345                0.49865683                0.00311911                0.00330478               -0.01080344               -0.00010133                0.11643773               -0.00013287
              14.44544773                1.16499557               88.80193779                0.49879797                0.01406124                0.01425061               -0.04727620               -0.00010511                0.10961547               -0.00048307
              15.44564314                1.16263044               88.65017531                0.49914427                0.02503770                0.02519986               -0.08378620               -0.00009925                0.09435011               -0.00085638
              16.44594848                1.16026274               88.49824169                0.49972891                0.03604504                0.03615511               -0.12031329               -0.00011113                0.07061266               -0.00111893
              17.44636404                1.15789190               88.34606149                0.50059159                0.04700540                0.04712495               -0.15682286               -0.00009263                0.03841816               -0.00099644
              18.44688859                1.15551923               88.19356066                0.75066617                0.05245503                0.05835024               -0.19328696                0.00008683                0.01756851                0.00049371
               8.44886315                2.17862149               89.71028685                0.75062228               -0.04569662               -0.05139676                0.17069784               -0.00017715                0.01332782               -0.00183546
               9.44840618                2.17638093               89.55771925                0.50014899               -0.04026994               -0.04028470                0.13416139               -0.00014795                0.04567512               -0.00242557
              10.44805775                2.17413689               89.40571467                0.49913198               -0.02939801               -0.02929149                0.09774937               -0.00018201                0.08595381               -0.00027181
              11.44781822                2.17189096               89.25388896                0.49875730               -0.01849379               -0.01835262                0.06132772               -0.00018167                0.10305425                0.00046923
              12.44768788                2.16964286               89.10218308                0.49855588               -0.00757399               -0.00740983                0.02489023               -0.00020135                0.11262141                0.00031876
              13.44766674                2.16739231               88.95052584                0.49851677                0.00335799                0.00353881               -0.01157449               -0.00022245                0.11396129               -0.00025821
              14.44775504                2.16513924               88.79884422                0.49862822                0.01431487                0.01449482               -0.04807788               -0.00023317                0.10700009               -0.00104906
              15.44795304                2.16288365               88.64706539                0.49891430                0.02529856                0.02545978               -0.08461758               -0.00023595                0.09178844               -0.00190473
              16.44826101                2.16062551               88.49511713                0.49938003                0.03628230                0.03644087               -0.12117773               -0.00022870                0.06844587               -0.00263555
              17.44867869                2.15836506               88.34292873                0.50007295                0.04723318                0.04748626               -0.15773021               -0.00017846                0.03725847               -0.00287655
              18.44920567                2.15610333               88.19043357                0.75033210                0.05269828                0.05856519               -0.19424833                0.00001349                0.01708962               -0.00216713
               8.45104662                3.17810877               89.70721701                0.75061291               -0.04549948               -0.05117479                0.17007673               -0.00016588                0.01369472                0.00343375
               9.45059163                3.17597879               89.55465208                0.50013132               -0.04005723               -0.04013044                0.13351537               -0.00017255                0.04593928                0.00252970
              10.45024548                3.17384482               89.40264860                0.49912422               -0.02917262               -0.02912217                0.09707629               -0.00027161                0.08618753                0.00194514
              11.45000818                3.17170850               89.25082543                0.49874548               -0.01827531               -0.01814793                0.06062572               -0.00028607                0.10302341                0.00150502
              12.44987997                3.16956989               89.09911577                0.49854389               -0.00735469               -0.00718654                0.02415584               -0.00030522                0.11206038                0.00074803
              13.44986108                3.16742889               88.94745081                0.49850346                0.00358779                0.00377793               -0.01234439               -0.00032392                0.11307649               -0.00028130
              14.44995173                3.16528546               88.79575925                0.49862006                0.01455388                0.01475228               -0.04888555               -0.00033350                0.10594242               -0.00150744
              15.45015216                3.16313964               88.64396956                0.49891014                0.02553860                0.02574275               -0.08546588               -0.00032658                0.09070653               -0.00286270
              16.45046250                3.16099156               88.49201115                0.49938984                0.03652462                0.03676192               -0.12207105               -0.00029025                0.06754467               -0.00424358
              17.45088265                3.15884162               88.33981575                0.50009126                0.04749153                0.04781620               -0.15867183               -0.00018779                0.03674001               -0.00549745
              18.45141233                3.15669053               88.18731833                0.75034620                0.05296782                0.05888132               -0.19523645                0.00002693                0.01679952               -0.00650269
               8.45311980                4.17759800               89.70416117                0.75060467               -0.04531162               -0.05098543                0.16947839               -0.00016276                0.01387053                0.00905613
               9.45266668                4.17557832               89.55158712                0.50012183               -0.03985970               -0.03995874                0.13289093               -0.00018831                0.04645797                0.00617163
              10.45232260                4.17355445               89.39958190                0.49912078               -0.02896239               -0.02894700                0.09642104               -0.00032755                0.08709877                0.00431826
              11.45208743                4.17152800               89.24775798                0.49874358               -0.01806112               -0.01795136                0.05993746               -0.00037206                0.10394005                0.00275455
              12.45196138                4.16949913               89.09604715                0.49854285               -0.00713725               -0.00696797                0.02343172               -0.00040284                0.11284591                0.00129018
              13.45194469                4.16746787               88.94437923                0.49850581                0.00381197                0.00401518               -0.01310804               -0.00042084                0.11365836               -0.00024707
              14.45203762                4.16543429               88.79268282                0.49862318                0.01478651                0.01500917               -0.04969098               -0.00041964                0.10632477               -0.00194452
              15.45224042                4.16339850               88.64088654                0.49891770                0.02577971                0.02602346               -0.08631680               -0.00039086                0.09091746               -0.00385963
              16.45255321                4.16136074               88.48892018                0.49939852                0.03677671                0.03706348               -0.12296834               -0.00032085                0.06763181               -0.00602289
              17.45297595                4.15932138               88.33671599                0.50011022                0.04775856                0.04812471               -0.15961313               -0.00019223                0.03676177               -0.00844197
              18.45350839                4.15728095               88.18420953                0.75035516                0.05324328                0.05919056               -0.19621565                0.00003135                0.01680101               -0.01110252
               8.45508273                5.17708906               89.70111154                0.75059886               -0.04513110               -0.05080016                0.16888797               -0.00016059                0.01421427                0.01379350
               9.45463141                5.17517961               89.54852027                0.50011178               -0.03967404               -0.03978056                0.13227960               -0.00019685                0.04741413                0.00913746
              10.45428924                5.17326588               89.39651065                0.49912142               -0.02876803               -0.02876076                0.09578025               -0.00036105                0.08888532                0.00616688
              11.45405605                5.17134947               89.24468666                0.49874736               -0.01785982               -0.01775092                0.05926249               -0.00043192                0.10601547                0.00380605
              12.45393205                5.16943053               89.09297773                0.49855094               -0.00692756               -0.00675194                0.02271890               -0.00047900                0.11499567                0.00177306
              13.45391750                5.16750919               88.94131171                0.49851557                0.00403252                0.00424618               -0.01386168               -0.00049722                0.11570803               -0.00018308
              14.45401270                5.16558565               88.78961565                0.49863610                0.01501918                0.01525550               -0.05048817               -0.00048182                0.10813636               -0.00227575
              15.45421789                5.16366011               88.63781691                0.49893308                0.02602519                0.02628510               -0.08715761               -0.00042788                0.09238057               -0.00469116
              16.45453320                5.16173282               88.48584428                0.49941240                0.03703559                0.03733791               -0.12385206               -0.00033079                0.06865863               -0.00760158
              17.45495860                5.15980412               88.33362919                0.50012665                0.04803087                0.04840567               -0.16053411               -0.00018712                0.03728975               -0.01115819
              18.45549382                5.15787434               88.18110670                0.75036842                0.05352218                0.05946936               -0.19716285                0.00003861                0.01706457               -0.01546207
               8.45693548                6.17658200               89.69805904                0.75058871               -0.04495592               -0.05061144                0.16829656               -0.00015269                0.01475476                0.01737829
               9.45648592                6.17478271               89.54544278                0.50010980               -0.03949821               -0.03959686                0.13167575               -0.00018847                0.04895742                0.01100529
              10.45614552                6.17297923               89.39342886                0.49912548               -0.02858892               -0.02856241                0.09514945               -0.00036780                0.09180260                0.00722567
              11.45591415                6.17117298               89.24160795                0.49876261               -0.01767195               -0.01754338                0.05859896               -0.00046369                0.10948075                0.00437289
              12.45579208                6.16936409               89.08990626                0.49857118               -0.00672608               -0.00653696                0.02201707               -0.00052537                0.11869831                0.00204508
              13.45577962                6.16755279               88.93824860                0.49853808                0.00424967                0.00446947               -0.01460463               -0.00054277                0.11936807               -0.00011314
              14.45587707                6.16573940               88.78655941                0.49866174                0.01525300                0.01548721               -0.05127338               -0.00051357                0.11150109               -0.00240464
              15.45608468                6.16392421               88.63476358                0.49895018                0.02627569                0.02652390               -0.08798442               -0.00043663                0.09520757               -0.00512319
              16.45640259                6.16210750               88.48278743                0.49943908                0.03730032                0.03758263               -0.12471474               -0.00031654                0.07071228               -0.00859021
              17.45683069                6.16028950               88.33056007                0.50015084                0.04830571                0.04865483               -0.16142284               -0.00016614                0.03837261               -0.01313826
              18.45736870                6.15847034               88.17801486                0.75037750                0.05380107                0.05971302               -0.19806450                0.00005393                0.01761772               -0.01902904
               8.45867825                7.17607683               89.69499029                0.75058057               -0.04478359               -0.05043025                0.16770049               -0.00013230                0.01556793                0.01930622
               9.45823041                7.17438767               89.54234200                0.50010334               -0.03933163               -0.03940290                0.13107605               -0.00015373                0.05129562                0.01131626
              10.45789161                7.17269463               89.39032724                0.49913788               -0.02842434               -0.02834869                0.09452599               -0.00034413                0.09620197                0.00716727
              11.45766192                7.17099861               89.23851618                0.49878574               -0.01749406               -0.01733115                0.05794364               -0.00046431                0.11467705                0.00427339
              12.45754173                7.16929979               89.08683021                0.49860448               -0.00652935               -0.00632539                0.02132472               -0.00053091                0.12424962                0.00200968
              13.45753134                7.16759858               88.93519009                0.49857491                0.00446404                0.00468625               -0.01533825               -0.00054381                0.12490292               -0.00004907
              14.45763101                7.16589539               88.78351683                0.49869673                0.01548567                0.01570846               -0.05204863               -0.00050535                0.11668258               -0.00224195
              15.45784105                7.16419058               88.63173193                0.49898518                0.02652837                0.02674482               -0.08879886               -0.00041466                0.09966877               -0.00492493
              16.45816158                7.16248448               88.47975771                0.49946186                0.03756937                0.03780073               -0.12555933               -0.00027693                0.07403676               -0.00856364
              17.45859244                7.16077721               88.32751886                0.50017082                0.04858166                0.04887688               -0.16228374               -0.00012458                0.04015996               -0.01377359
              18.45913321                7.15906861               88.17494505                0.75038918                0.05407764                0.05993596               -0.19892257                0.00008287                0.01854239               -0.02112054
               8.46031115                8.17557339               89.69188590                0.75057325               -0.04461026               -0.05028899                0.16709818               -0.00009249                0.01680078                0.01887280
               9.45986505                8.17399465               89.53919991                0.50010173               -0.03917240               -0.03917769                0.13047648               -0.00010144                0.05477975                0.00936489
              10.45952770                8.17241226               89.38719323                0.49916524               -0.02826738               -0.02812567                0.09390566               -0.00030753                0.10263682                0.00576406
              11.45929970                8.17082636               89.23540416                0.49883079               -0.01731098               -0.01712958                0.05729274               -0.00042167                0.12208526                0.00343487
              12.45918148                8.16923758               89.08374641                0.49865418               -0.00632782               -0.00611975                0.02063761               -0.00047129                0.13202542                0.00163010
              13.45917315                8.16764652               88.93213630                0.49862783                0.00467415                0.00490064               -0.01606571               -0.00047429                0.13265862                0.00000237
              14.45927497                8.16605357               88.78049145                0.49874740                0.01570803                0.01592979               -0.05281826               -0.00043823                0.12406530               -0.00174296
              15.45948731                8.16445910               88.62872961                0.49902457                0.02677256                0.02696490               -0.08960700               -0.00035524                0.10623033               -0.00394080
              16.45981042                8.16286352               88.47676780                0.49949369                0.03783829                0.03800546               -0.12639729               -0.00022000                0.07911804               -0.00709930
              17.46024407                8.16126704               88.32452273                0.50019426                0.04885780                0.04907768               -0.16313325               -0.00006394                0.04298142               -0.01218675
              18.46078758                8.15966906               88.17191636                0.75040027                0.05435032                0.06017675               -0.19975801                0.00013117                0.02003973               -0.02070000
               8.46183388                9.17507105               89.68871823                0.75056461               -0.04443617               -0.05023797                0.16648549               -0.00008340                0.01855623                0.01387634
               9.46138951                9.17360412               89.53598974                0.50011064               -0.03900622               -0.03889964                0.12986869               -0.00008922                0.06011906                0.00480038
              10.46105375                9.17213212               89.38401299                0.49921525               -0.02806741               -0.02795627                0.09327828               -0.00023012                0.11210831                0.00322200
              11.46082817                9.17065601               89.23226479                0.49889013               -0.01708014               -0.01694465                0.05663796               -0.00029069                0.13225108                0.00192910
              12.46071215                9.16917739               89.08065163                0.49872722               -0.00611523               -0.00591819                0.01994885               -0.00029957                0.14240332                0.00092706
              13.46070586                9.16769660               88.92908732                0.49870239                0.00487564                0.00511989               -0.01679236               -0.00029740                0.14299729                0.00002294
              14.46080966                9.16621399               88.77748693                0.49882372                0.01590665                0.01616337               -0.05358564               -0.00027620                0.13409045               -0.00095209
              15.46102400                9.16472988               88.62576520                0.49909419                0.02697925                0.02720571               -0.09041540               -0.00023148                0.11555574               -0.00220376
              16.46134925                9.16324459               88.47383434                0.49954314                0.03808099                0.03824103               -0.12724078               -0.00014098                0.08694107               -0.00407959
              17.46178562                9.16175877               88.32159967                0.50022309                0.04912704                0.04926687               -0.16399371               -0.00001697                0.04762426               -0.00736581
              18.46233179                9.16027214               88.16896087                0.75040823                0.05461732                0.06049736               -0.20059933                0.00016067                0.02253611               -0.01502005
               8.46324335               10.17456863               89.68542381                0.87527888               -0.04411486               -0.05024200                0.16584818                0.00574964                0.02472738                0.01203377
               9.46280220               10.17321666               89.53268658                0.75006645               -0.03860700               -0.03874625                0.12923171                0.00549334                0.07009318                0.00359988
              10.46247121               10.17185313               89.38077811                0.74962794               -0.02767933               -0.02789868                0.09262526                0.00528598                0.12558790                0.00296689
              11.46224861               10.17048747               89.22909231                0.74947539               -0.01681479               -0.01685472                0.05596360                0.00534870                0.14547823                0.00176425
              12.46213491               10.16911922               89.07754312                0.74939507               -0.00590038               -0.00581789                0.01924903                0.00534854                0.15568257                0.00074861
              13.46213060               10.16774892               88.92604292                0.74938569                0.00506242                0.00523182               -0.01752301                0.00535514                0.15621324               -0.00021868
              14.46223616               10.16637683               88.77450590                0.74944239                0.01607369                0.01628468               -0.05435173                0.00536482                0.14714124               -0.00122347
              15.46245208               10.16500322               88.62284567                0.74957479                0.02712772                0.02733360               -0.09122339                0.00538338                0.12828288               -0.00238001
              16.46277871               10.16362834               88.47097232                0.74979704                0.03820507                0.03837508               -0.12809269                0.00540444                0.09904224               -0.00390183
              17.46321618               10.16225237               88.31878705                0.75012690                0.04926637                0.04936064               -0.16488512                0.00558987                0.05707179               -0.00621461
              18.46376404               10.16087901               88.16615278                0.87520917                0.05478623                0.06068668               -0.20149486                0.00588870                0.02974608               -0.01304436
               8.59707389                0.18261516               90.71800262                0.87532512               -0.04179184               -0.04712599                0.15621794               -0.00536588                0.02067507               -0.00501097
               9.59665597                0.18017366               90.56513145                0.75019085               -0.03685658               -0.03676640                0.12310582               -0.00506863                0.04896111               -0.00471819
              10.59633676                0.17773585               90.41274106                0.74974313               -0.02701984               -0.02691567                0.09007898               -0.00493552                0.08780037               -0.00170705
              11.59611557                0.17529603               90.26058203                0.74952992               -0.01721040               -0.01697418                0.05706845               -0.00497622                0.10829240               -0.00089907
              12.59599255                0.17285413               90.10855722                0.74942356               -0.00737952               -0.00704211                0.02405321               -0.00498671                0.11890246               -0.00033566
              13.59596798                0.17040977               89.95658686                0.74939535                0.00248850                0.00289685               -0.00899833               -0.00499544                0.12064276                0.00010644
              14.59604232                0.16796278               89.80459427                0.74945900                0.01240930                0.01284008               -0.04211546               -0.00499733                0.11375254                0.00049583
              15.59621617                0.16551309               89.65250431                0.74962054                0.02238615                0.02278577               -0.07531259               -0.00499525                0.09836299                0.00087192
              16.59649004                0.16306069               89.50024235                0.74989260                0.03240027                0.03274042               -0.10856391               -0.00497482                0.07450143                0.00129254
              17.59686418                0.16060577               89.34773302                0.75030393                0.04238975                0.04264335               -0.14180409               -0.00508821                0.04164970                0.00181251
              18.59733784                0.15814510               89.19489084                0.87533041                0.04736623                0.05295558               -0.17492546               -0.00511233                0.02020762                0.00367550
               8.59946173                1.18214390               90.71498965                0.75050134               -0.04167887               -0.04696247                0.15556637               -0.00014091                0.01655107               -0.00327535
               9.59904494                1.17980600               90.56209659                0.50009148               -0.03677556               -0.03671204                0.12243784               -0.00006047                0.04620250               -0.00410782
              10.59872622                1.17746669               90.40971179                0.49923532               -0.02691368               -0.02680035                0.08941135               -0.00005136                0.08528776               -0.00073502
              11.59850667                1.17512628               90.25753603                0.49888029               -0.01702052               -0.01687160                0.05638936               -0.00004745                0.10450906                0.00003143
              12.59838581                1.17278371               90.10549182                0.49868891               -0.00714813               -0.00693787                0.02335410               -0.00006981                0.11490695                0.00009499
              13.59836371                1.17043874               89.95350077                0.49865177                0.00274376                0.00300314               -0.00971663               -0.00008676                0.11656065               -0.00013825
              14.59844068                1.16809118               89.80148708                0.49875508                0.01267786                0.01295049               -0.04284269               -0.00009841                0.10966609               -0.00050946
              15.59861726                1.16574095               89.64937610                0.49901986                0.02266353                0.02290330               -0.07602971               -0.00010192                0.09432994               -0.00091575
              16.59889396                1.16338809               89.49709377                0.49947589                0.03269101                0.03286300               -0.10925012               -0.00011787                0.07055854               -0.00122664
              17.59927108                1.16103221               89.34456508                0.50017135                0.04267132                0.04283551               -0.14244371               -0.00009987                0.03838287               -0.00117047
              18.59974738                1.15867466               89.19171636                0.75038590                0.04762980                0.05303973               -0.17555422                0.00006483                0.01754823                0.00022411
               8.60174688                2.18167591               90.71191558                0.75034845               -0.04149067               -0.04670543                0.15501415               -0.00016210                0.01335647               -0.00167658
               9.60133197                2.17943942               90.55899936                0.49980385               -0.03657186               -0.03660562                0.12184272               -0.00013589                0.04579053               -0.00232590
              10.60101544                2.17719984               90.40664747                0.49898953               -0.02671854               -0.02661613                0.08879926               -0.00016153                0.08614618               -0.00020117
              11.60079760                2.17495859               90.25447435                0.49869669               -0.01683730               -0.01667605                0.05574367               -0.00015663                0.10324653                0.00051103
              12.60067870                2.17271538               90.10242088                0.49854194               -0.00694115               -0.00673149                0.02267173               -0.00017474                0.11279543                0.00033526
              13.60065878                2.17046983               89.95041572                0.49851145                0.00297210                0.00322082               -0.01043554               -0.00020234                0.11408827               -0.00026885
              14.60073814                2.16822179               89.79838573                0.49859436                0.01292200                0.01318369               -0.04360020               -0.00022719                0.10705757               -0.00109871
              15.60091722                2.16597116               89.64625807                0.49881231                0.02291459                0.02315953               -0.07682795               -0.00024588                0.09177883               -0.00201273
              16.60119643                2.16371795               89.49396071                0.49918257                0.03291935                0.03315441               -0.11009456               -0.00024873                0.06839941               -0.00282617
              17.60157561                2.16146248               89.34142332                0.49974117                0.04288966                0.04321131               -0.14335020               -0.00019607                0.03722064               -0.00317533
              18.60205422                2.15920590               89.18857961                0.75011209                0.04786171                0.05330427               -0.17654598               -0.00000468                0.01706368               -0.00258866
               8.60393147                3.18120979               90.70884004                0.75034155               -0.04131753               -0.04654255                0.15450848               -0.00015232                0.01372714                0.00361739
               9.60351830                3.17907389               90.55592619                0.49979126               -0.03638289               -0.03649004                0.12129509               -0.00016565                0.04605757                0.00265277
              10.60320382                3.17693437               90.40357508                0.49897988               -0.02651490               -0.02647861                0.08821191               -0.00025713                0.08638238                0.00202848
              11.60298800                3.17479276               90.25140417                0.49868682               -0.01663708               -0.01649863                0.05511647               -0.00026898                0.10321790                0.00155628
              12.60287107                3.17264908               90.09934655                0.49852943               -0.00673772               -0.00653006                0.02200287               -0.00028896                0.11223558                0.00077095
              13.60285325                3.17050316               89.94733328                0.49849845                0.00318703                0.00344378               -0.01114857               -0.00031523                0.11320354               -0.00029011
              14.60293482                3.16835485               89.79529293                0.49858620                0.01314710                0.01343173               -0.04436129               -0.00033845                0.10599833               -0.00155864
              15.60311619                3.16620414               89.64315394                0.49881271                0.02314218                0.02344144               -0.07764302               -0.00034671                0.09069157               -0.00297451
              16.60339766                3.16405118               89.49084592                0.49918777                0.03315104                0.03348476               -0.11097242               -0.00031967                0.06748887               -0.00443698
              17.60377921                3.16189643               89.33830095                0.49975764                0.04313978                0.04356687               -0.14430056               -0.00021275                0.03669359               -0.00578923
              18.60426045                3.15974075               89.18545440                0.75012238                0.04812454                0.05366433               -0.17756897                0.00000671                0.01677101               -0.00689576
               8.60601565                4.18074506               90.70577876                0.75033308               -0.04115640               -0.04640442                0.15402651               -0.00015134                0.01390371                0.00923114
               9.60560409                4.17870962               90.55285547                0.49978346               -0.03621145               -0.03635666                0.12077163               -0.00019081                0.04657485                0.00629469
              10.60529142                4.17667027               90.40050227                0.49898088               -0.02632892               -0.02633459                0.08764624               -0.00032886                0.08728995                0.00440554
              11.60507751                4.17462862               90.24833022                0.49868547               -0.01644489               -0.01632854                0.05450775               -0.00037272                0.10412915                0.00281158
              12.60496253                4.17258477               90.09627104                0.49853056               -0.00654026               -0.00633363                0.02134936               -0.00040604                0.11301359                0.00131940
              13.60494670                4.17053871               89.94425437                0.49849894                0.00339297                0.00366375               -0.01185036               -0.00043142                0.11377578               -0.00024907
              14.60503038                4.16849042               89.79220871                0.49859340                0.01336285                0.01367716               -0.04511534               -0.00044138                0.10636751               -0.00198659
              15.60521396                4.16643999               89.64006262                0.49881444                0.02336821                0.02371764               -0.07845534               -0.00042365                0.09088535               -0.00395456
              16.60549775                4.16438764               89.48774611                0.49919996                0.03339119                0.03379094               -0.11184872               -0.00035822                0.06755845               -0.00618462
              17.60588179                4.16233382               89.33519182                0.49976801                0.04339912                0.04389174               -0.14524267               -0.00022035                0.03670406               -0.00867940
              18.60636573                4.16027919               89.18233578                0.75013201                0.04839460                0.05400143               -0.17857101                0.00001042                0.01676930               -0.01141253
               8.60799933                5.18028171               90.70272374                0.75033095               -0.04100538               -0.04625710                0.15354550               -0.00015136                0.01424692                0.01393597
               9.60758928                5.17834675               90.54978298                0.49978093               -0.03605469               -0.03621060                0.12025945               -0.00021080                0.04752473                0.00924736
              10.60727824                5.17640768               90.39742505                0.49898051               -0.02616190               -0.02617634                0.08709575               -0.00038321                0.08906241                0.00625055
              11.60706604                5.17446619               90.24525256                0.49868998               -0.01626862               -0.01615314                0.05391545               -0.00045644                0.10618658                0.00386550
              12.60695287                5.17252241               90.09319487                0.49853868               -0.00635353               -0.00613993                0.02071178               -0.00050746                0.11514263                0.00180778
              13.60693897                5.17057643               89.94117966                0.49851129                0.00359217                0.00387561               -0.01253689               -0.00053190                0.11580081               -0.00017610
              14.60702471                5.16862840               89.78913385                0.49860270                0.01357641                0.01390794               -0.04585461               -0.00052357                0.10815168               -0.00230218
              15.60721050                5.16667850               89.63698482                0.49883024                0.02359776                0.02396809               -0.07925028               -0.00047417                0.09232066               -0.00475744
              16.60749666                5.16472700               89.48466155                0.49921392                0.03363801                0.03405915               -0.11269952               -0.00037465                0.06856005               -0.00771265
              17.60788326                5.16277427               89.33209592                0.49979128                0.04366336                0.04417202               -0.14614537               -0.00021641                0.03721679               -0.01131380
              18.60836993                5.16082077               89.17922353                0.75014232                0.04866737                0.05428469               -0.17951404                0.00001808                0.01702681               -0.01565572
               8.60988253                6.17981992               90.69966584                0.75032469               -0.04086299               -0.04609144                0.15305567               -0.00014521                0.01478377                0.01748062
               9.60947390                6.17798541               90.54669994                0.49977710               -0.03591069               -0.03605185                0.11975278               -0.00021368                0.04905501                0.01109791
              10.60916432                6.17614674               90.39433741                0.49898973               -0.02601275               -0.02600278                0.08655742               -0.00041052                0.09195448                0.00730309
              11.60895365                6.17430556               90.24216764                0.49870781               -0.01610906               -0.01596949                0.05333854               -0.00051175                0.10961946                0.00443301
              12.60884214                6.17246198               90.09011677                0.49855780               -0.00617841               -0.00594760                0.02008990               -0.00057903                0.11880710                0.00208402
              13.60883008                6.17061622               89.93810948                0.49853071                0.00378561                0.00407758               -0.01320756               -0.00060112                0.11941939               -0.00009818
              14.60891785                6.16876858               89.78607008                0.49862602                0.01378990                0.01411968               -0.04657647               -0.00057427                0.11147370               -0.00241497
              15.60910588                6.16691935               89.63392349                0.49885256                0.02383174                0.02418797               -0.08002229               -0.00049536                0.09510740               -0.00515968
              16.60939448                6.16506882               89.48159630                0.49923153                0.03389014                0.03428554               -0.11351669               -0.00036620                0.07058245               -0.00864808
              17.60978368                6.16321726               89.32901812                0.49980410                0.04392965                0.04440210               -0.14699583               -0.00019631                0.03828187               -0.01320741
              18.61027308                6.16136488               89.17612286                0.75015549                0.04893976                0.05450738               -0.18038241                0.00003416                0.01757049               -0.01909716
               8.61166545                7.17935988               90.69659163                0.75032099               -0.04072677               -0.04592109                0.15255642               -0.00012571                0.01559019                0.01937247
               9.61125818                7.17762571               90.54359365                0.49977645               -0.03577875               -0.03587880                0.11925206               -0.00018698                0.05137321                0.01139434
              10.61094988                7.17588762               90.39123003                0.49900614               -0.02588070               -0.02581270                0.08603055               -0.00040131                0.09631646                0.00723884
              11.61074057                7.17414680               90.23906977                0.49872902               -0.01596276               -0.01578091                0.05277518               -0.00052910                0.11476849                0.00433158
              12.61063062                7.17240346               90.08703421                0.49859298               -0.00601148               -0.00575920                0.01948242               -0.00060227                0.12430306                0.00205021
              13.61062034                7.17065798               89.93504400                0.49856709                0.00397367                0.00427125               -0.01386423               -0.00061852                0.12489494               -0.00002923
              14.61071009                7.16891079               89.78302008                0.49866091                0.01400037                0.01431743               -0.04728292               -0.00057875                0.11659531               -0.00224163
              15.61090035                7.16716225               89.63088399                0.49887900                0.02406679                0.02438422               -0.08077532               -0.00048109                0.09951368               -0.00493906
              16.61119143                7.16541271               89.47855840                0.49925704                0.03414639                0.03447622               -0.11430636               -0.00032944                0.07386521               -0.00858122
              17.61158328                7.16366231               89.32596856                0.49982411                0.04419726                0.04459047               -0.14780368               -0.00015451                0.04004686               -0.01377621
              18.61207538                7.16191092               89.17304474                0.75016087                0.04921000                0.05468750               -0.18118500                0.00006459                0.01848476               -0.02108453
               8.61334834                8.17890150               90.69348171                0.75031304               -0.04059220               -0.04578451                0.15205290               -0.00008548                0.01681633                0.01891380
               9.61294242                8.17726783               90.54044610                0.49978006               -0.03565687               -0.03567743                0.11875928               -0.00013553                0.05483214                0.00943074
              10.61263520                8.17563049               90.38809033                0.49903337               -0.02575957               -0.02561465                0.08551421               -0.00036500                0.10270228                0.00582677
              11.61242723                8.17398994               90.23595173                0.49877461               -0.01581464               -0.01560333                0.05222204               -0.00048838                0.12211611                0.00348661
              12.61231891                8.17234679               90.08394398                0.49864168               -0.00584263               -0.00557762                0.01888546               -0.00054493                0.13201024                0.00166654
              13.61231038                8.17070165               89.93198333                0.49862100                0.00415456                0.00446173               -0.01451083               -0.00055031                0.13257547                0.00002155
              14.61240200                8.16905493               89.77998735                0.49870588                0.01419808                0.01451421               -0.04798072               -0.00051096                0.12390148               -0.00173960
              15.61259434                8.16740704               89.62787390                0.49892187                0.02429194                0.02457800               -0.08152069               -0.00041879                0.10600305               -0.00394533
              16.61288784                8.16575835               89.47556038                0.49929037                0.03440192                0.03465099               -0.11508690               -0.00026894                0.07888768               -0.00709852
              17.61328238                8.16410907               89.32296420                0.49984979                0.04446506                0.04475268               -0.14859502               -0.00009218                0.04283535               -0.01215630
              18.61377714                8.16245863               89.17000799                0.75016944                0.04947671                0.05487179               -0.18195149                0.00011468                0.01996533               -0.02060291
               8.61493107                9.17844419               90.69030845                0.75030514               -0.04045897               -0.04573970                0.15155207               -0.00007056                0.01856384                0.01389865
               9.61452649                9.17691217               90.53723043                0.49979122               -0.03553035               -0.03543389                0.11827304               -0.00011023                0.06014188                0.00484488
              10.61422047                9.17537533               90.38490436                0.49908088               -0.02559939               -0.02547109                0.08500094               -0.00026722                0.11211924                0.00326323
              11.61401450                9.17383474               90.23280630                0.49883554               -0.01562260               -0.01544471                0.05167201               -0.00033612                0.13221573                0.00196313
              12.61390802                9.17229190               90.08084277                0.49871403               -0.00566513               -0.00540108                0.01829114               -0.00035109                0.14231321                0.00095018
              13.61390119                9.17074722               89.92892748                0.49869874                0.00432356                0.00465760               -0.01515343               -0.00035007                0.14283110                0.00003433
              14.61399449                9.16920107               89.77697549                0.49878411                0.01436794                0.01472590               -0.04867602               -0.00032645                0.13383682               -0.00095090
              15.61418855                9.16765382               89.62490170                0.49898546                0.02447651                0.02479673               -0.08226925               -0.00027517                0.11523682               -0.00220737
              16.61448402                9.16610573               89.47261872                0.49933412                0.03462986                0.03486182               -0.11588153               -0.00017519                0.08662908               -0.00407753
              17.61488115                9.16455736               89.32003275                0.49987154                0.04472659                0.04491393               -0.14941132               -0.00003821                0.04742843               -0.00734029
              18.61537855                9.16300836               89.16704436                0.75017874                0.04973983                0.05513836               -0.18273508                0.00014998                0.02243541               -0.01492728
               8.61641097               10.17798670               90.68700828                0.87515192               -0.04018961               -0.04574821                0.15104961                0.00523457                0.02472537                0.01204579
               9.61600907               10.17655915               90.53392153                0.74990438               -0.03518404               -0.03530122                0.11777370                0.00497697                0.07008648                0.00362370
              10.61570729               10.17512106               90.38166353                0.74956315               -0.02525734               -0.02542620                0.08447083                0.00477682                0.12554995                0.00298671
              11.61550393               10.17368105               90.22962760                0.74944681               -0.01539408               -0.01536899                0.05110793                0.00482830                0.14538561                0.00177943
              12.61539941               10.17223877               90.07772771                0.74938971               -0.00548617               -0.00531349                0.01768817                0.00482688                0.15552660                0.00075721
              13.61539420               10.17079480               89.92587618                0.74938165                0.00447339                0.00475816               -0.01579856                0.00483489                0.15596999               -0.00021713
              14.61548888               10.16934945               89.77398714                0.74942288                0.01449877                0.01483742               -0.04937119                0.00484745                0.14679520               -0.00122622
              15.61568418               10.16790297               89.62197434                0.74952162                0.02459570                0.02491551               -0.08302438                0.00486946                0.12785696               -0.00238250
              16.61598079               10.16645559               89.46974836                0.74968766                0.03474006                0.03498571               -0.11670284                0.00489618                0.09861690               -0.00389578
              17.61637898               10.16500735               89.31721129                0.74995018                0.04486804                0.04499859               -0.15029506                0.00507362                0.05678493               -0.00619059
              18.61687815               10.16356140               89.16422738                0.87509362                0.04991699                0.05530389               -0.18362595                0.00536504                0.02958070               -0.01296128
               8.75031760                0.18558147               91.71948533                0.87517044               -0.03753226               -0.04232291                0.14027664               -0.00481382                0.02069914               -0.00495645
               9.74994228                0.18316475               91.56630006                0.74998464               -0.03310401               -0.03303345                0.11059138               -0.00454065                0.04905141               -0.00469993
              10.74965552                0.18075143               91.41359632                0.74964532               -0.02428390               -0.02418910                0.08095142               -0.00441955                0.08797542               -0.00169727
              11.74945660                0.17833647               91.26112412                0.74948973               -0.01550561               -0.01526023                0.05133235               -0.00445455                0.10852099               -0.00089409
              12.74934541                0.17591969               91.10878612                0.74941521               -0.00672700               -0.00633590                0.02172605               -0.00446474                0.11914192               -0.00033105
              13.74932206                0.17350051               90.95650219                0.74939375                0.00208269                0.00259751               -0.00791171               -0.00447654                0.12081610                0.00011217
              14.74938706                0.17107853               90.80419524                0.74944090                0.01096562                0.01153913               -0.03764506               -0.00448481                0.11378359                0.00049747
              15.74954137                0.16865350               90.65178992                0.74955170                0.01994697                0.02048676               -0.06751375               -0.00448900                0.09822661                0.00085909
              16.74978600                0.16622541               90.49921189                0.74975082                0.02900801                0.02944343               -0.09748886               -0.00447300                0.07425472                0.00125114
              17.75012153                0.16379469               90.34638660                0.75007259                0.03805539                0.03834978               -0.12746160               -0.00457204                0.04143258                0.00173288
              18.75054711                0.16135881               90.19322996                0.87517873                0.04255766                0.04761426               -0.15723526               -0.00459886                0.02004480                0.00350431
               8.75268618                1.18515824               91.71646617                0.75022317               -0.03742900               -0.04219468                0.13969078               -0.00012693                0.01658438               -0.00313390
               9.75231189                1.18283441               91.56325882                0.49973020               -0.03303576               -0.03299718                0.10998501               -0.00004378                0.04631026               -0.00403790
              10.75202547                1.18050954               91.41056070                0.49907207               -0.02419831               -0.02409262                0.08035032               -0.00001909                0.08547116               -0.00069166
              11.75182793                1.17818386               91.25807163                0.49881108               -0.01533647               -0.01517119                0.05071685               -0.00000324                0.10471898                0.00005304
              12.75171874                1.17585633               91.10571399                0.49867813               -0.00650261               -0.00624265                0.02107837               -0.00001856                0.11511452                0.00010470
              13.75169787                1.17352649               90.95340912                0.49864738                0.00234920                0.00269563               -0.00859609               -0.00004027                0.11671439               -0.00013858
              14.75176572                1.17119392               90.80108094                0.49872359                0.01125852                0.01164440               -0.03835152               -0.00006712                0.10971679               -0.00053028
              15.75192304                1.16885837               90.64865471                0.49891317                0.02024781                0.02060299               -0.06821057               -0.00009097                0.09426902               -0.00097865
              16.75217068                1.16651984               90.49605669                0.49925050                0.02930361                0.02957099               -0.09813994               -0.00012209                0.07044139               -0.00136047
              17.75250912                1.16417819               90.34321262                0.49978633                0.03831656                0.03854976               -0.12803750               -0.00011130                0.03830320               -0.00140536
              18.75293701                1.16183495               90.19004957                0.75013159                0.04278928                0.04773502               -0.15779242                0.00003876                0.01750694               -0.00016236
               8.75496271                2.18473757               91.71338714                0.75010042               -0.03726068               -0.04201502                0.13926602               -0.00014297                0.01338593               -0.00143981
               9.75459010                2.18250480               91.56015611                0.49949322               -0.03285108               -0.03293389                0.10949130               -0.00010754                0.04590865               -0.00219029
              10.75430569                2.18026957               91.40749065                0.49886086               -0.02401797               -0.02394735                0.07982121               -0.00010375                0.08634975               -0.00011674
              11.75410975                2.17803304               91.25500383                0.49864387               -0.01516390               -0.01500543                0.05014007               -0.00008009                0.10347063                0.00055695
              12.75400241                2.17579483               91.10263652                0.49853015               -0.00630419               -0.00605916                0.02045451               -0.00008921                0.11301931                0.00035651
              13.75398366                2.17355443               90.95031712                0.49850532                0.00257146                0.00289733               -0.00926778               -0.00012565                0.11426188               -0.00027076
              14.75405384                2.17131142               90.79797221                0.49856427                0.01149855                0.01186937               -0.03907333               -0.00017750                0.10713117               -0.00114070
              15.75421363                2.16906556               90.64552883                0.49872606                0.02049499                0.02086124               -0.06898805               -0.00023202                0.09174112               -0.00212852
              16.75446374                2.16681683               90.49291523                0.49900211                0.02952863                0.02987839               -0.09898446               -0.00026433                0.06829847               -0.00305996
              17.75480420                2.16456569               90.34006172                0.49943727                0.03853147                0.03895735               -0.12897670               -0.00021981                0.03713991               -0.00357308
              18.75523437                2.16231351               90.18690265                0.74991328                0.04301655                0.04807498               -0.15886691               -0.00002662                0.01701576               -0.00317871
               8.75714886                3.18431794               91.71030718                0.75009800               -0.03711212               -0.04193258                0.13890101               -0.00013313                0.01376165                0.00387078
               9.75677774                3.18217573               91.55707798                0.49948666               -0.03268531               -0.03286897                0.10905542               -0.00013917                0.04618288                0.00280574
              10.75649515                3.18003059               91.40441283                0.49885754               -0.02383371               -0.02384945                0.07932525               -0.00020094                0.08659861                0.00212325
              11.75630107                3.17788375               91.25192776                0.49863352               -0.01497932               -0.01485990                0.04958956               -0.00019721                0.10345904                0.00161209
              12.75619557                3.17573514               91.09955583                0.49851927               -0.00611447               -0.00588178                0.01985114               -0.00021147                0.11247894                0.00079973
              13.75617878                3.17358444               90.94722783                0.49849747                0.00277345                0.00310416               -0.00992571               -0.00024795                0.11339564               -0.00028872
              14.75625104                3.17143131               90.79487202                0.49856207                0.01171085                0.01211060               -0.03979136               -0.00029781                0.10608529               -0.00160066
              15.75641299                3.16927559               90.64241670                0.49872260                0.02071146                0.02114855               -0.06977942               -0.00034052                0.09065856               -0.00309071
              16.75666527                3.16711741               90.48979171                0.49900702                0.02975260                0.03022954               -0.09986548               -0.00034088                0.06738145               -0.00466617
              17.75700804                3.16495734               90.33692974                0.49945041                0.03877871                0.03935665               -0.12996705               -0.00023992                0.03660276               -0.00616578
              18.75744084                3.16279645               90.18376695                0.74992057                0.04327956                0.04850342               -0.15997036               -0.00001458                0.01672062               -0.00743085
               8.75924445                4.18389892               91.70724170                0.75009114               -0.03697831               -0.04186174                0.13855414               -0.00013356                0.01394093                0.00944847
               9.75887467                4.18184742               91.55400255                0.49948318               -0.03254000               -0.03278224                0.10864297               -0.00017378                0.04670319                0.00643048
              10.75859365                4.17979259               91.40133483                0.49885327               -0.02367115               -0.02374185                0.07885408               -0.00029072                0.08751146                0.00449556
              11.75840125                4.17773584               91.24884813                0.49863149               -0.01480754               -0.01471968                0.04906253               -0.00032400                0.10437823                0.00286997
              12.75829750                4.17567720               91.09647414                0.49852058               -0.00593544               -0.00570927                0.01926923               -0.00035513                0.11326540                0.00135378
              13.75828254                4.17361651               90.94414222                0.49849734                0.00296131                0.00330659               -0.01056511               -0.00039052                0.11397300               -0.00024050
              14.75835673                4.17155363               90.79178052                0.49855974                0.01190913                0.01234626               -0.04049515               -0.00042213                0.10645281               -0.00201658
              15.75852072                4.16948853               90.63931743                0.49872735                0.02092269                0.02142465               -0.07055859               -0.00043031                0.09084167               -0.00404633
              16.75877518                4.16742142               90.48668321                0.49901633                0.02998261                0.03054847               -0.10073333               -0.00038409                0.06743361               -0.00636428
              17.75912037                4.16535282               90.33381113                0.49946825                0.03903388                0.03970999               -0.13093121               -0.00024672                0.03659806               -0.00896736
              18.75955586                4.16328357               90.18063811                0.74993272                0.04354866                0.04888499               -0.16102622               -0.00000953                0.01671151               -0.01181431
               8.76124918                5.18348070               91.70418245                0.75008893               -0.03685833               -0.04175980                0.13819341               -0.00013579                0.01428428                0.01408412
               9.76088060                5.18152009               91.55092546                0.49947795               -0.03241307               -0.03267140                0.10823600               -0.00020821                0.04764963                0.00934875
              10.76060092                5.17955575               91.39825257                0.49885626               -0.02353133               -0.02361369                0.07839796               -0.00037388                0.08927687                0.00632635
              11.76040997                5.17758936               91.24576497                0.49864018               -0.01465610               -0.01457082                0.04855582               -0.00044303                0.10642627                0.00392168
              12.76030780                5.17562096               91.09339197                0.49852852               -0.00577198               -0.00553874                0.01870827               -0.00049523                0.11538171                0.00184593
              13.76029453                5.17365057               90.94106097                0.49850481                0.00313865                0.00349894               -0.01118316               -0.00052801                0.11598186               -0.00015877
              14.76037057                5.17167824               90.78869856                0.49857259                0.01210320                0.01256183               -0.04117643               -0.00053340                0.10821575               -0.00231428
              15.76053660                5.16970409               90.63623190                0.49873890                0.02113628                0.02166530               -0.07130923               -0.00049833                0.09225153               -0.00481081
              16.76079330                5.16772838               90.48359029                0.49903151                0.03021804                0.03081355               -0.10155739               -0.00040664                0.06841050               -0.00781897
              17.76114096                5.16575154               90.33070628                0.49948463                0.03929225                0.03999463               -0.13182639               -0.00024167                0.03709429               -0.01147946
              18.76157914                5.16377415               90.17751642                0.74994071                0.04381848                0.04918075               -0.16198245                0.00000006                0.01696140               -0.01587822
               8.76316296                6.18306372               91.70112016                0.75008717               -0.03675049               -0.04161472                0.13780567               -0.00013226                0.01481770                0.01755216
               9.76279545                6.18119400               91.54783784                0.49947663               -0.03230278               -0.03253484                0.10782798               -0.00022727                0.04916765                0.01116397
              10.76251690                6.17932031               91.39516001                0.49886373               -0.02341379               -0.02346328                0.07795431               -0.00043329                0.09214388                0.00736410
              11.76232718                6.17744443               91.24267472                0.49865513               -0.01452572               -0.01441025                0.04806693               -0.00053720                0.10982581                0.00448567
              12.76222639                6.17556642               91.09030806                0.49854845               -0.00562387               -0.00536910                0.01816845               -0.00060843                0.11900708                0.00212479
              13.76221470                6.17368649               90.93798445                0.49852648                0.00330754                0.00367899               -0.01177941               -0.00063633                0.11955712               -0.00007344
              14.76229254                6.17180487               90.78562789                0.49859069                0.01229527                0.01275255               -0.04183261               -0.00061487                0.11149280               -0.00241008
              15.76246061                6.16992184               90.63316313                0.49875886                0.02135294                0.02186484               -0.07202522               -0.00053843                0.09499517               -0.00517476
              16.76271960                6.16803769               90.48051710                0.49904369                0.03045834                0.03101965               -0.10232878               -0.00040540                0.07039732               -0.00868109
              17.76306977                6.16615271               90.32762015                0.49950068                0.03955202                0.04020389               -0.13264153               -0.00022111                0.03813966               -0.01324954
              18.76351064                6.16426719               90.17440721                0.74994889                0.04408660                0.04938182               -0.16282227                0.00001816                0.01749623               -0.01913578
               8.76498599                7.18264841               91.69804142                0.75008123               -0.03665275               -0.04144437                0.13739661               -0.00011477                0.01561769                0.01938322
               9.76461947                7.18086939               91.54472704                0.49948029               -0.03220850               -0.03237548                0.10742462               -0.00021507                0.05146289                0.01143645
              10.76434182                7.17908649               91.39204785                0.49888190               -0.02331750               -0.02329241                0.07752490               -0.00045059                0.09645990                0.00729042
              11.76415312                7.17730116               91.23957168                0.49868168               -0.01441280               -0.01424309                0.04759714               -0.00058576                0.11491658                0.00438211
              12.76405357                7.17551358               91.08721986                0.49858031               -0.00548773               -0.00520343                0.01764836               -0.00066551                0.12443684                0.00209198
              13.76404336                7.17372415               90.93491280                0.49856323                0.00346781                0.00384864               -0.01235551               -0.00068528                0.12496150               -0.00000117
              14.76412292                7.17193329               90.78257117                0.49862359                0.01248207                0.01292482               -0.04246718               -0.00064401                0.11654328               -0.00222648
              15.76429300                7.17014138               90.63011642                0.49878762                0.02156955                0.02203268               -0.07271307               -0.00053906                0.09933628               -0.00492935
              16.76455432                7.16834877               90.47747158                0.49907006                0.03070174                0.03117691               -0.10305821               -0.00037451                0.07362938               -0.00856111
              17.76490704                7.16655561               90.32456278                0.49951281                0.03981187                0.04035061               -0.13339008               -0.00017968                0.03987722               -0.01372145
              18.76535055                7.16476178               90.17132135                0.74995821                0.04435144                0.04950960               -0.16356071                0.00004973                0.01839565               -0.02096804
               8.76671869                8.18223484               91.69492696                0.75007442               -0.03656177               -0.04129745                0.13698593               -0.00007481                0.01683294                0.01889432
               9.76635307                8.18054649               91.54157510                0.49948452               -0.03212809               -0.03219004                0.10703887               -0.00016974                0.05488697                0.00946530
              10.76607613                8.17885446               91.38890351                0.49891086               -0.02323505               -0.02311521                0.07711507               -0.00042379                0.10278023                0.00587383
              11.76588837                8.17715957               91.23644861                0.49872318               -0.01430212               -0.01408784                0.04714632               -0.00055733                0.12218486                0.00353396
              12.76579009                8.17546235               91.08412412                0.49863354               -0.00535430               -0.00504555                0.01714563               -0.00062207                0.13205498                0.00170481
              13.76578129                8.17376346               90.93184608                0.49861441                0.00361683                0.00401417               -0.01291628               -0.00062987                0.13254663                0.00004680
              14.76586242                8.17206336               90.77953184                0.49867752                0.01265249                0.01309454               -0.04308749               -0.00058534                0.12375145               -0.00172438
              15.76603434                8.17036249               90.62709920                0.49882759                0.02177275                0.02219567               -0.07338889               -0.00048148                0.10573340               -0.00392942
              16.76629788                8.16866123               90.47446606                0.49909966                0.03094173                0.03131433               -0.10377305               -0.00031517                0.07857872               -0.00705964
              17.76665317                8.16695973               90.32155083                0.49953443                0.04007087                0.04046256               -0.13411095               -0.00011719                0.04262525               -0.01206031
              18.76709930                8.16525738               90.16827733                0.74996382                0.04461249                0.04962101               -0.16424169                0.00010147                0.01985530               -0.02039852
               8.76836120                9.18182246               91.69174927                0.75007355               -0.03647539               -0.04124668                0.13659684               -0.00005363                0.01856543                0.01387800
               9.76799645                9.18022559               91.53835520                0.49950210               -0.03204650               -0.03197749                0.10668327               -0.00013373                0.06014987                0.00487479
              10.76772027                9.17862418               91.38571301                0.49895620               -0.02311836               -0.02299674                0.07672515               -0.00030955                0.11211557                0.00329754
              11.76753408                9.17701940               91.23329823                0.49878811               -0.01415198               -0.01395588                0.04670866               -0.00038739                0.13219214                0.00199667
              12.76743723                9.17541267               91.08101745                0.49870147               -0.00521616               -0.00489464                0.01665323               -0.00040939                0.14225751                0.00097514
              13.76742976                9.17380443               90.92878425                0.49868975                0.00374784                0.00418581               -0.01346789               -0.00041008                0.14269307                0.00004939
              14.76751219                9.17219518               90.77651341                0.49875054                0.01278761                0.01328234               -0.04370249               -0.00038259                0.13356727               -0.00094369
              15.76768551                9.17058530               90.62411982                0.49888759                0.02192962                0.02238938               -0.07407003               -0.00032235                0.11484250               -0.00219949
              16.76795078                9.16897506               90.47151670                0.49914312                0.03115180                0.03149577               -0.10451283               -0.00021057                0.08620623               -0.00405320
              17.76830854                9.16736487               90.31861145                0.49955638                0.04032451                0.04058709               -0.13487595               -0.00005874                0.04714710               -0.00727314
              18.76875727                9.16575420               90.16530617                0.74996842                0.04487261                0.04981778               -0.16495184                0.00014295                0.02228583               -0.01474953
               8.76991135               10.18140990               91.68844480                0.87503689               -0.03626748               -0.04125542                0.13625277                0.00471825                0.02470190                0.01203069
               9.76954867               10.17990694               91.53504205                0.74976090               -0.03176088               -0.03186558                0.10634753                0.00445410                0.07003604                0.00364121
              10.76927613               10.17839453               91.38246753                0.74950366               -0.02282669               -0.02296536                0.07633475                0.00426172                0.12545976                0.00300189
              11.76909214               10.17688045               91.23011447                0.74942275               -0.01396325               -0.01389515                0.04626559                0.00430287                0.14527264                0.00179432
              12.76899687               10.17536446               91.07789688                0.74938453               -0.00507833               -0.00482041                0.01615707                0.00430017                0.15537803                0.00076478
              13.76899057               10.17384718               90.92572695                0.74937779                0.00385193                0.00427467               -0.01401726                0.00430930                0.15572721               -0.00021608
              14.76907390               10.17232901               90.77351848                0.74940615                0.01287153                0.01338342               -0.04431609                0.00432694                0.14639655               -0.00122967
              15.76924800               10.17081028               90.62118518                0.74947278                0.02200967                0.02249825               -0.07476487                0.00435643                0.12730577               -0.00238254
              16.76951410               10.16929115               90.46863826                0.74959129                0.03124245                0.03160843               -0.10530414                0.00439127                0.09801945               -0.00387986
              17.76987285               10.16777147               90.31578115                0.74979178                0.04046899                0.04066011               -0.13576294                0.00456056                0.05635850               -0.00614169
              18.77032348               10.16625374               90.16248026                0.87498922                0.04506249                0.04995330               -0.16584997                0.00484788                0.02932268               -0.01281351
               8.90385842                0.18855435               92.72080815                0.87503473               -0.03324072               -0.03749357                0.12423370               -0.00425045                0.02067631               -0.00485156
               9.90352601                0.18616214               92.56734328                0.74979765               -0.02931052               -0.02929518                0.09802569               -0.00399925                0.04907290               -0.00466662
              10.90327221                0.18377315               92.41436008                0.74955770               -0.02149052               -0.02146227                0.07176014               -0.00388813                0.08808874               -0.00168749
              11.90309620                0.18138313               92.26160868                0.74945663               -0.01374403               -0.01354939                0.04553710               -0.00391294                0.10876030               -0.00089293
              12.90299732                0.17899177               92.10899174                0.74940480               -0.00605043               -0.00563631                0.01938331               -0.00392058                0.11946343               -0.00032609
              13.90297519                0.17659814               91.95642863                0.74939230                0.00164679                0.00228857               -0.00677346               -0.00393633                0.12108536                0.00012484
              14.90303026                0.17420133               91.80384137                0.74941711                0.00944272                0.01022717               -0.03306298               -0.00395627                0.11384684                0.00051118
              15.90316404                0.17180068               91.65115404                0.74948839                0.01740948                0.01817825               -0.05958215               -0.00397533                0.09801066                0.00085643
              16.90337845                0.16939612               91.49829257                0.74962979                0.02553604                0.02614206               -0.08631266               -0.00397108                0.07383636                0.00120647
              17.90367476                0.16698840               91.34518379                0.74986397                0.03367891                0.03405760               -0.11307867               -0.00405793                0.04105527                0.00162504
              18.90405203                0.16457596               91.19174614                0.87504031                0.03772634                0.04227558               -0.13952474               -0.00408556                0.01976676                0.00324144
               8.90620812                1.18817942               92.71778347                0.74997442               -0.03315025               -0.03741217                0.12371835               -0.00011051                0.01660060               -0.00290562
               9.90587662                1.18586919               92.56429629                0.49940615               -0.02926446               -0.02928464                0.09748538               -0.00001362                0.04638052               -0.00393528
              10.90562283                1.18355853               92.41131880                0.49892289               -0.02144308               -0.02138889                0.07123708                0.00004734                0.08561240               -0.00064367
              11.90544776                1.18124763               92.25855036                0.49874629               -0.01361115               -0.01347616                0.04499671                0.00009173                0.10493157                0.00007005
              12.90535061                1.17893541               92.10591339                0.49866214               -0.00583551               -0.00555507                0.01878754                0.00009335                0.11537333                0.00011508
              13.90533105                1.17662103               91.95332885                0.49865061                0.00194092                0.00237812               -0.00743950                0.00006635                0.11692981               -0.00012753
              14.90538943                1.17430360               91.80072005                0.49868591                0.00979226                0.01032811               -0.03377962                0.00001157                0.10978736               -0.00053351
              15.90552689                1.17198246               91.64801189                0.49880992                0.01777255                0.01829628               -0.06029855               -0.00005389                0.09415587               -0.00103222
              16.90574488                1.16965754               91.49513097                0.49904693                0.02586860                0.02628043               -0.08696494               -0.00012144                0.07022223               -0.00151513
              17.90604426                1.16732898               91.34200433                0.49943921                0.03393669                0.03427484               -0.11361319               -0.00013010                0.03814570               -0.00171718
              18.90642361                1.16499872               91.18856051                0.74990646                0.03793481                0.04244903               -0.14002949                0.00000664                0.01742774               -0.00071807
               8.90847666                2.18780611               92.71470090                0.74987927               -0.03300290               -0.03733849                0.12346241               -0.00011746                0.01340436               -0.00108361
               9.90814663                2.18557645               92.56118919                0.49921590               -0.02909736               -0.02928193                0.09711569               -0.00005313                0.04599764               -0.00200553
              10.90789471                2.18334537               92.40824389                0.49874222               -0.02127392               -0.02129318                0.07079911                0.00001651                0.08652941               -0.00002175
              11.90772115                2.18111360               92.25547715                0.49859634               -0.01344589               -0.01334614                0.04449124                0.00008634                0.10372300                0.00059981
              12.90762579                2.17888067               92.10282997                0.49852290               -0.00564135               -0.00539751                0.01822092                0.00010369                0.11332187                0.00038222
              13.90760832                2.17664571               91.95023036                0.49850637                0.00216311                0.00256294               -0.00806730                0.00005684                0.11452342               -0.00025345
              14.90766906                2.17440789               91.79760426                0.49854261                0.01003485                0.01054691               -0.03447312               -0.00004337                0.10724971               -0.00115544
              15.90780902                2.17216661               91.64487830                0.49864648                0.01802257                0.01856322               -0.06106965               -0.00016869                0.09167342               -0.00223304
              16.90802951                2.16992173               91.49198102                0.49884260                0.02609825                0.02661700               -0.08783540               -0.00026720                0.06810814               -0.00333080
              17.90833099                2.16767390               91.33884379                0.49917000                0.03415874                0.03473643               -0.11463229               -0.00025183                0.03697833               -0.00409407
              18.90871268                2.16542494               91.18540227                0.74973208                0.03816957                0.04289776               -0.14126469               -0.00005450                0.01692277               -0.00400275
               8.91066509                3.18743265               92.71161806                0.74987894               -0.03287948               -0.03736750                0.12327441               -0.00010462                0.01378860                0.00422097
               9.91033630                3.18528355               92.55810730                0.49920983               -0.02895409               -0.02928473                0.09681002               -0.00007969                0.04628778                0.00299191
              10.91008601                3.18313266               92.40516159                0.49873997               -0.02110555               -0.02124613                0.07040197               -0.00007399                0.08681093                0.00222301
              11.90991419                3.18098071               92.25239596                0.49858385               -0.01327155               -0.01323941                0.04401865               -0.00002988                0.10375778                0.00166506
              12.90982058                3.17882746               92.09974357                0.49851421               -0.00546116               -0.00524794                0.01768310               -0.00002349                0.11283565                0.00083443
              13.90980496                3.17667229               91.94713477                0.49849092                0.00235395                0.00275271               -0.00867013               -0.00007291                0.11371159               -0.00026663
              14.90986766                3.17451454               91.79449710                0.49853618                0.01023567                0.01078341               -0.03515000               -0.00016935                0.10624713               -0.00161394
              15.91000968                3.17235373               91.64175835                0.49864055                0.01822924                0.01886235               -0.06184401               -0.00027858                0.09061365               -0.00319158
              16.91023224                3.17018988               91.48884861                0.49884574                0.02631691                0.02700218               -0.08873967               -0.00034067                0.06719039               -0.00492196
              17.91053602                3.16802371               91.33570161                0.49918152                0.03440964                0.03520149               -0.11570172               -0.00026756                0.03642796               -0.00663915
              18.91092044                3.16585667               91.18225500                0.74974232                0.03844212                0.04342476               -0.14250940               -0.00003702                0.01662279               -0.00814732
               8.91277276                4.18705876               92.70854984                0.74987566               -0.03277338               -0.03738595                0.12308699               -0.00010529                0.01397317                0.00971471
               9.91244502                4.18499076               92.55502833                0.49920872               -0.02883408               -0.02925540                0.09652019               -0.00012305                0.04681937                0.00657141
              10.91219608                4.18292045               92.40207935                0.49873940               -0.02096322               -0.02118208                0.07002991               -0.00018442                0.08774717                0.00457791
              11.91202576                4.18084881               92.24931147                0.49858645               -0.01311656               -0.01313381                0.04357454               -0.00018827                0.10471013                0.00292153
              12.91193375                4.17877571               92.09665643                0.49851082               -0.00529865               -0.00510221                0.01717366               -0.00020709                0.11366089                0.00139223
              13.91191979                4.17670076               91.94404307                0.49849134                0.00252417                0.00293661               -0.00924566               -0.00025501                0.11432497               -0.00021247
              14.91198423                4.17462356               91.79139880                0.49853409                0.01041587                0.01101036               -0.03580220               -0.00032358                0.10663861               -0.00201854
              15.91212810                4.17254385               91.63865145                0.49864490                0.01842442                0.01914252               -0.06259291               -0.00038310                0.09080165               -0.00411499
              16.91235272                4.17046177               91.48573145                0.49885587                0.02653701                0.02734245               -0.08961031               -0.00038383                0.06723015               -0.00654719
              17.91265884                4.16837793               91.33257320                0.49919196                0.03466467                0.03559762               -0.11671301               -0.00026686                0.03640869               -0.00930419
              18.91304601                4.16629344               91.17911525                0.74975282                0.03871660                0.04387164               -0.14366054               -0.00002642                0.01660884               -0.01232212
               8.91479900                5.18668493               92.70548761                0.74987346               -0.03268457               -0.03733856                0.12285650               -0.00011006                0.01431854                0.01422214
               9.91447215                5.18469845               92.55194770                0.49921002               -0.02873662               -0.02918265                0.09622263               -0.00017661                0.04776783                0.00942359
              10.91422426                5.18270902               92.39899301                0.49874163               -0.02084954               -0.02108562                0.06966976               -0.00030904                0.08951547                0.00637936
              11.91405516                5.18071803               92.24622367                0.49859468               -0.01298861               -0.01301276                0.04315336               -0.00036263                0.10676204                0.00396437
              12.91396449                5.17872541               92.09356903                0.49851670               -0.00515722               -0.00495621                0.01669063               -0.00041047                0.11578178                0.00188484
              13.91395202                5.17673102               91.94095599                0.49850105                0.00268004                0.00310823               -0.00979277               -0.00045320                0.11633495               -0.00012560
              14.91401809                5.17473474               91.78831032                0.49854312                0.01058910                0.01121046               -0.03642302               -0.00048202                0.10839415               -0.00229952
              15.91416380                5.17273658               91.63555863                0.49865875                0.01862001                0.01937415               -0.06329798               -0.00047731                0.09219422               -0.00483411
              16.91439049                5.17073673               91.48263041                0.49886425                0.02676080                0.02760695               -0.09041144               -0.00041153                0.06818431               -0.00790311
              17.91469901                5.16873566               91.32945940                0.49920948                0.03491989                0.03589214               -0.11761393               -0.00025582                0.03688820               -0.01164163
              18.91508889                5.16673411               91.17598388                0.74976013                0.03898772                0.04418984               -0.14465183               -0.00001199                0.01685097               -0.01612494
               8.91674353                6.18631199               92.70242195                0.74987325               -0.03261235               -0.03720961                0.12256777               -0.00011034                0.01484933                0.01755822
               9.91641740                6.18440710               92.54885650                0.49921032               -0.02866089               -0.02906330                0.09591145               -0.00021992                0.04927456                0.01117565
              10.91617031                6.18249874               92.39589649                0.49875528               -0.02076434               -0.02095474                0.06931927               -0.00041869                0.09235711                0.00738987
              11.91600212                6.18058856               92.24312898                0.49860631               -0.01288799               -0.01287352                0.04275291               -0.00052069                0.11012855                0.00452027
              12.91591255                6.17867658               92.09048013                0.49853863               -0.00503620               -0.00480899                0.01623393               -0.00059458                0.11936892                0.00216313
              13.91590139                6.17676293               91.93787389                0.49852289                0.00282403                0.00326548               -0.01031216               -0.00062916                0.11986718               -0.00003707
              14.91596903                6.17484777               91.78523343                0.49856522                0.01075893                0.01137834               -0.03700998               -0.00061702                0.11162508               -0.00238100
              15.91611657                6.17293134               91.63248298                0.49867348                0.01881891                0.01955086               -0.06395484               -0.00054914                0.09489260               -0.00515548
              16.91634541                6.17101391               91.47954973                0.49888097                0.02698915                0.02778956               -0.09113496               -0.00042010                0.07013363               -0.00866991
              17.91665635                6.16909577               91.32636529                0.49922343                0.03517355                0.03607704               -0.11839204               -0.00023207                0.03791189               -0.01323967
              18.91704888                6.16717723               91.17286641                0.74976663                0.03925249                0.04436710               -0.14546423                0.00000949                0.01737488               -0.01911749
               8.91860656                7.18594074               92.69933956                0.74987062               -0.03255555               -0.03702279                0.12223551               -0.00009626                0.01564025                0.01929011
               9.91828101                7.18411718               92.54574215                0.49921673               -0.02860644               -0.02890631                0.09559925               -0.00023049                0.05154150                0.01141001
              10.91803444                7.18228993               92.39278053                0.49877174               -0.02070554               -0.02079627                0.06898537               -0.00048112                0.09661692                0.00730283
              11.91786690                7.18046056               92.24002171                0.49863742               -0.01280998               -0.01272427                0.04237715               -0.00062467                0.11514776                0.00441491
              12.91777824                7.17862923               92.08738718                0.49857062               -0.00493227               -0.00466466                0.01580287               -0.00071239                0.12471744                0.00213003
              13.91776825                7.17679633               91.93479689                0.49855838                0.00295524                0.00341060               -0.01080520               -0.00073609                0.12518523                0.00003478
              14.91783734                7.17496231               91.78217074                0.49859462                0.01092082                0.01152232               -0.03756767               -0.00069243                0.11658983               -0.00219209
              15.91798667                7.17312760               91.62942973                0.49870231                0.01901587                0.01968559               -0.06457219               -0.00057881                0.09915666               -0.00488473
              16.91821766                7.17129252               91.47649724                0.49890092                0.02721911                0.02790590               -0.09179610               -0.00040105                0.07330678               -0.00848424
              17.91853105                7.16945720               91.32330076                0.49923811                0.03542494                0.03617142               -0.11906901               -0.00019086                0.03961842               -0.01357983
              18.91892616                7.16762145               91.16977352                0.74977431                0.03951057                0.04443006               -0.14612101                0.00004364                0.01825798               -0.02072972
               8.92038872                8.18557153               92.69622143                0.74986884               -0.03251120               -0.03684164                0.12189845               -0.00005782                0.01683935                0.01875835
               9.92006361                8.18382898               92.54258688                0.49922433               -0.02857075               -0.02872360                0.09531461               -0.00019935                0.05491798                0.00943786
              10.91981730                8.18208281               92.38963263                0.49880112               -0.02066452               -0.02063327                0.06868265               -0.00047919                0.10284879                0.00588984
              11.91965032                8.18033407               92.23689465                0.49867921               -0.01273848               -0.01258789                0.04203011               -0.00062614                0.12231056                0.00356890
              12.91956253                8.17858329               92.08428689                0.49862151               -0.00483617               -0.00452915                0.01539742               -0.00070145                0.13222064                0.00174127
              13.91955359                8.17683114               91.93172500                0.49861285                0.00306902                0.00355064               -0.01127543               -0.00071142                0.13265014                0.00007658
              14.91962391                8.17507821               91.77912560                0.49864345                0.01105949                0.01166248               -0.03810443               -0.00065834                0.12367568               -0.00169653
              15.91977478                8.17332505               91.62640613                0.49874234                0.01919348                0.01981225               -0.06516923               -0.00053728                0.10543781               -0.00388559
              16.92000778                8.17157203               91.47348492                0.49892883                0.02744143                0.02799687               -0.09243403               -0.00034958                0.07816354               -0.00696777
              17.92032361                8.16981920               91.32028198                0.49925305                0.03567365                0.03621901               -0.11970331               -0.00013103                0.04231548               -0.01186828
              18.92072126                8.16806584               91.16672316                0.74978070                0.03976458                0.04444925               -0.14669107                0.00009631                0.01968825               -0.02003575
               8.92209052                9.18520391               92.69304039                0.74986344               -0.03247754               -0.03676376                0.12161000               -0.00003070                0.01854860                0.01376941
               9.92176575                9.18354271               92.53936410                0.49924172               -0.02853835               -0.02853529                0.09509517               -0.00015930                0.06011084                0.00487106
              10.92151975                9.18187726               92.38643886                0.49884974               -0.02059264               -0.02053767                0.06842177               -0.00035683                0.11206384                0.00331681
              11.92135389                9.18020880               92.23374047                0.49874407               -0.01263057               -0.01248156                0.04170899               -0.00044482                0.13218974                0.00202584
              12.92126714                9.17853865               92.08117583                0.49869352               -0.00473951               -0.00440398                0.01501219               -0.00047508                0.14229178                0.00100102
              13.92125910                9.17686734               91.92865813                0.49868675                0.00315589                0.00369728               -0.01172783               -0.00047660                0.14265784                0.00006624
              14.92133026                9.17519556               91.77610144                0.49871503                0.01115006                0.01182491               -0.03862849               -0.00044232                0.13333927               -0.00093188
              15.92148210                9.17352384               91.62342029                0.49880396                0.01931274                0.01997701               -0.06576974               -0.00036865                0.11438219               -0.00217841
              16.92171652                9.17185246               91.47052846                0.49897306                0.02762604                0.02814188               -0.09310494               -0.00024176                0.08563597               -0.00399724
              17.92203463                9.17018158               91.31733523                0.49927850                0.03591483                0.03629498               -0.12039962               -0.00007433                0.04673996               -0.00714072
              18.92243481                9.16851043               91.16374532                0.74978413                0.04001870                0.04455532               -0.14729746                0.00014144                0.02206283               -0.01443799
               8.92371050               10.18483626               92.68973333                0.87493371               -0.03234338               -0.03676461                0.12145082                0.00419902                0.02462964                0.01195518
               9.92338707               10.18325827               92.53604848                0.74962889               -0.02832152               -0.02844360                0.09495353                0.00392179                0.06988923                0.00364204
              10.92314407               10.18167206               92.38319023                0.74944874               -0.02035177               -0.02052032                0.06818501                0.00373998                0.12526246                0.00300926
              11.92298003               10.18008444               92.23055292                0.74940141               -0.01247877               -0.01243621                0.04139335                0.00377141                0.14513949                0.00180781
              12.92289449               10.17849521               92.07805086                0.74938061               -0.00464401               -0.00434372                0.01463105                0.00376701                0.15529211                0.00077189
              13.92288715               10.17690508               91.92559584                0.74937540                0.00320374                0.00377397               -0.01216842                0.00377957                0.15556212               -0.00021898
              14.92295857               10.17531471               91.77310082                0.74938880                0.01116794                0.01191509               -0.03914156                0.00380608                0.14600219               -0.00123858
              15.92311051               10.17372459               91.62047904                0.74942508                0.01933209                0.02007479               -0.06638499                0.00384832                0.12662681               -0.00238316
              16.92334521               10.17213487               91.46764227                0.74950535                0.02768211                0.02824087               -0.09385347                0.00389493                0.09718887               -0.00384976
              17.92366415               10.17054510               91.31449603                0.74964869                0.03605854                0.03635197               -0.12129197                0.00405624                0.05572465               -0.00605183
              18.92406638               10.16895694               91.16091038                0.87489508                0.04022300                0.04465093               -0.14820527                0.00434103                0.02892252               -0.01255738
               9.05766087                0.19153381               93.72197001                0.87491335               -0.02890670               -0.03264283                0.10809426               -0.00367244                0.02054419               -0.00465300
              10.05737181                0.18916540               93.56826057                0.74963522               -0.02544857               -0.02556017                0.08540479               -0.00344086                0.04892414               -0.00461150
              11.05715190                0.18680025               93.41503153                0.74947616               -0.01858277               -0.01873985                0.06245393               -0.00333435                0.08803727               -0.00168479
              12.05700015                0.18443523               93.26203486                0.74942162               -0.01185863               -0.01184431                0.03961682               -0.00333751                0.10898443               -0.00090415
              13.05691473                0.18206987               93.10917379                0.74939991               -0.00530033               -0.00494679                0.01698020               -0.00333522                0.11991486               -0.00032490
              14.05689414                0.17970256               92.95636672                0.74939350                0.00119314                0.00196428               -0.00558523               -0.00335677                0.12153075                0.00014955
              15.05693859                0.17733140               92.80353398                0.74940208                0.00781194                0.00889638               -0.02832386               -0.00339838                0.11400246                0.00055026
              16.05705038                0.17495492               92.65059827                0.74943363                0.01471925                0.01585410               -0.05144590               -0.00344757                0.09770957                0.00087897
              17.05723298                0.17257274               92.49748564                0.74951756                0.02193472                0.02283542               -0.07497568               -0.00346944                0.07316418                0.00116700
              18.05748908                0.17018611               92.34412503                0.74968133                0.02923881                0.02977412               -0.09864851               -0.00355019                0.04041683                0.00148146
              19.05781775                0.16779489               92.19043946                0.87491951                0.03286759                0.03695615               -0.12183311               -0.00357541                0.01929336                0.00283806
               9.05999255                1.19120738               93.71894054                0.74975514               -0.02883801               -0.03262500                0.10766182               -0.00009046                0.01657151               -0.00253592
              10.05970417                1.18890980               93.56520853                0.49911660               -0.02544563               -0.02558609                0.08494491                0.00003681                0.04634564               -0.00378866
              11.05948364                1.18661285               93.41198544                0.49879367               -0.01861038               -0.01869514                0.06203671                0.00017048                0.08562848               -0.00060251
              12.05933197                1.18431679               93.25897156                0.49869548               -0.01179631               -0.01178950                0.03917748                0.00027650                0.10511227                0.00006855
              13.05924771                1.18202040               93.10608974                0.49865222               -0.00510764               -0.00487883                0.01644463                0.00031578                0.11570175                0.00012139
              14.05922981                1.17972220               92.95326033                0.49863946                0.00153572                0.00204435               -0.00625114                0.00028265                0.11725242               -0.00009457
              15.05927843                1.17742036               92.80040534                0.49865913                0.00827112                0.00899303               -0.02909620                0.00017799                0.10991129               -0.00049497
              16.05939524                1.17511346               92.64744874                0.49871609                0.01521279                0.01597653               -0.05224640                0.00003445                0.09398151               -0.00104935
              17.05958268                1.17280109               92.49431739                0.49886740                0.02236310                0.02299169               -0.07569538               -0.00010791                0.06984819               -0.00167625
              18.05984250                1.17048385               92.34094035                0.49914105                0.02952646                0.03002106               -0.09918768               -0.00015944                0.03785565               -0.00212189
              19.06017321                1.16816446               92.18724898                0.74970633                0.03307165                0.03720341               -0.12232526               -0.00003406                0.01728005               -0.00151164
               9.06225422                2.19088131               93.71585639                0.74968458               -0.02871559               -0.03269816                0.10764056               -0.00008278                0.01338774               -0.00054632
              10.06196706                2.18865368               93.56209842                0.49897214               -0.02529510               -0.02566823                0.08473231                0.00004211                0.04599553               -0.00175980
              11.06174832                2.18642635               93.40890664                0.49864045               -0.01844669               -0.01866311                0.06169814                0.00024223                0.08661806                0.00006857
              12.06159813                2.18419944               93.25589366                0.49855343               -0.01163419               -0.01170282                0.03874387                0.00041073                0.10399269                0.00062112
              13.06151563                2.18197229               93.10300094                0.49851115               -0.00491459               -0.00475137                0.01593494                0.00048791                0.11374816                0.00040706
              14.06149984                2.17974344               92.95015578                0.49850270                0.00176306                0.00220987               -0.00683577                0.00043156                0.11494589               -0.00020010
              15.06155090                2.17751126               92.79728275                0.49852068                0.00852498                0.00920624               -0.02976558                0.00024846                0.10747021               -0.00110753
              16.06167034                2.17527445               92.64430744                0.49857578                0.01547638                0.01625834               -0.05302408               -0.00000846                0.09158308               -0.00228325
              17.06186042                2.17303257               92.49115853                0.49869866                0.02260937                0.02337270               -0.07662289               -0.00023917                0.06778302               -0.00361308
              18.06212253                2.17078653               92.33776908                0.49893056                0.02977191                0.03056467               -0.10035156               -0.00029427                0.03667827               -0.00475529
              19.06245586                2.16853896               92.18407736                0.74957499                0.03333358                0.03780305               -0.12383630               -0.00009159                0.01674964               -0.00513777
               9.06444615                3.19055341               93.71277267                0.74968303               -0.02861811               -0.03288194                0.10768365               -0.00006191                0.01378589                0.00470389
              10.06415997                3.18839643               93.55901418                0.49897115               -0.02517162               -0.02576130                0.08457876                0.00003307                0.04631732                0.00320887
              11.06394272                3.18623959               93.40582087                0.49864085               -0.01828677               -0.01868155                0.06140505                0.00017179                0.08696988                0.00231024
              12.06379423                3.18408273               93.25280813                0.49854613               -0.01146239               -0.01164424                0.03834872                0.00030140                0.10412984                0.00169781
              13.06371347                3.18192538               93.09990949                0.49850516               -0.00473769               -0.00463552                0.01546247                0.00035742                0.11338316                0.00087082
              14.06369948                3.17976640               92.94705443                0.49849017                0.00194628                0.00237941               -0.00737986                0.00029638                0.11425566               -0.00020855
              15.06375240                3.17760449               92.79416902                0.49851231                0.00871347                0.00943893               -0.03039794                0.00012271                0.10656970               -0.00156616
              16.06387375                3.17543862               92.64117982                0.49856993                0.01567096                0.01657518               -0.05378164               -0.00010833                0.09058569               -0.00323553
              17.06406582                3.17326855               92.48801691                0.49870475                0.02282363                0.02380559               -0.07756653               -0.00029344                0.06687887               -0.00517280
              18.06433022                3.17109514               92.33461571                0.49894520                0.03003514                0.03112082               -0.10154677               -0.00029082                0.03611378               -0.00720954
              19.06466652                3.16892052               92.18091677                0.74958500                0.03362959                0.03846415               -0.12530504               -0.00005977                0.01644483               -0.00909212
               9.06656694                4.19022367               93.70970344                0.74968491               -0.02853943               -0.03301887                0.10768706               -0.00006060                0.01398124                0.01003370
              10.06628155                4.18813845               93.55593296                0.49897065               -0.02507444               -0.02580198                0.08442289               -0.00001817                0.04687501                0.00669999
              11.06606545                4.18605272               93.40273542                0.49863869               -0.01815867               -0.01866979                0.06113369                0.00003248                0.08796121                0.00463051
              12.06591837                4.18396656               93.24971962                0.49854854               -0.01131669               -0.01157984                0.03798599                0.00009124                0.10516047                0.00294876
              13.06583912                4.18187958               93.09681761                0.49850347               -0.00458586               -0.00452149                0.01502586                0.00010572                0.11430159                0.00143056
              14.06582666                4.17979103               92.94395730                0.49849069                0.00210028                0.00254199               -0.00788770                0.00004553                0.11496119               -0.00015370
              15.06588112                4.17770004               92.79106447                0.49851250                0.00887265                0.00965692               -0.03099212               -0.00008325                0.10703327               -0.00196503
              16.06600411                4.17560595               92.63806557                0.49857528                0.01584542                0.01686233               -0.05449573               -0.00023522                0.09081111               -0.00412502
              17.06619803                4.17350869               92.48489100                0.49871103                0.02303154                0.02417455               -0.07844536               -0.00032991                0.06691984               -0.00669985
              18.06646474                4.17140895               92.33147687                0.49895661                0.03029442                0.03157316               -0.10263007               -0.00027084                0.03607939               -0.00967495
              19.06680392                4.16930825               92.17776490                0.74959466                0.03391809                0.03899851               -0.12660291               -0.00003665                0.01642257               -0.01295196
               9.06861537                5.18989304               93.70663958                0.74968570               -0.02848135               -0.03303621                0.10759476               -0.00006867                0.01433038                0.01432334
              10.06833055                5.18788039               93.55284991                0.49897212               -0.02500532               -0.02576927                0.08423570               -0.00009931                0.04783301                0.00944179
              11.06811526                5.18586620               93.39964596                0.49864114               -0.01806803               -0.01860645                0.06086798               -0.00015744                0.08974909                0.00638354
              12.06796919                5.18385114               93.24662803                0.49855500               -0.01120750               -0.01148848                0.03764807               -0.00017573                0.10724062                0.00397675
              13.06789111                5.18183495               93.09372578                0.49851438               -0.00446272               -0.00440220                0.01462114               -0.00020793                0.11645596                0.00191868
              14.06787994                5.17981724               92.94086512                0.49850510                0.00223520                0.00269110               -0.00836113               -0.00026127                0.11700119               -0.00006989
              15.06793582                5.17779762               92.78797010                0.49852370                0.00902289                0.00983976               -0.03154557               -0.00032718                0.10880633               -0.00223879
              16.06806040                5.17577587               92.63496594                0.49858481                0.01602022                0.01708415               -0.05514981               -0.00037703                0.09220337               -0.00479904
              17.06825622                5.17375204               92.48178206                0.49872127                0.02324244                0.02443887               -0.07922196               -0.00036680                0.06785795               -0.00793356
              18.06852525                5.17172661               92.32835401                0.49897248                0.03054849                0.03188048               -0.10354472               -0.00024838                0.03654226               -0.01177360
              19.06886719                5.16970049               92.17462338                0.74960226                0.03419437                0.03934759               -0.12764978               -0.00001346                0.01665617               -0.01637919
               9.07059085                6.18956294               93.70357151                0.74968616               -0.02844511               -0.03291525                0.10739450               -0.00007480                0.01485712                0.01744544
              10.07030640                6.18762307               93.54975606                0.49897511               -0.02496460               -0.02565926                0.08401546               -0.00017919                0.04932696                0.01109417
              11.07009156                6.18568059               93.39654639                0.49865586               -0.01801463               -0.01848948                0.06060602               -0.00034726                0.09256376                0.00735331
              12.06994611                6.18373679               93.24352978                0.49856969               -0.01113501               -0.01136767                0.03733365               -0.00044087                0.11057318                0.00452062
              13.06986886                6.18179154               93.09063273                0.49852894               -0.00436776               -0.00427644                0.01424659               -0.00051506                0.12000530                0.00219183
              14.06985875                6.17984486               92.93777821                0.49852294                0.00235446                0.00282460               -0.00880158               -0.00055720                0.12049166                0.00001240
              15.06991595                6.17789683               92.78488769                0.49853953                0.00917005                0.00998222               -0.03205923               -0.00055805                0.11199184               -0.00231762
              16.07004215                6.17594763               92.63188403                0.49860152                0.01620050                0.01723379               -0.05574124               -0.00050646                0.09485527               -0.00508290
              17.07023996                6.17399746               92.47869440                0.49873187                0.02345851                0.02459294               -0.07989186               -0.00039369                0.06976716               -0.00858844
              18.07051132                6.17204656               92.32525231                0.49898035                0.03079671                0.03203625               -0.10428241               -0.00021956                0.03754265               -0.01314431
              19.07085589                6.17009520               92.17149793                0.74960966                0.03445685                0.03949801               -0.12843260                0.00001360                0.01716810               -0.01900347
               9.07249362                7.18923473               93.70048613                0.74968389               -0.02843000               -0.03268856                0.10711373               -0.00006625                0.01563605                0.01901866
              10.07220932                7.18736721               93.54663903                0.49898150               -0.02495147               -0.02548871                0.08378305               -0.00022478                0.05155732                0.01126974
              11.07199459                7.18549641               93.39342756                0.49867220               -0.01799485               -0.01833314                0.06036180               -0.00048252                0.09674899                0.00725130
              12.07184943                7.18362378               93.24041922                0.49859733               -0.01109244               -0.01123020                0.03704867               -0.00063887                0.11549826                0.00441580
              13.07177274                7.18174942               93.08753591                0.49856144               -0.00429609               -0.00415063                0.01390373               -0.00073831                0.12524989                0.00215738
              14.07176350                7.17987373               92.93469670                0.49855757                0.00245662                0.00294499               -0.00921022               -0.00076602                0.12570240                0.00007568
              15.07182188                7.17799727               92.78181982                0.49857289                0.00930665                0.01009484               -0.03253616               -0.00071597                0.11685061               -0.00213630
              16.07194964                7.17612055               92.62882498                0.49862568                0.01637723                0.01732920               -0.05628105               -0.00058768                0.09902450               -0.00479684
              17.07214942                7.17424390               92.47563566                0.49875392                0.02367416                0.02465946               -0.08047548               -0.00039385                0.07287049               -0.00833079
              18.07242312                7.17236733               92.32218140                0.49899337                0.03103797                0.03206678               -0.10487393               -0.00017654                0.03921416               -0.01331417
              19.07277018                7.17049045               92.16839893                0.74961563                0.03470609                0.03948361               -0.12898810                0.00005198                0.01803295               -0.02031262
               9.07432457                8.18890917               93.69736493                0.74968166               -0.02843414               -0.03243937                0.10681627               -0.00003098                0.01681341                0.01842382
              10.07404023                8.18711329               93.54348139                0.49899036               -0.02496186               -0.02528964                0.08358566               -0.00021888                0.05487008                0.00930654
              11.07382533                8.18531393               93.39027716                0.49870251               -0.01799553               -0.01817410                0.06016111               -0.00052646                0.10285944                0.00585593
              12.07368032                8.18351219               93.23728921                0.49863743               -0.01105932               -0.01110660                0.03680264               -0.00069584                0.12251819                0.00358265
              13.07360415                8.18170853               93.08443207                0.49861834               -0.00423688               -0.00403458                0.01359537               -0.00078814                0.13260154                0.00177060
              14.07359558                8.17990375               92.93162057                0.49861169                0.00253330                0.00305970               -0.00958728               -0.00080031                0.13301181                0.00010652
              15.07365481                8.17809873               92.77876975                0.49861523                0.00940948                0.01020248               -0.03298246               -0.00073066                0.12378148               -0.00165996
              16.07378377                8.17629422               92.62579582                0.49866538                0.01652405                0.01741339               -0.05678989               -0.00057901                0.10516030               -0.00381300
              17.07398530                8.17449065               92.47261738                0.49877452                0.02387363                0.02469334               -0.08102056               -0.00035895                0.07761240               -0.00680782
              18.07426124                8.17268789               92.31915677                0.49900995                0.03127043                0.03203320               -0.10539524               -0.00012102                0.04185072               -0.01154216
              19.07461070                8.17088487               92.16534351                0.74961688                0.03494593                0.03938863               -0.12940511                0.00010535                0.01942847               -0.01944340
               9.07608476                9.18858594               93.69418147                0.74967857               -0.02845708               -0.03230219                0.10659981                0.00000096                0.01848647                0.01350922
              10.07580019                9.18686142               93.54025710                0.49901076               -0.02497944               -0.02511398                0.08350004               -0.00018422                0.05995774                0.00481212
              11.07558517                9.18513292               93.38708144                0.49875488               -0.01796404               -0.01809669                0.06002730               -0.00040768                0.11189723                0.00331218
              12.07544091                9.18340165               93.23413241                0.49870697               -0.01098793               -0.01102339                0.03659579               -0.00051089                0.13222104                0.00204833
              13.07536541                9.18166873               93.08131770                0.49868649               -0.00418056               -0.00393394                0.01331791               -0.00055438                0.14250470                0.00102583
              14.07535730                9.17993492               92.92854969                0.49868278                0.00256950                0.00318121               -0.00993301               -0.00055706                0.14284876                0.00008156
              15.07541680                9.17820132               92.77574084                0.49868799                0.00944181                0.01033778               -0.03340113               -0.00050912                0.13325733               -0.00092033
              16.07554613                9.17646881               92.62280442                0.49871543                0.01658821                0.01754537               -0.05729025               -0.00041184                0.11389586               -0.00214631
              17.07574857                9.17473776               92.46965461                0.49881883                0.02401745                0.02479378               -0.08159884               -0.00026142                0.08488071               -0.00390172
              18.07602648                9.17300800               92.31620345                0.49902265                0.03148840                0.03204620               -0.10599290               -0.00007754                0.04614556               -0.00691715
              19.07637833                9.17127822               92.16236022                0.74962102                0.03518523                0.03938006               -0.12985900                0.00014874                0.02172603               -0.01392894
               9.07777365               10.18826313               93.69087382                0.87484129               -0.02840805               -0.03228165                0.10664650                0.00367716                0.02445113                0.01176950
              10.07748957               10.18661101               93.53694112                0.74951724               -0.02483505               -0.02504032                0.08358007                0.00338092                0.06954000                0.00361931
              11.07727694               10.18495199               93.38383123                0.74940139               -0.01776326               -0.01809312                0.05994583                0.00321261                0.12485695                0.00300786
              12.07713430               10.18329172               93.23094234                0.74938177               -0.01085779               -0.01099345                0.03640271                0.00323197                0.14498905                0.00182299
              13.07705979               10.18162985               93.07818950                0.74937444               -0.00412256               -0.00388772                0.01305319                0.00322070                0.15536588                0.00077932
              14.07705185               10.17996738               92.92548358                0.74937481                0.00254767                0.00324552               -0.01024892                0.00323695                0.15561350               -0.00022974
              15.07711074               10.17830548               92.77273565                0.74937079                0.00936199                0.01041659               -0.03378336                0.00328123                0.14572482               -0.00126118
              16.07723909               10.17664512               92.61985748                0.74938709                0.01650706                0.01763106               -0.05778785                0.00334770                0.12585229               -0.00239369
              17.07744088               10.17498653               92.46676120                0.74942490                0.02400749                0.02487630               -0.08227252                0.00341630                0.09605782               -0.00380715
              18.07771924               10.17332882               92.31335531                0.74952332                0.03161744                0.03208199               -0.10687779                0.00357276                0.05478414               -0.00590677
              19.07807323               10.17167247               92.15951616                0.87481330                0.03539940                0.03942510               -0.13076914                0.00385519                0.02830390               -0.01213370
               9.21168816                0.19452023               94.72297004                0.87480891               -0.02451920               -0.02779094                0.09191007               -0.00308124                0.02018453               -0.00429003
              10.21144297                0.19217401               94.56905138                0.74949442               -0.02147511               -0.02184359                0.07272563               -0.00286467                0.04842630               -0.00453167
              11.21125866                0.18983162               94.41560916                0.74940397               -0.01546722               -0.01602573                0.05294556               -0.00274796                0.08765010               -0.00170976
              12.21113363                0.18749164               94.26240101                0.74939422               -0.00974461               -0.01014330                0.03346588               -0.00270553                0.10913846               -0.00094914
              13.21106377                0.18515336               94.10933135                0.74939757               -0.00440068               -0.00426771                0.01444248               -0.00267579                0.12054049               -0.00033641
              14.21104561                0.18281391               93.95631692                0.74939371                0.00074914                0.00161707               -0.00436446               -0.00270028                0.12224891                0.00019285
              15.21107875                0.18046959               93.80327489                0.74938656                0.00604784                0.00753301               -0.02338201               -0.00278000                0.11433861                0.00063559
              16.21116657                0.17811732               93.65012512                0.74938831                0.01181124                0.01349897               -0.04300952               -0.00289074                0.09733442                0.00095768
              17.21131498                0.17575596               93.49679306                0.74942279                0.01813551                0.01951679               -0.06338509               -0.00297148                0.07213569                0.00115877
              18.21152928                0.17338738               93.34321082                0.74952259                0.02470278                0.02551080               -0.08415835               -0.00306353                0.03937357                0.00130423
              19.21180903                0.17101368               93.18930947                0.87481722                0.02797518                0.03169043               -0.10424608               -0.00307755                0.01850670                0.00222323
               9.21400357                1.19424232               94.71993670                0.74956745               -0.02449447               -0.02785860                0.09158982               -0.00006599                0.01644550               -0.00194448
              10.21375863                1.19195557               94.56599519                0.49886908               -0.02156044               -0.02192044                0.07237849                0.00011806                0.04608834               -0.00359298
              11.21357237                1.18967136               94.41255953                0.49867700               -0.01564631               -0.01601562                0.05268771                0.00039050                0.08538034               -0.00059907
              12.21344570                1.18739021               94.25933391                0.49864582               -0.00982432               -0.01010921                0.03317594                0.00061976                0.10519354                0.00001734
              13.21337588                1.18511068               94.10624228                0.49864420               -0.00426050               -0.00421495                0.01398852                0.00073688                0.11610030                0.00011235
              14.21336049                1.18283008               93.95320383                0.49864358                0.00116819                0.00168494               -0.00504726                0.00070296                0.11772152               -0.00002552
              15.21339924                1.18054492               93.80013812                0.49863538                0.00669925                0.00762322               -0.02426950                0.00051434                0.11012753               -0.00037685
              16.21349448                1.17825231               93.64696697                0.49864247                0.01254946                0.01362730               -0.04398894                0.00022725                0.09373871               -0.00097784
              17.21365023                1.17595113               93.49361707                0.49870554                0.01876539                0.01969906               -0.06428221               -0.00006352                0.06924924               -0.00180189
              18.21386979                1.17364249               93.34002058                0.49888125                0.02508633                0.02580288               -0.08479312               -0.00020532                0.03735541               -0.00262246
              19.21415196                1.17133059               93.18611400                0.74953300                0.02821725                0.03203595               -0.10481094               -0.00008646                0.01702235               -0.00263378
               9.21626034                2.19396306               94.71685371                0.74951525               -0.02440527               -0.02813230                0.09190455               -0.00003603                0.01329228                0.00025641
              10.21601629                2.19173560               94.56288384                0.49875707               -0.02142535               -0.02211886                0.07236310                0.00020284                0.04579791               -0.00145526
              11.21583184                2.18951131               94.40947786                0.49855022               -0.01547924               -0.01606423                0.05245023                0.00064758                0.08651216                0.00011276
              12.21570670                2.18728946               94.25625203                0.49851362               -0.00965986               -0.01007518                0.03281188                0.00101076                0.10426507                0.00058145
              13.21563864                2.18506906               94.10314867                0.49850508               -0.00406374               -0.00412424                0.01353780                0.00121074                0.11435356                0.00041799
              14.21562543                2.18284760               93.95009365                0.49850244                0.00140813                0.00182575               -0.00558453                0.00115249                0.11561994               -0.00008818
              15.21566680                2.18062206               93.79700895                0.49850195                0.00697388                0.00782825               -0.02491158                0.00083462                0.10788001               -0.00094062
              16.21576491                2.17838987               93.64381782                0.49851520                0.01283634                0.01392855               -0.04477660                0.00034555                0.09150302               -0.00220261
              17.21592353                2.17614994               93.49044856                0.49857715                0.01904056                0.02014090               -0.06529315               -0.00013639                0.06727126               -0.00384109
              18.21614572                2.17390344               93.33683675                0.49872153                0.02537930                0.02646140               -0.08618376               -0.00034460                0.03615382               -0.00555284
              19.21643111                2.17165440               93.18292554                0.74944055                0.02853948                0.03283518               -0.10676718               -0.00014141                0.01643950               -0.00668094
               9.21845777                3.19367968               94.71377174                0.74951685               -0.02433371               -0.02852675                0.09225123                0.00000193                0.01371158                0.00536144
              10.21821444                3.19151319               94.55979888                0.49876488               -0.02131568               -0.02232838                0.07237967                0.00023264                0.04618190                0.00343371
              11.21803146                3.18935008               94.40638969                0.49854625               -0.01531341               -0.01616688                0.05225982                0.00061557                0.08700942                0.00234468
              12.21790817                3.18718870               94.25316293                0.49850848               -0.00947566               -0.01007834                0.03248910                0.00090962                0.10461191                0.00167746
              13.21784195                3.18502820               94.10005282                0.49849885               -0.00388117               -0.00405156                0.01313127                0.00106710                0.11423497                0.00089838
              14.21783054                3.18286659               93.94698717                0.49849356                0.00158616                0.00196978               -0.00606304                0.00100065                0.11517825               -0.00009448
              15.21787367                3.18070149               93.79388914                0.49848873                0.00714792                0.00805609               -0.02548661                0.00070595                0.10719616               -0.00140700
              16.21797350                3.17853088               93.64068272                0.49851231                0.01301314                0.01426782               -0.04550657                0.00026756                0.09065421               -0.00315159
              17.21813393                3.17635395               93.48729728                0.49857552                0.01924674                0.02063419               -0.06628110               -0.00014400                0.06642182               -0.00535037
              18.21835844                3.17417172               93.33367067                0.49873609                0.02566393                0.02713439               -0.08755264               -0.00029216                0.03558025               -0.00784708
              19.21864721                3.17198729               93.17974889                0.74945128                0.02887733                0.03366910               -0.10856828               -0.00007802                0.01612863               -0.01030496
               9.22059334                4.19339252               94.71070358                0.74952062               -0.02428038               -0.02881756                0.09248101                0.00000912                0.01392606                0.01039873
              10.22035054                4.19128903               94.55671679                0.49876376               -0.02123523               -0.02245098                0.07236183                0.00017199                0.04679214                0.00677946
              11.22016864                4.18918797               94.40330202                0.49855001               -0.01518792               -0.01621792                0.05208404                0.00042605                0.08811286                0.00461458
              12.22004678                4.18708789               94.25007119                0.49850952               -0.00932722               -0.01006480                0.03220290                0.00060207                0.10580060                0.00292278
              13.21998209                4.18498803               94.09695694                0.49850023               -0.00373148               -0.00397665                0.01276700                0.00068460                0.11534055                0.00145865
              14.21997215                4.18288700               93.94388532                0.49848970                0.00172665                0.00210631               -0.00649674                0.00061655                0.11607312               -0.00005034
              15.22001663                4.18078318               93.79077896                0.49849359                0.00728239                0.00826326               -0.02601032                0.00039759                0.10782075               -0.00181701
              16.22011780                4.17867523               93.63756153                0.49851026                0.01315928                0.01456268               -0.04617084                0.00009256                0.09098453               -0.00401815
              17.22027981                4.17656263               93.48416254                0.49858369                0.01943683                0.02103574               -0.06716125               -0.00017184                0.06650152               -0.00675876
              18.22050653                4.17444613               93.33052059                0.49875138                0.02593002                0.02765143               -0.08872294               -0.00023720                0.03554306               -0.01003113
              19.22079841                4.17232778               93.17658319                0.74946183                0.02918776                0.03430996               -0.11006372               -0.00003195                0.01610179               -0.01369286
               9.22266494                5.19310332               94.70763951                0.74952221               -0.02425120               -0.02890888                0.09253006               -0.00000393                0.01428242                0.01433934
              10.22242243                5.19106418               94.55363242                0.49876721               -0.02119091               -0.02245802                0.07228176                0.00004589                0.04777152                0.00935854
              11.22224112                5.18902572               94.40021037                0.49855163               -0.01511382               -0.01618848                0.05190645                0.00012309                0.08994460                0.00630174
              12.22212015                5.18698741               94.24697663                0.49851750               -0.00922970               -0.01000531                0.03194263                0.00017005                0.10794358                0.00393213
              13.22205653                5.18494866               94.09386145                0.49850768               -0.00362142               -0.00388695                0.01243838                0.00017207                0.11757146                0.00193622
              14.22204772                5.18290872               93.94078877                0.49850365                0.00184332                0.00222969               -0.00689295                0.00011067                0.11819011                0.00001492
              15.22209339                5.18086675               93.78767941                0.49850742                0.00740909                0.00842553               -0.02648761               -0.00000812                0.10965395               -0.00210639
              16.22219590                5.17882214               93.63445564                0.49852165                0.01330986                0.01477099               -0.04676108               -0.00014614                0.09240757               -0.00466427
              17.22235959                5.17677466               93.48104597                0.49859352                0.01963167                0.02129586               -0.06790253               -0.00023650                0.06744075               -0.00785889
              18.22258854                5.17472475               93.32738850                0.49875924                0.02618360                0.02796796               -0.08964838               -0.00020188                0.03599413               -0.01182437
              19.22288326                5.17267349               93.17343089                0.74946735                0.02947252                0.03469171               -0.11117920                0.00000366                0.01632758               -0.01660011
               9.22467156                6.19281435               94.70456984                0.74952256               -0.02425022               -0.02878146                0.09239714               -0.00001982                0.01480222                0.01713667
              10.22442906                6.19083987               94.55053681                0.49877336               -0.02118474               -0.02234639                0.07214311               -0.00009240                0.04924605                0.01086985
              11.22424787                6.18886420               94.39710861                0.49856448               -0.01509104               -0.01607703                0.05172525               -0.00019958                0.09272179                0.00721930
              12.22412724                6.18688778               94.24387566                0.49853476               -0.00918206               -0.00989778                0.03170704               -0.00027772                0.11123210                0.00446328
              13.22406423                6.18491029               94.09076507                0.49853069               -0.00354825               -0.00378096                0.01214216               -0.00034799                0.12107520                0.00219876
              14.22405627                6.18293159               93.93769786                0.49852839                0.00194089                0.00233813               -0.00725418               -0.00039644                0.12163349                0.00007478
              15.22410304                6.18095169               93.78459224                0.49852174                0.00753460                0.00853834               -0.02692226               -0.00041346                0.11278922               -0.00220860
              16.22420697                6.17897065               93.63136816                0.49853526                0.01347141                0.01488694               -0.04727868               -0.00038635                0.09500731               -0.00493307
              17.22437247                6.17698855               93.47795189                0.49860801                0.01983534                0.02141293               -0.06850872               -0.00030523                0.06930228               -0.00840162
              18.22460367                6.17500549               93.32427964                0.49877175                0.02642663                0.02808564               -0.09033617               -0.00017015                0.03696458               -0.01291931
              19.22490100                6.17302162               93.17029776                0.74947026                0.02973318                0.03480638               -0.11192191                0.00003790                0.01682269               -0.01873921
               9.22661349                7.19252769               94.70148183                0.74952137               -0.02427696               -0.02848377                0.09213025               -0.00001995                0.01556227                0.01847377
              10.22637072                7.19061725               94.54741781                0.49877599               -0.02121382               -0.02214207                0.07197547               -0.00019015                0.05142121                0.01096380
              11.22618922                7.18870418               94.39398777                0.49858667               -0.01511076               -0.01590772                0.05155999               -0.00044928                0.09679621                0.00710610
              12.22606851                7.18678945               94.24076269                0.49856359               -0.00917299               -0.00976193                0.03150441               -0.00062998                0.11602008                0.00436749
              13.22600576                7.18487304               94.08766525                0.49856070               -0.00350583               -0.00366845                0.01188197               -0.00075003                0.12617220                0.00216324
              14.22599839                7.18295548               93.93461268                0.49856090                0.00201573                0.00243404               -0.00757956               -0.00078236                0.12669525                0.00011554
              15.22604607                7.18103752               93.78152002                0.49855070                0.00764648                0.00861533               -0.02731576               -0.00071723                0.11750491               -0.00206002
              16.22615132                7.17911988               93.62830411                0.49856105                0.01362857                0.01493485               -0.04773440               -0.00056032                0.09905018               -0.00465900
              17.22631864                7.17720292               93.47488773                0.49862107                0.02003705                0.02141894               -0.06900512               -0.00034028                0.07231248               -0.00808170
              18.22655206                7.17528646               93.32120328                0.49877977                0.02665599                0.02804082               -0.09082794               -0.00012410                0.03858923               -0.01288588
              19.22685176                7.17336962               93.16719376                0.74947892                0.02997000                0.03470270               -0.11234988                0.00008256                0.01766211               -0.01965254
               9.22849206                8.19224467               94.69835775                0.74952321               -0.02432868               -0.02812468                0.09182238                0.00001031                0.01670883                0.01778304
              10.22824877                8.19039703               94.54425860                0.49878910               -0.02126908               -0.02190150                0.07184432               -0.00022093                0.05464367                0.00902366
              11.22806668                8.18854605               94.39083585                0.49861990               -0.01514982               -0.01573712                0.05144815               -0.00056520                0.10273042                0.00575317
              12.22794577                8.18669254               94.23763070                0.49860689               -0.00917392               -0.00964052                0.03134905               -0.00077886                0.12283533                0.00356684
              13.22788320                8.18483692               94.08455880                0.49861403               -0.00348124               -0.00356553                0.01166371               -0.00090387                0.13331474                0.00178566
              14.22787615                8.18298027               93.93153326                0.49861063                0.00205520                0.00252460               -0.00786431               -0.00091882                0.13379729                0.00012735
              15.22792430                8.18112400               93.77846595                0.49859849                0.00771037                0.00868661               -0.02766598               -0.00081646                0.12423085               -0.00162413
              16.22803036                8.17926934               93.62527033                0.49859362                0.01373896                0.01496854               -0.04814397               -0.00060716                0.10499521               -0.00371920
              17.22819908                8.17741692               93.47186451                0.49864613                0.02020695                0.02138427               -0.06944050               -0.00032901                0.07690841               -0.00657466
              18.22843450                8.17556631               93.31817407                0.49879239                0.02686316                0.02791144               -0.09120829               -0.00006985                0.04115395               -0.01104755
              19.22873634                8.17371567               93.16413505                0.74947934                0.03018479                0.03447924               -0.11257005                0.00013816                0.01901910               -0.01854529
               9.23030898                9.19196520               94.69517239                0.74952097               -0.02440534               -0.02788567                0.09162065                0.00004396                0.01832957                0.01300193
              10.23006493                9.19017922               94.54103410                0.49880540               -0.02132923               -0.02172063                0.07187558               -0.00020409                0.05957674                0.00467137
              11.22988240                9.18838944               94.38763941                0.49866647               -0.01514353               -0.01567047                0.05142736               -0.00046278                0.11150938                0.00327847
              12.22976206                9.18659664               94.23447239                0.49866921               -0.00912237               -0.00957531                0.03124262               -0.00059693                0.13229714                0.00206463
              13.22969995                9.18480173               94.08144219                0.49868337               -0.00345599               -0.00348652                0.01148630               -0.00066482                0.14300606                0.00104728
              14.22969294                9.18300597               93.92845947                0.49868634                0.00203618                0.00262213               -0.00809973               -0.00066781                0.14342964                0.00008822
              15.22974067                9.18121125               93.77543342                0.49866555                0.00766562                0.00879333               -0.02796187               -0.00059340                0.13347963               -0.00092032
              16.22984625                9.17941925               93.62227449                0.49865105                0.01372134                0.01506267               -0.04851648               -0.00044979                0.11346891               -0.00211566
              17.23001510                9.17763061               93.46889649                0.49867830                0.02028338                0.02143104               -0.06989113               -0.00025503                0.08391458               -0.00377067
              18.23025192                9.17584469               93.31521537                0.49880760                0.02703461                0.02784691               -0.09166067               -0.00005163                0.04528385               -0.00658047
              19.23055579                9.17405920               93.16114814                0.74947915                0.03038739                0.03433612               -0.11279768                0.00017233                0.02121666               -0.01315171
               9.23206490               10.19168696               94.69186626                0.87476105               -0.02444523               -0.02782437                0.09187295                0.00315809                0.02406649                0.01138700
              10.23182045               10.18996262               94.53772008                0.74941361               -0.02124545               -0.02166005                0.07218699                0.00283627                0.06881632                0.00356595
              11.23164000               10.18823264               94.38438914                0.74935682               -0.01494562               -0.01568003                0.05147713                0.00268079                0.12409532                0.00300522
              12.23152154               10.18650104               94.23128097                0.74936193               -0.00897121               -0.00956036                0.03114527                0.00267567                0.14483178                0.00185043
              13.23146057               10.18476719               94.07831192                0.74937370               -0.00341330               -0.00345441                0.01132704                0.00264594                0.15573345                0.00079018
              14.23145327               10.18303272               93.92539086                0.74937307                0.00192931                0.00267450               -0.00827577                0.00266714                0.15607792               -0.00025457
              15.23149916               10.18129986               93.77242516                0.74936199                0.00743662                0.00886106               -0.02817018                0.00274228                0.14575003               -0.00131377
              16.23160201               10.17957060               93.61932328                0.74934788                0.01346899                0.01513487               -0.04883137                0.00285951                0.12507175               -0.00243644
              17.23176854               10.17784555               93.46599682                0.74935684                0.02014317                0.02149373               -0.07042109                0.00297595                0.09456873               -0.00377050
              18.23200487               10.17612324               93.31235848                0.74941346                0.02711150                0.02785529               -0.09248919                0.00313744                0.05340228               -0.00569882
              19.23231077               10.17440239               93.15829500                0.87474163                0.03058977                0.03431923               -0.11366458                0.00341247                0.02734104               -0.01147313
               9.36590189                0.19751467               95.72380821                0.87472315               -0.02006801               -0.02298591                0.07582690               -0.00249133                0.01940850               -0.00364874
              10.36570121                0.19518715               95.56971509                0.74937348               -0.01733096               -0.01816675                0.05997875               -0.00227691                0.04731445               -0.00444541
              11.36555527                0.19286532               95.41609044                0.74934257               -0.01202349               -0.01331415                0.04311183               -0.00210934                0.08668954               -0.00181069
              12.36546074                0.19055045               95.26270418                0.74936649               -0.00728187               -0.00843285                0.02696259               -0.00196748                0.10911321               -0.00106349
              13.36540963                0.18824127               95.10946264                0.74939210               -0.00325794               -0.00359423                0.01168512               -0.00187536                0.12130546               -0.00037487
              14.36539558                0.18593260               94.95627943                0.74939604                0.00037692                0.00123647               -0.00316017               -0.00189885                0.12325497                0.00026212
              15.36541717                0.18361765               94.80306634                0.74937465                0.00416622                0.00611222               -0.01823430               -0.00204362                0.11491567                0.00079803
              16.36547890                0.18129037               94.64973808                0.74934251                0.00864101                0.01108209               -0.03419233               -0.00227065                0.09693202                0.00114625
              17.36558999                0.17894790               94.49621794                0.74933644                0.01406156                0.01616488               -0.05141421               -0.00247792                0.07067604                0.00123878
              18.36576013                0.17659268               94.34244186                0.74938448                0.02002941                0.02127898               -0.06957104               -0.00262624                0.03775274                0.00111477
              19.36599058                0.17423030               94.18835454                0.87472824                0.02304432                0.02654084               -0.08693103               -0.00261351                0.01724038                0.00129622
               9.36820450                1.19728481               95.72077234                0.74940964               -0.02013862               -0.02316355                0.07568318               -0.00003684                0.01614636               -0.00101507
              10.36800311                1.19500548               95.56665610                0.49865909               -0.01759888               -0.01831331                0.05980469                0.00025192                0.04544422               -0.00336670
              11.36785252                1.19273218               95.41303920                0.49857562               -0.01250133               -0.01334365                0.04309926                0.00078733                0.08467711               -0.00069807
              12.36775309                1.19046612               95.25963508                0.49860740               -0.00763592               -0.00841988                0.02689256                0.00125176                0.10504728               -0.00013242
              13.36769980                1.18820533               95.10636951                0.49863892               -0.00323417               -0.00355789                0.01134872                0.00151468                0.11648001                0.00007050
              14.36768840                1.18594496               94.95315939                0.49864252                0.00090208                0.00128722               -0.00386696                0.00149084                0.11828164                0.00009542
              15.36771784                1.18367877               94.79991995                0.49862146                0.00513320                0.00618914               -0.01929735                0.00116926                0.11042251               -0.00012684
              16.36779107                1.18140119               94.64656896                0.49856954                0.00981063                0.01121350               -0.03547179                0.00063325                0.09342506               -0.00073175
              17.36791406                1.17910955               94.49303175                0.49856832                0.01508017                0.01638154               -0.05265837                0.00006013                0.06836815               -0.00180385
              18.36809267                1.17680547               94.33924449                0.49865954                0.02063785                0.02163518               -0.07047305               -0.00026737                0.03655122               -0.00319276
              19.36832681                1.17449571               94.18515276                0.74939101                0.02341439                0.02700731               -0.08774540               -0.00015040                0.01659955               -0.00419328
               9.37045982                2.19705140               95.71769448                0.74937655               -0.02009396               -0.02370217                0.07648402                0.00002787                0.01305026                0.00143746
              10.37025888                2.19482088               95.56354568                0.49857887               -0.01747239               -0.01866614                0.06001688                0.00047953                0.04527180               -0.00113138
              11.37011037                2.19259845               95.40995564                0.49847544               -0.01231283               -0.01349316                0.04294780                0.00137535                0.08610750                0.00003138
              12.37001262                2.19038205               95.25654990                0.49848101               -0.00746431               -0.00845015                0.02659517                0.00209595                0.10452176                0.00041972
              13.36996108                2.18817011               95.10327169                0.49850515               -0.00303321               -0.00351307                0.01096438                0.00252093                0.11515283                0.00039373
              14.36995196                2.18595834               94.95004409                0.49851130                0.00116192                0.00139394               -0.00434618                0.00248194                0.11658966                0.00010517
              15.36998432                2.18374143               94.79678452                0.49849148                0.00544128                0.00637820               -0.01989799                0.00196148                0.10856758               -0.00058088
              16.37006078                2.18151464               94.64341191                0.49846139                0.01012977                0.01153453               -0.03625267                0.00108654                0.09152465               -0.00187076
              17.37018692                2.17927553               94.48985266                0.49846857                0.01539210                0.01690062               -0.05375633                0.00014894                0.06657260               -0.00388415
              18.37036862                2.17702538               94.33604540                0.49855226                0.02100795                0.02244480               -0.07217737               -0.00037677                0.03530803               -0.00642735
              19.37060708                2.17477045               94.18194202                0.74933017                0.02384519                0.02805261               -0.09038422               -0.00020141                0.01591306               -0.00873434
               9.37266610                3.19681077               95.71461769                0.74937810               -0.02004418               -0.02437658                0.07722397                0.00010062                0.01350999                0.00623284
              10.37246566                3.19463216               95.56046178                0.49858340               -0.01736216               -0.01901895                0.06020381                0.00058091                0.04579058                0.00360360
              11.37231885                3.19246232               95.40686607                0.49846947               -0.01211586               -0.01370609                0.04284817                0.00139501                0.08690416                0.00225726
              12.37222334                3.19029712               95.25345792                0.49847879               -0.00724609               -0.00853707                0.02633842                0.00197997                0.10527905                0.00155438
              13.37217393                3.18813507               95.10017212                0.49849972               -0.00283055               -0.00349945                0.01062671                0.00232211                0.11550253                0.00089936
              14.37216673                3.18597284               94.94693317                0.49849849                0.00134202                0.00150408               -0.00475003                0.00227025                0.11662381                0.00009385
              15.37220077                3.18380633               94.79365929                0.49848133                0.00559818                0.00659986               -0.02039645                0.00180235                0.10831992               -0.00107551
              16.37227869                3.18163188               94.64026968                0.49845750                0.01027622                0.01190114               -0.03692687                0.00103365                0.09100856               -0.00283672
              17.37240630                3.17944756               94.48669129                0.49846753                0.01557630                0.01746463               -0.05476672                0.00022806                0.06589033               -0.00533044
              18.37259022                3.17725436               94.33286465                0.49856149                0.02131739                0.02325568               -0.07374794               -0.00022378                0.03476458               -0.00846158
              19.37283265                3.17505676               94.17874540                0.74934131                0.02424280                0.02909729               -0.09264398               -0.00007574                0.01560665               -0.01180259
               9.37481906                4.19656387               95.71155306                0.74938243               -0.02001076               -0.02486021                0.07771088                0.00011800                0.01375936                0.01077733
              10.37461895                4.19444050               95.55738019                0.49858634               -0.01728753               -0.01923057                0.06031353                0.00049602                0.04650468                0.00674006
              11.37447331                4.19232433               95.40377710                0.49847559               -0.01197403               -0.01383379                0.04275552                0.00109472                0.08822096                0.00446590
              12.37437947                4.19021131               95.25036368                0.49848462               -0.00707509               -0.00859021                0.02612042                0.00147216                0.10675543                0.00279990
              13.37433180                4.18810013               95.09707295                0.49850079               -0.00266847               -0.00347609                0.01033350                0.00167904                0.11694360                0.00145844
              14.37432610                4.18598842               94.94382737                0.49850253                0.00147609                0.00160771               -0.00510341                0.00161778                0.11786495                0.00010941
              15.37436133                4.18387342               94.79054427                0.49848339                0.00570617                0.00679435               -0.02083414                0.00127491                0.10925807               -0.00152952
              16.37444022                4.18175267               94.63714216                0.49845682                0.01038368                0.01220372               -0.03751573                0.00073513                0.09157395               -0.00371225
              17.37456900                4.17962483               94.48354778                0.49847191                0.01573627                0.01789730               -0.05561969                0.00018507                0.06609728               -0.00661643
              18.37475495                4.17749049               94.32970242                0.49857365                0.02158788                0.02383535               -0.07499657               -0.00012185                0.03476575               -0.01026950
              19.37500076                4.17535240               94.17556362                0.74934861                0.02458094                0.02985759               -0.09438248                0.00000659                0.01559154               -0.01449238
               9.37691519                5.19631357               95.70849018                0.74938398               -0.02000744               -0.02502604                0.07788916                0.00009339                0.01412393                0.01418625
              10.37671512                5.19424755               95.55429554                0.49859268               -0.01726281               -0.01927138                0.06032891                0.00028373                0.04751557                0.00910578
              11.37656994                5.19218564               95.40068409                0.49848468               -0.01190684               -0.01383733                0.04265167                0.00058062                0.09012122                0.00607636
              12.37647698                5.19012532               95.24726689                0.49849528               -0.00697678               -0.00856564                0.02592699                0.00073683                0.10899968                0.00379024
              13.37643040                5.18806555               95.09397455                0.49851481               -0.00255996               -0.00342038                0.01007546                0.00080185                0.11930149                0.00191793
              14.37642578                5.18600500               94.94072726                0.49851508                0.00158135                0.00170082               -0.00541986                0.00074107                0.12011606                0.00013269
              15.37646203                5.18394222               94.78744035                0.49849489                0.00581044                0.00693151               -0.02122565                0.00055362                0.11120898               -0.00187234
              16.37654199                5.18187596               94.63403072                0.49846981                0.01050705                0.01239165               -0.03802259                0.00028598                0.09307598               -0.00437113
              17.37667217                5.17980551               94.48042401                0.49848370                0.01591087                0.01814214               -0.05630113                0.00003141                0.06706752               -0.00759657
              18.37686021                5.17773107               94.32656104                0.49858395                0.02184011                0.02414489               -0.07591056               -0.00008978                0.03521563               -0.01169912
              19.37710897                5.17565392               94.17239980                0.74935652                0.02487625                0.03025701               -0.09555567                0.00005241                0.01580953               -0.01669569
               9.37895297                6.19606335               95.70541945                0.74938693               -0.02004173               -0.02486366                0.07778717                0.00005877                0.01462539                0.01652140
              10.37875255                6.19405507               95.55119893                0.49859767               -0.01729091               -0.01914245                0.06025898                0.00004618                0.04894558                0.01044011
              11.37860715                6.19204758               95.39758090                0.49849247               -0.01191247               -0.01371757                0.04253709                0.00003123                0.09282375                0.00693893
              12.37851430                6.19004000               95.24416392                0.49850816               -0.00694929               -0.00846158                0.02575671               -0.00002509                0.11220890                0.00431277
              13.37846816                6.18803172               95.09087558                0.49853353               -0.00250250               -0.00332999                0.00984912               -0.00008837                0.12272819                0.00216402
              14.37846425                6.18602244               94.93763313                0.49853865                0.00166368                0.00178227               -0.00570393               -0.00014009                0.12348493                0.00014645
              15.37850144                6.18401206               94.78434924                0.49851160                0.00592006                0.00700694               -0.02157568               -0.00017111                0.11426909               -0.00203886
              16.37858265                6.18200050               94.63093846                0.49848176                0.01065406                0.01246178               -0.03845490               -0.00017254                0.09559930               -0.00467329
              17.37871452                6.17998767               94.47732422                0.49849506                0.01610476                0.01820674               -0.05682781               -0.00013884                0.06885796               -0.00805839
              18.37890475                6.17797339               94.32344559                0.49859382                0.02207975                0.02420579               -0.07652838               -0.00007357                0.03613693               -0.01249606
              19.37915611                6.17595754               94.16925949                0.74935865                0.02513660                0.03030936               -0.09622689                0.00008881                0.01627479               -0.01823052
               9.38093292                7.19581629               95.70232874                0.74938471               -0.02011070               -0.02445364                0.07748523                0.00004542                0.01535194                0.01753496
              10.38073181                7.19386470               95.54807853                0.49860111               -0.01736415               -0.01887997                0.06013978               -0.00012732                0.05102353                0.01043567
              11.38058564                7.19191129               95.39445876                0.49851090               -0.01197346               -0.01351164                0.04243340               -0.00039628                0.09671298                0.00682999
              12.38049234                7.18995608               95.24104931                0.49853617               -0.00697209               -0.00830888                0.02561958               -0.00062818                0.11677762                0.00424358
              13.38044619                7.18799895               95.08777355                0.49856303               -0.00248493               -0.00322065                0.00965923               -0.00078572                0.12759505                0.00212980
              14.38044264                7.18604064               94.93454511                0.49856994                0.00171769                0.00185395               -0.00595133               -0.00082304                0.12831791                0.00014518
              15.38048055                7.18408236               94.78127351                0.49854069                0.00601417                0.00703925               -0.02188326               -0.00072605                0.11876607               -0.00196466
              16.38056293                7.18212519               94.62787029                0.49850474                0.01079758                0.01244768               -0.03882030               -0.00051221                0.09944852               -0.00446426
              17.38069650                7.18016964               94.47425555                0.49850925                0.01629716                0.01813667               -0.05722863               -0.00024038                0.07172263               -0.00771954
              18.38088887                7.17821519               94.32036484                0.49860232                0.02229797                0.02407309               -0.07690859               -0.00002538                0.03768495               -0.01225925
              19.38114246                7.17626010               94.16615193                0.74936339                0.02535883                0.03010238               -0.09649905                0.00014245                0.01707557               -0.01868064
               9.38285707                8.19557428               95.69920138                0.74938314               -0.02020621               -0.02394088                0.07710461                0.00007041                0.01645472                0.01670738
              10.38265501                8.19367747               95.54491828                0.49861094               -0.01746168               -0.01856693                0.06004967               -0.00020203                0.05410981                0.00854307
              11.38250783                8.19177735               95.39130613                0.49853983               -0.01204637               -0.01330422                0.04238732               -0.00061101                0.10237920                0.00556424
              12.38241408                8.18987382               95.23791619                0.49857592               -0.00699715               -0.00817024                0.02553253               -0.00091557                0.12328598                0.00351047
              13.38236789                8.18796730               95.08466534                0.49861546               -0.00248498               -0.00311962                0.00951446               -0.00110204                0.13443215                0.00177504
              14.38236438                8.18605952               94.93146329                0.49861762                0.00172352                0.00192239               -0.00614990               -0.00112266                0.13512327                0.00012678
              15.38240236                8.18415284               94.77821643                0.49858251                0.00603699                0.00706759               -0.02213460               -0.00096225                0.12520189               -0.00160370
              16.38248512                8.18224945               94.62483294                0.49853879                0.01086781                0.01241744               -0.03912026               -0.00064587                0.10512470               -0.00361910
              17.38261972                8.18035040               94.47122857                0.49852723                0.01643304                0.01801963               -0.05754207               -0.00025593                0.07611551               -0.00627778
              18.38281378                8.17845485               94.31733260                0.49860892                0.02247033                0.02383986               -0.07713108                0.00004066                0.04015312               -0.01036932
              19.38306912                8.17655958               94.16309211                0.74936472                0.02553451                0.02975686               -0.09648828                0.00020611                0.01838463               -0.01727968
               9.38472793                9.19533747               95.69601388                0.74938281               -0.02032300               -0.02355786                0.07683326                0.00010174                0.01800866                0.01213336
              10.38452470                9.19349336               95.54169462                0.49863440               -0.01754313               -0.01835545                0.06016370               -0.00021316                0.05882215                0.00442945
              11.38437707                9.19164521               95.38810999                0.49858986               -0.01203136               -0.01323558                0.04244666               -0.00052745                0.11077954                0.00322022
              12.38428407                9.18979268               95.23475726                0.49864083               -0.00693058               -0.00811295                0.02549319               -0.00072848                0.13241277                0.00207868
              13.38423846                9.18793655               95.08154742                0.49868288               -0.00247091               -0.00305573                0.00941536               -0.00084551                0.14385133                0.00106227
              14.38423466                9.18607909               94.92838770                0.49868358                0.00164567                0.00199927               -0.00627810               -0.00085264                0.14450854                0.00007630
              15.38427137                9.18422371               94.77518160                0.49864898                0.00588962                0.00714510               -0.02229134               -0.00072957                0.13417738               -0.00094838
              16.38435245                9.18237354               94.62183409                0.49858546                0.01073047                0.01246768               -0.03933176               -0.00049669                0.11327335               -0.00210869
              17.38448598                9.18053004               94.46825678                0.49856139                0.01640272                0.01800193               -0.05782135               -0.00021062                0.08279068               -0.00362410
              18.38468050                9.17869198               94.31437024                0.49861841                0.02255704                0.02368837               -0.07738067                0.00002668                0.04408557               -0.00612534
              19.38493712                9.17685524               94.16010427                0.74936542                0.02566181                0.02948552               -0.09640523                0.00022020                0.02046840               -0.01203602
               9.38654734               10.19510312               95.69271128                0.87469259               -0.02043253               -0.02343557                0.07724903                0.00266522                0.02332884                0.01068941
              10.38634301               10.19331037               95.53838486                0.74932663               -0.01746872               -0.01829918                0.06067420                0.00230686                0.06749007                0.00349628
              11.38619796               10.19151264               95.38486077                0.74931614               -0.01174265               -0.01325698                0.04255807                0.00214928                0.12280760                0.00303111
              12.38610816               10.18971156               95.23156524                0.74934979               -0.00666957               -0.00811162                0.02543105                0.00208620                0.14467164                0.00191331
              13.38606457               10.18790619               95.07841604                0.74937215               -0.00239937               -0.00303646                0.00933065                0.00200849                0.15649112                0.00081149
              14.38606017               10.18609950               94.92531806                0.74937668                0.00143721                0.00204159               -0.00630502                0.00202916                0.15711865               -0.00030298
              15.38609332               10.18429574               94.77217224                0.74935301                0.00543420                0.00720336               -0.02227231                0.00215955                0.14630319               -0.00142119
              16.38616886               10.18249881               94.61888086                0.74931834                0.01018748                0.01252628               -0.03937048                0.00237565                0.12449012               -0.00255080
              17.38629706               10.18071044               94.46535277                0.74929700                0.01601267                0.01804035               -0.05808446                0.00259928                0.09276046               -0.00378228
              18.38648911               10.17892862               94.31150553                0.74931900                0.02249733                0.02366383               -0.07803528                0.00280329                0.05145844               -0.00544538
              19.38674701               10.17714929               94.15724287                0.87468253                0.02579028                0.02940535               -0.09711586                0.00305642                0.02590122               -0.01047695
               9.52026258                0.20051900               96.72448658                0.87465110               -0.01555445               -0.01832510                0.06015055               -0.00195222                0.01796334               -0.00257430
              10.52010703                0.19820308               96.57025095                0.74927145               -0.01296088               -0.01454373                0.04712707               -0.00169332                0.04529719               -0.00442011
              11.52000336                0.19589789               96.41647140                0.74928516               -0.00816687               -0.01056924                0.03285237               -0.00136926                0.08491526               -0.00207756
              12.51994369                0.19360857               96.26294026                0.74934391               -0.00443627               -0.00667226                0.02007802               -0.00102530                0.10866296               -0.00129549
              13.51991463                0.19133211               96.10956505                0.74938930               -0.00183408               -0.00290745                0.00868181               -0.00081236                0.12184230               -0.00045781
              14.51990701                0.18905923               95.95625372                0.74940020                0.00018883                0.00080933               -0.00207228               -0.00082237                0.12417183                0.00036046
              15.51991841                0.18677832               95.80291020                0.74937001                0.00232978                0.00458877               -0.01302708               -0.00106655                0.11554436                0.00106915
              16.51995361                0.18447849               95.64944127                0.74931309                0.00531542                0.00853680               -0.02506250               -0.00150139                0.09655111                0.00151856
              17.52002472                0.18215313               95.49576478                0.74926667                0.00970634                0.01272038               -0.03896497               -0.00196827                0.06886020                0.00152015
              18.52014773                0.17980442               95.34181940                0.74927332                0.01518846                0.01706739               -0.05478750               -0.00229246                0.03546386                0.00099265
              19.52032849                0.17744316               95.18757085                0.87465776                0.01807521                0.02160843               -0.07016120               -0.00223419                0.01532757               -0.00004432
               9.52255898                1.20033575               96.72145037                0.74928232               -0.01583234               -0.01862742                0.06031497                0.00000699                0.01559166                0.00041754
              10.52240065                1.19805764               96.56719128                0.49848434               -0.01360275               -0.01478936                0.04722488                0.00049892                0.04426640               -0.00318833
              11.52228692                1.19579220               96.41342152                0.49848959               -0.00921603               -0.01064146                0.03318636                0.00153085                0.08332594               -0.00100051
              12.52221633                1.19354184               96.25987176                0.49856781               -0.00528723               -0.00667738                0.02029799                0.00241143                0.10441207               -0.00042864
              13.52218118                1.19130303               96.10646926                0.49863428               -0.00203246               -0.00288886                0.00850839                0.00291758                0.11644529               -0.00001730
              14.52217568                1.18906732               95.95312649                0.49865218                0.00084690                0.00083462               -0.00278492                0.00292794                0.11851170                0.00027454
              15.52219811                1.18682420               95.79975218                0.49860386                0.00377527                0.00463933               -0.01429254                0.00242289                0.11053098                0.00029682
              16.52225119                1.18456386               95.64625753                0.49852119                0.00719761                0.00866232               -0.02674700                0.00148874                0.09299563               -0.00020418
              17.52234207                1.18228033               95.49256390                0.49845977                0.01143020                0.01297948               -0.04077371                0.00040033                0.06723718               -0.00152195
              18.52247979                1.17997510               95.33861112                0.49847615                0.01626698                0.01751553               -0.05625769               -0.00031465                0.03541465               -0.00372759
              19.52266741                1.17765925               95.18435909                0.74927898                0.01876137                0.02219577               -0.07157224               -0.00020198                0.01597355               -0.00630637
               9.52481893                2.20014645               96.71838339                0.74926501               -0.01583730               -0.01949999                0.06181533                0.00012484                0.01259435                0.00313992
              10.52466056                2.19790729               96.56408417                0.49843428               -0.01345810               -0.01534428                0.04763962                0.00099111                0.04437237               -0.00090913
              11.52454977                2.19568506               96.41033681                0.49840144               -0.00897368               -0.01092185                0.03309252                0.00271051                0.08542454               -0.00028911
              12.52448109                2.19347502               96.25678393                0.49845674               -0.00511341               -0.00679171                0.02008443                0.00403195                0.10473018                0.00007807
              13.52444750                2.19127433               96.10336795                0.49850437               -0.00183446               -0.00290542                0.00821437                0.00482346                0.11595314                0.00031582
              14.52444440                2.18907592               95.95000673                0.49851578                0.00114152                0.00089312               -0.00319577                0.00484676                0.11763925                0.00038813
              15.52447033                2.18687110               95.79661099                0.49847831                0.00414288                0.00480128               -0.01484234                0.00406254                0.10949852                0.00002845
              16.52452726                2.18465173               95.64309277                0.49842016                0.00755741                0.00900225               -0.02748463                0.00260497                0.09184974               -0.00114514
              17.52462148                2.18241272               95.48937344                0.49837895                0.01176353                0.01359482               -0.04190534                0.00088517                0.06590399               -0.00352270
              18.52476253                2.18015473               95.33539321                0.49841015                0.01673336                0.01851896               -0.05831786               -0.00029073                0.03416694               -0.00720485
              19.52495615                2.17788708               95.18111786                0.74924190                0.01936230                0.02351921               -0.07522168               -0.00024373                0.01510803               -0.01138865
               9.52703980                3.19994575               96.71531621                0.74926923               -0.01579305               -0.02054357                0.06303897                0.00026656                0.01315214                0.00733223
              10.52688187                3.19775076               96.56100295                0.49843559               -0.01331965               -0.01586129                0.04795797                0.00120174                0.04519911                0.00358958
              11.52677340                3.19557376               96.40724665                0.49840627               -0.00870818               -0.01128959                0.03306855                0.00275271                0.08683331                0.00195301
              12.52670770                3.19340601               96.25368970                0.49845987               -0.00483311               -0.00700509                0.01989949                0.00380577                0.10625722                0.00127654
              13.52667674                3.19124492               96.10026536                0.49850515               -0.00159292               -0.00297833                0.00795438                0.00444735                0.11714754                0.00085254
              14.52667584                3.18908519               95.94689217                0.49851037                0.00134060                0.00095884               -0.00351955                0.00445217                0.11853810                0.00035861
              15.52670355                3.18692023               95.79348121                0.49847933                0.00429152                0.00502155               -0.01525491                0.00376915                0.11009029               -0.00052805
              16.52676168                3.18474390               95.63994418                0.49841783                0.00766082                0.00941045               -0.02806886                0.00252542                0.09205227               -0.00217549
              17.52685677                3.18255223               95.48620195                0.49837855                0.01189716                0.01424323               -0.04287741                0.00107953                0.06568333               -0.00492085
              18.52699962                3.18034548               95.33219571                0.49842500                0.01705380                0.01948103               -0.06006365                0.00004390                0.03380336               -0.00885502
              19.52719785                3.17812963               95.17789602                0.74925309                0.01982280                0.02482317               -0.07807172               -0.00000086                0.01486986               -0.01354439
               9.52921426                4.19973558               96.71225780                0.74927397               -0.01576708               -0.02125487                0.06377991                0.00029280                0.01346330                0.01107201
              10.52905659                4.19759007               96.55792306                0.49844439               -0.01323418               -0.01615983                0.04816611                0.00103249                0.04610708                0.00646309
              11.52894957                4.19545927               96.40415714                0.49841205               -0.00852727               -0.01151536                0.03304003                0.00218259                0.08851927                0.00409522
              12.52888604                4.19333492               96.25059360                0.49846227               -0.00461491               -0.00715199                0.01974023                0.00287378                0.10820392                0.00252533
              13.52885727                4.19121476               96.09716361                0.49851063               -0.00139522               -0.00302634                0.00772959                0.00328130                0.11912517                0.00140268
              14.52885814                4.18909510               95.94378325                0.49851883                0.00148640                0.00102141               -0.00379204                0.00325870                0.12033987                0.00032286
              15.52888700                4.18697153               95.79036228                0.49848451                0.00438159                0.00520516               -0.01559752                0.00277002                0.11156657               -0.00106912
              16.52894577                4.18483994               95.63681122                0.49842440                0.00772476                0.00972553               -0.02855451                0.00190669                0.09307065               -0.00311612
              17.52904150                4.18269758               95.48305015                0.49838766                0.01201172                0.01470301               -0.04365276                0.00091340                0.06619444               -0.00611395
              18.52918600                4.18054435               95.32902066                0.49843322                0.01731638                0.02010583               -0.06133633                0.00017021                0.03394303               -0.01019460
              19.52938783                4.17838354               95.17469554                0.74925881                0.02018232                0.02570390               -0.08005253                0.00012304                0.01490712               -0.01519412
               9.53133669                5.19952065               96.70919729                0.74927751               -0.01578577               -0.02146822                0.06403817                0.00023390                0.01382588                0.01370976
              10.53117883                5.19742756               96.55483900                0.49844926               -0.01322407               -0.01621913                0.04825569                0.00063707                0.04714158                0.00857924
              11.53107220                5.19534345               96.40106340                0.49841786               -0.00845715               -0.01154802                0.03298879                0.00125921                0.09049249                0.00562383
              12.53100969                5.19326297               96.24749517                0.49847401               -0.00450096               -0.00716511                0.01959805                0.00158202                0.11056767                0.00349423
              13.53098219                5.19118440               96.09406296                0.49851961               -0.00127188               -0.00300985                0.00753278                0.00174774                0.12163791                0.00183277
              14.53098425                5.18910561               95.94068037                0.49852899                0.00159627                0.00107878               -0.00403186                0.00170547                0.12276107                0.00027775
              15.53101411                5.18702433               95.78725490                0.49849467                0.00447573                0.00531099               -0.01589656                0.00144436                0.11367969               -0.00151071
              16.53107376                5.18493841               95.63369519                0.49843082                0.00782581                0.00988348               -0.02895855                0.00100783                0.09469825               -0.00384866
              17.53117063                5.18284629               95.47991995                0.49839131                0.01216508                0.01491259               -0.04423662                0.00050925                0.06723000               -0.00702290
              18.53131706                5.18074759               95.32587029                0.49843888                0.01756545                0.02037039               -0.06218555                0.00012793                0.03440362               -0.01122802
              19.53152194                5.17864371               95.17151977                0.74926605                0.02048721                0.02606669               -0.08121389                0.00015488                0.01511368               -0.01646253
               9.53340512                6.19930622               96.70612558                0.74927612               -0.01585974               -0.02120905                0.06391167                0.00015895                0.01428260                0.01543951
              10.53324653                6.19726568               96.55174199                0.49845337               -0.01328886               -0.01604749                0.04823603                0.00022173                0.04846404                0.00971789
              11.53313935                6.19522831               96.39795936                0.49843154               -0.00848943               -0.01139514                0.03291703                0.00032145                0.09302750                0.00643793
              12.53307674                6.19319161               96.24439079                0.49849020               -0.00448807               -0.00704561                0.01947169                0.00029205                0.11360550                0.00401447
              13.53304958                6.19115457               96.09096205                0.49854152               -0.00122141               -0.00292614                0.00736178                0.00023692                0.12489881                0.00205618
              14.53305231                6.18911667               95.93758378                0.49854724                0.00167538                0.00113039               -0.00424423                0.00018696                0.12597221                0.00021969
              15.53308309                6.18707775               95.78416073                0.49851062                0.00458306                0.00533532               -0.01615888                0.00015190                0.11658829               -0.00178944
              16.53314397                6.18503761               95.63059906                0.49843939                0.00797044                0.00988513               -0.02929178                0.00012805                0.09707556               -0.00425325
              17.53324250                6.18299583               95.47681534                0.49839855                0.01235850                0.01489487               -0.04465981                0.00010332                0.06888703               -0.00747548
              18.53339114                6.18095176               95.32274908                0.49844210                0.01780957                0.02033357               -0.06269633                0.00006823                0.03522864               -0.01175788
              19.53359869                6.17890487               95.16837322                0.74926864                0.02075525                0.02598408               -0.08174878                0.00016943                0.01552100               -0.01731269
               9.53542093                7.19909647               96.70303154                0.74927590               -0.01597633               -0.02062735                0.06352174                0.00012477                0.01494535                0.01606261
              10.53526117                7.19710661               96.54862060                0.49846113               -0.01341160               -0.01569365                0.04814686               -0.00006160                0.05035802                0.00962298
              11.53515270                7.19511555               96.39483644                0.49844917               -0.00859506               -0.01111031                0.03284507               -0.00037740                0.09658946                0.00636614
              12.53508927                7.19312206               96.24127508                0.49852040               -0.00454191               -0.00684036                0.01937049               -0.00070681                0.11780240                0.00399871
              13.53506186                7.19112587               96.08785844                0.49857272               -0.00122353               -0.00280075                0.00722159               -0.00093395                0.12938053                0.00202845
              14.53506480                7.18912822               95.93449366                0.49858232                0.00171738                0.00117724               -0.00442236               -0.00098069                0.13042484                0.00015466
              15.53509621                7.18713104               95.78108235                0.49853616                0.00467230                0.00530381               -0.01637842               -0.00082546                0.12072138               -0.00184193
              16.53515824                7.18513611               95.62752770                0.49846406                0.00811663                0.00977715               -0.02955739               -0.00050573                0.10059757               -0.00418897
              17.53525854                7.18314419               95.47374316                0.49841363                0.01255713                0.01471538               -0.04495482               -0.00013121                0.07149452               -0.00721028
              18.53540939                7.18115426               95.31966511                0.49845016                0.01802787                0.02008799               -0.06295590                0.00010424                0.03662707               -0.01139013
              19.53561910                7.17916339               95.16526378                0.74926696                0.02097137                0.02564325               -0.08183822                0.00022914                0.01624685               -0.01731594
               9.53738735                8.19889367               96.69989985                0.74927433               -0.01611308               -0.01992519                0.06301287                0.00015183                0.01597884                0.01507848
              10.53722622                8.19695181               96.54545959                0.49846826               -0.01354981               -0.01526945                0.04807317               -0.00017350                0.05322167                0.00783027
              11.53711635                8.19500610               96.39168360                0.49847752               -0.00869686               -0.01081769                0.03282336               -0.00071781                0.10182644                0.00526133
              12.53705228                8.19305481               96.23814136                0.49855659               -0.00458043               -0.00664478                0.01930942               -0.00119700                0.12382914                0.00338632
              13.53702474                8.19109855               96.08474909                0.49861920               -0.00123739               -0.00267969                0.00712104               -0.00149562                0.13574258                0.00171774
              14.53702753                8.18914022               95.93141026                0.49862714                0.00169748                0.00122513               -0.00454669               -0.00152925                0.13676933                0.00009278
              15.53705869                8.18718383               95.77802326                0.49857948                0.00465903                0.00527153               -0.01652690               -0.00127254                0.12670808               -0.00160514
              16.53712071                8.18523316               95.62448792                0.49849565                0.00815180                0.00965199               -0.02973660               -0.00077000                0.10585626               -0.00352019
              17.53722173                8.18329014               95.47071367                0.49843157                0.01266549                0.01448684               -0.04513981               -0.00017033                0.07556554               -0.00593341
              18.53737402                8.18135352               95.31663145                0.49845607                0.01816491                0.01974955               -0.06302894                0.00021782                0.03893831               -0.00952707
              19.53758502                8.17941774               95.16220529                0.74926852                0.02110045                0.02521657               -0.08160543                0.00032178                0.01748827               -0.01564539
               9.53930769                9.19869797               96.69670905                0.74927169               -0.01624239               -0.01938541                0.06257798                0.00017297                0.01745715                0.01079565
              10.53914527                9.19680122               96.54223737                0.49848656               -0.01361717               -0.01498824                0.04822361               -0.00021147                0.05762076                0.00408548
              11.53903535                9.19489920               96.38848834                0.49851616               -0.00861933               -0.01072050                0.03289990               -0.00063191                0.10967094                0.00314406
              12.53897288                9.19298916               96.23498225                0.49861476               -0.00444046               -0.00657364                0.01927511               -0.00097455                0.13247641                0.00208519
              13.53894654                9.19107228               96.08163050                0.49868600               -0.00119732               -0.00261850                0.00705956               -0.00118018                0.14478947                0.00106153
              14.53894893                9.18915272               95.92833390                0.49869539                0.00156427                0.00128539               -0.00458023               -0.00119476                0.14582764                0.00003549
              15.53897782                9.18723647               95.77498760                0.49864322                0.00438000                0.00531598               -0.01653129               -0.00099176                0.13532805               -0.00101856
              16.53903653                9.18532915               95.62148785                0.49854236                0.00784732                0.00964504               -0.02975349               -0.00059903                0.11358229               -0.00215026
              17.53913477                9.18343392               95.46774006                0.49845774                0.01248053                0.01438892               -0.04520577               -0.00012757                0.08181649               -0.00350443
              18.53928615                9.18154926               95.31366776                0.49846601                0.01811660                0.01951167               -0.06304034                0.00018614                0.04263923               -0.00559473
              19.53949710                9.17966772               95.15922004                0.74926733                0.02109574                0.02489594               -0.08116225                0.00030112                0.01946551               -0.01058135
               9.54118430               10.19850596               96.69341124                0.87463643               -0.01635458               -0.01920066                0.06304365                0.00226944                0.02207315                0.00956077
              10.54102076               10.19665205               96.53893357                0.74925110               -0.01342664               -0.01491749                0.04882189                0.00183551                0.06539936                0.00345888
              11.54091577               10.19479169               96.38524030                0.74927782               -0.00805268               -0.01075043                0.03294849                0.00160667                0.12092644                0.00314580
              12.54085970               10.19292333               96.23178959                0.74933210               -0.00390974               -0.00658272                0.01914900                0.00140666                0.14444912                0.00204278
              13.54083757               10.19104618               96.07849853                0.74937128               -0.00101290               -0.00260995                0.00699351                0.00123327                0.15744210                0.00085242
              14.54083945               10.18916593               95.92526476                0.74938109                0.00124256                0.00132030               -0.00446255                0.00124952                0.15854320               -0.00038481
              15.54086243               10.18729015               95.77197971                0.74935092                0.00359168                0.00536796               -0.01623568                0.00146665                0.14743231               -0.00161517
              16.54091128               10.18542606               95.61853588                0.74929079                0.00683239                0.00969025               -0.02940822                0.00186288                0.12445331               -0.00279626
              17.54099907               10.18357792               95.46483513                0.74924386                0.01163327                0.01439974               -0.04503350                0.00231530                0.09098616               -0.00393522
              18.54114394               10.18174376               95.31079777                0.74923660                0.01775210                0.01945003               -0.06329884                0.00266685                0.04902325               -0.00522508
              19.54135412               10.17991566               95.15635268                0.87463315                0.02101717                0.02479370               -0.08150142                0.00289159                0.02389288               -0.00912139
               9.67473240                0.20353560               97.72501122                0.87460264               -0.01100763               -0.01392552                0.04535841               -0.00154114                0.01572039               -0.00088503
              10.67462233                0.20121809               97.57065763                0.74919432               -0.00840716               -0.01095965                0.03410263               -0.00110676                0.04231963               -0.00465044
              11.67456426                0.19892354               97.41674748                0.74924174               -0.00409895               -0.00767796                0.02233314               -0.00039746                0.08219619               -0.00262624
              12.67454035                0.19666154               97.26310574                0.74932168               -0.00156185               -0.00476593                0.01314218                0.00033228                0.10707467               -0.00166963
              13.67453302                0.19442370               97.10963627                0.74938166               -0.00032442               -0.00216227                0.00560698                0.00073184                0.12080836               -0.00059700
              14.67453386                0.19219426               96.95623798                0.74939567                0.00037404                0.00031844               -0.00126070                0.00075516                0.12349793                0.00047658
              15.67454050                0.18995509               96.80280579                0.74935964                0.00107477                0.00288343               -0.00823393                0.00039053                0.11515494                0.00145406
              16.67455535                0.18768823               96.64923683                0.74928878                0.00242809                0.00573847               -0.01617391               -0.00036102                0.09596949                0.00214267
              17.67458906                0.18538006               96.49543864                0.74921306                0.00539893                0.00903909               -0.02626049               -0.00134178                0.06713388                0.00217624
              18.67466333                0.18302909               96.34134611                0.74918768                0.01025764                0.01280136               -0.03961625               -0.00211249                0.03286325                0.00118128
              19.67479422                0.18065294               96.18695132                0.87460558                0.01308852                0.01696433               -0.05428112               -0.00200401                0.01288704               -0.00185739
               9.67703451                1.20339635               97.72197863                0.74919144               -0.01172154               -0.01436256                0.04611734                0.00010124                0.01484458                0.00254086
              10.67691729                1.20110849               97.56760060                0.49835461               -0.00979752               -0.01135319                0.03458518                0.00104942                0.04264541               -0.00323225
              11.67683856                1.19884676               97.41370292                0.49841310               -0.00618519               -0.00780027                0.02306023                0.00301188                0.08126206               -0.00156911
              12.67679359                1.19661388               97.26004104                0.49853446               -0.00322875               -0.00479321                0.01369843                0.00455284                0.10264576               -0.00083224
              13.67677398                1.19440208               97.10653968                0.49862149               -0.00089351               -0.00216850                0.00564086                0.00539456                0.11477143               -0.00012822
              14.67677572                1.19219745               96.95310369                0.49864079                0.00117221                0.00030830               -0.00192267                0.00548464                0.11702241                0.00047985
              15.67679742                1.18998392               96.79963410                0.49858666                0.00317696                0.00289375               -0.00964697                0.00479555                0.10942169                0.00084805
              16.67683926                1.18774561               96.64603402                0.49848091                0.00538938                0.00584322               -0.01826479                0.00332524                0.09215251                0.00064836
              17.67690521                1.18547045               96.49221627                0.49837249                0.00832557                0.00934844               -0.02877659                0.00134959                0.06617135               -0.00073531
              18.67700577                1.18315711               96.33811934                0.49833719                0.01225593                0.01337973               -0.04209152               -0.00018287                0.03422906               -0.00397213
              19.67715033                1.18082258               96.18372132                0.74919250                0.01445640                0.01764088               -0.05694247               -0.00016656                0.01534561               -0.00901653
               9.67931014                2.20324835               97.71893078                0.74918211               -0.01172367               -0.01566716                0.04856859                0.00032488                0.01205600                0.00550773
              10.67919290                2.20099102               97.56449848                0.49832303               -0.00955193               -0.01217135                0.03505661                0.00205450                0.04351596               -0.00103591
              11.67911910                2.19876753               97.41061749                0.49835623               -0.00584112               -0.00828517                0.02306624                0.00524377                0.08493674               -0.00092936
              12.67907608                2.19656568               97.25695159                0.49843846               -0.00308759               -0.00504509                0.01367530                0.00744952                0.10470431               -0.00041464
              13.67905735                2.19438033               97.10343598                0.49850300               -0.00071868               -0.00228083                0.00548790                0.00875909                0.11595346                0.00019589
              14.67906171                2.19220043               96.94998017                0.49851845                0.00154486                0.00030226               -0.00227483                0.00892737                0.11782614                0.00071708
              15.67908825                2.19001296               96.79648767                0.49847843                0.00368095                0.00302792               -0.01019220                0.00789035                0.11014561                0.00083479
              16.67913533                2.18780509               96.64286221                0.49839773                0.00581559                0.00621587               -0.01897239                0.00569053                0.09277582                0.00003592
              17.67920456                2.18556703               96.48901456                0.49831568                0.00861078                0.01009937               -0.02981166                0.00274073                0.06619445               -0.00246768
              18.67930754                2.18329669               96.33487905                0.49830328                0.01276878                0.01463499               -0.04437218                0.00025895                0.03331274               -0.00749596
              19.67945994                2.18100576               96.18043758                0.74917476                0.01523924                0.01928040               -0.06200954               -0.00013785                0.01431079               -0.01470273
               9.68155566                3.20308300               97.71587847                0.74918780               -0.01164596               -0.01720584                0.05029082                0.00058934                0.01287675                0.00855958
              10.68143920                3.20086506               97.56142094                0.49832714               -0.00934429               -0.01286507                0.03543492                0.00234505                0.04504175                0.00318215
              11.68136878                3.19868105               97.40752744                0.49836417               -0.00547119               -0.00890272                0.02311900                0.00509827                0.08752840                0.00134333
              12.68132978                3.19651298               97.25385591                0.49844872               -0.00271804               -0.00546666                0.01358754                0.00681976                0.10761239                0.00083488
              13.68131441                3.19435646               97.10033120                0.49851030               -0.00040718               -0.00248794                0.00532277                0.00789080                0.11860575                0.00074372
              14.68132163                3.19220349               96.94686278                0.49852898                0.00180771                0.00031238               -0.00253112                0.00802690                0.12022991                0.00065771
              15.68135057                3.19004448               96.79335419                0.49848050                0.00386823                0.00326972               -0.01054700                0.00714397                0.11227438                0.00019429
              16.68139900                3.18786993               96.63970831                0.49839958                0.00589307                0.00671230               -0.01946697                0.00532001                0.09444332               -0.00112314
              17.68146843                3.18567244               96.48583374                0.49831917                0.00866100                0.01087614               -0.03066818                0.00293798                0.06711791               -0.00389502
              18.68157222                3.18344981               96.33166338                0.49831437                0.01305038                0.01576681               -0.04617291                0.00083095                0.03360195               -0.00866870
              19.68172944                3.18120819               96.17718397                0.74918742                0.01572188                0.02094999               -0.06555481                0.00029835                0.01439286               -0.01533353
               9.68375781                4.20290424               97.71282866                0.74919361               -0.01160538               -0.01815135                0.05118177                0.00058055                0.01326323                0.01102718
              10.68364176                4.20073372               97.55834352                0.49833538               -0.00923303               -0.01324312                0.03570830                0.00189379                0.04623238                0.00577481
              11.68357315                4.19858948               97.40443791                0.49837396               -0.00523435               -0.00925788                0.02313002                0.00387296                0.08974238                0.00339830
              12.68353707                4.19645635               97.25075848                0.49845585               -0.00242457               -0.00574860                0.01348021                0.00500476                0.11019808                0.00205234
              13.68352466                4.19433057               97.09722755                0.49851931               -0.00014201               -0.00263479                0.00516179                0.00569365                0.12129287                0.00125860
              14.68353423                4.19220667               96.94375153                0.49853224                0.00200159                0.00032645               -0.00273623                0.00576092                0.12278187                0.00055214
              15.68356469                4.19007836               96.79023232                0.49849034                0.00397695                0.00345388               -0.01081054                0.00514527                0.11451412               -0.00045865
              16.68361377                4.18793934               96.63657107                0.49840916                0.00593757                0.00706074               -0.01984691                0.00390542                0.09617188               -0.00218418
              17.68368344                4.18578455               96.48267472                0.49832560                0.00873209                0.01137126               -0.03132139                0.00229610                0.06818537               -0.00506748
              18.68378841                4.18361202               96.32847569                0.49832272                0.01328472                0.01641444               -0.04736971                0.00082201                0.03404429               -0.00947433
              19.68394914                4.18142476               96.17396257                0.74919279                0.01607256                0.02193981               -0.06762968                0.00041536                0.01454197               -0.01539765
               9.68590830                5.20271998               97.70977094                0.74919475               -0.01164633               -0.01831721                0.05141577                0.00042252                0.01357726                0.01263413
              10.68579184                5.20060020               97.55526066                0.49833878               -0.00923442               -0.01329486                0.03584183                0.00111094                0.04721267                0.00761319
              11.68572361                5.19849590               97.40134387                0.49837905               -0.00515288               -0.00930845                0.02310684                0.00217770                0.09169304                0.00482734
              12.68568878                5.19639801               97.24765885                0.49846892               -0.00228260               -0.00579819                0.01337212                0.00272583                0.11258397                0.00297642
              13.68567796                5.19430377               97.09412521                0.49853106                0.00001457               -0.00266019                0.00501311                0.00302497                0.12385871                0.00163846
              14.68568907                5.19221002               96.94064662                0.49854614                0.00214268                0.00034389               -0.00291324                0.00302880                0.12528112                0.00042287
              15.68572081                5.19011356               96.78712242                0.49850153                0.00409208                0.00352294               -0.01102722                0.00271776                0.11671893               -0.00102201
              16.68577091                5.18801114               96.63345155                0.49841305                0.00604263                0.00717893               -0.02014368                0.00210461                0.09788056               -0.00303832
              17.68584166                5.18589986               96.47953928                0.49832916                0.00887716                0.01151985               -0.03177007                0.00128745                0.06925372               -0.00597560
              18.68594845                5.18377810               96.32531733                0.49832945                0.01353083                0.01656960               -0.04805923                0.00050709                0.03447416               -0.01012628
              19.68611228                5.18164699               96.17077552                0.74919477                0.01638268                0.02212591               -0.06860131                0.00034413                0.01469384               -0.01549651
               9.68800581                6.20253789               97.70669769                0.74919379               -0.01177571               -0.01783479                0.05119494                0.00026319                0.01394579                0.01366477
              10.68788806                6.20046782               97.55216365                0.49834661               -0.00934598               -0.01303242                0.03583537                0.00038279                0.04831297                0.00855742
              11.68781889                6.19840331               97.39823924                0.49839081               -0.00521702               -0.00907637                0.02304096                0.00059476                0.09388807                0.00559471
              12.68778372                6.19634038               97.24455336                0.49848241               -0.00228732               -0.00562589                0.01326184                0.00058362                0.11527069                0.00348738
              13.68777315                6.19427737               97.09102281                0.49855216                0.00006492               -0.00256461                0.00487815                0.00052206                0.12676631                0.00182930
              14.68778501                6.19221355               96.93754824                0.49856630                0.00223870                0.00036169               -0.00306515                0.00048015                0.12814898                0.00028051
              15.68781792                6.19014881               96.78402606                0.49851749                0.00422693                0.00347146               -0.01120406                0.00047394                0.11930629               -0.00143839
              16.68786955                6.18808292               96.63035262                0.49842407                0.00621580                0.00707037               -0.02036496                0.00046485                0.09996653               -0.00359857
              17.68794224                6.18601495               96.47643103                0.49833777                0.00909378                0.01136213               -0.03205570                0.00039105                0.07065694               -0.00650810
              18.68805143                6.18394342               96.32219166                0.49833031                0.01379991                0.01634563               -0.04839804                0.00023292                0.03511873               -0.01048501
              19.68821824                6.18186727               96.16762452                0.74919774                0.01668073                0.02173671               -0.06889110                0.00027427                0.01499614               -0.01568562
               9.69005370                7.20236328               97.70359917                0.74919169               -0.01196209               -0.01697806                0.05067917                0.00019442                0.01449770                0.01389408
              10.68993407                7.20033955               97.54904147                0.49834833               -0.00953735               -0.01252572                0.03574526               -0.00006424                0.04988236                0.00842362
              11.68986295                7.19831437               97.39511566                0.49840032               -0.00538422               -0.00863215                0.02295138               -0.00051797                0.09689563                0.00560048
              12.68982639                7.19628549               97.24143672                0.49850300               -0.00238596               -0.00530029                0.01315423               -0.00102213                0.11885187                0.00354733
              13.68981523                7.19425247               97.08791798                0.49857457                0.00004181               -0.00238838                0.00476075               -0.00137741                0.13060517                0.00181378
              14.68982723                7.19221725               96.93445666                0.49859354                0.00228494                0.00037873               -0.00318462               -0.00144534                0.13196082                0.00013976
              15.68986093                7.19018299               96.78094594                0.49853802                0.00434237                0.00333396               -0.01133067               -0.00118829                0.12282711               -0.00165526
              16.68991407                7.18815255               96.62727914                0.49844298                0.00640284                0.00679909               -0.02051252               -0.00067992                0.10293631               -0.00375792
              17.68998898                7.18612711               96.47335646                0.49834690                0.00933565                0.01099420               -0.03221962               -0.00011411                0.07281670               -0.00644687
              18.69010079                7.18410501               96.31910572                0.49833801                0.01405328                0.01591249               -0.04851421                0.00020549                0.03624265               -0.01016016
              19.69027005                7.18208172               96.16451517                0.74920021                0.01692637                0.02115733               -0.06876999                0.00032020                0.01558841               -0.01541486
               9.69205716                8.20219833               97.70046163                0.74919038               -0.01214752               -0.01606450                0.05000896                0.00023506                0.01540051                0.01279886
              10.69193569                8.20021731               97.54587974                0.49835588               -0.00972826               -0.01192313                0.03565820               -0.00019570                0.05235303                0.00684342
              11.69186260                8.19823067               97.39196259                0.49842624               -0.00552581               -0.00814929                0.02288306               -0.00101376                0.10143020                0.00476068
              12.69182517                8.19623438               97.23830238                0.49853823               -0.00243786               -0.00496724                0.01305490               -0.00180018                0.12409984                0.00312164
              13.69181384                8.19422960               97.08480776                0.49862296                0.00002134               -0.00220646                0.00466480               -0.00229417                0.13618246                0.00157423
              14.69182560                8.19222113               96.93137235                0.49863380                0.00225105                0.00040237               -0.00324883               -0.00236127                0.13753355                0.00002460
              15.69185886                8.19021549               96.77788589                0.49857517                0.00431193                0.00319515               -0.01136766               -0.00195891                0.12806235               -0.00159528
              16.69191183                8.18821890               96.62423820                0.49846954                0.00643194                0.00650173               -0.02055097               -0.00115520                0.10749626               -0.00337268
              17.69198750                8.18623483               96.47032577                0.49836115                0.00945449                0.01056886               -0.03226595               -0.00019034                0.07632696               -0.00550190
              18.69210092                8.18426167               96.31607202                0.49834008                0.01418584                0.01543800               -0.04846709                0.00040546                0.03823285               -0.00853740
              19.69227122                8.18229042               96.16146000                0.74919539                0.01702908                0.02072506               -0.06836853                0.00046626                0.01668151               -0.01369060
               9.69402044                9.20204199               97.69726544                0.74919011               -0.01226105               -0.01541870                0.04938302                0.00025951                0.01679064                0.00897678
              10.69389783                9.20010109               97.54265909                0.49837073               -0.00974144               -0.01150766                0.03577670               -0.00021782                0.05629220                0.00364252
              11.69382561                9.19815138               97.38876799                0.49846384               -0.00531873               -0.00795162                0.02285939               -0.00085363                0.10843649                0.00301158
              12.69379145                9.19618615               97.23514276                0.49859502               -0.00215061               -0.00483174                0.01292481               -0.00146479                0.13202157                0.00204481
              13.69378260                9.19420834               97.08168861                0.49868042                0.00013288               -0.00212181                0.00458094               -0.00182187                0.14464332                0.00102046
              14.69379411                9.19222530               96.92829609                0.49870018                0.00206924                0.00044874               -0.00320851               -0.00185967                0.14606153               -0.00003466
              15.69382398                9.19024689               96.77485097                0.49863706                0.00387612                0.00318590               -0.01120641               -0.00153664                0.13612806               -0.00111504
              16.69387163                9.18828258               96.62123903                0.49851603                0.00592147                0.00639715               -0.02033738               -0.00088719                0.11460044               -0.00222297
              17.69394241                9.18633848               96.46735267                0.49838594                0.00908384                0.01033760               -0.03208268               -0.00007122                0.08196225               -0.00342064
              18.69405331                9.18441377               96.31310943                0.49834251                0.01397286                0.01512097               -0.04825944                0.00044204                0.04162812               -0.00507704
              19.69422187                9.18249622               96.15848102                0.74919423                0.01685586                0.02055790               -0.06770745                0.00043715                0.01858543               -0.00899485
               9.69594415               10.20188996               97.69397215                0.87459660               -0.01222164               -0.01520360                0.04969828                0.00209195                0.02039041                0.00796310
              10.69582194               10.19998716               97.53936130                0.74919318               -0.00918444               -0.01139330                0.03627965                0.00149507                0.06283846                0.00357871
              11.69576047               10.19807163               97.38551974                0.74925087               -0.00415130               -0.00797503                0.02266818                0.00101505                0.11870757                0.00342652
              12.69573891               10.19613774               97.23194822                0.74932175               -0.00111091               -0.00484061                0.01259919                0.00052270                0.14371977                0.00226908
              13.69573825               10.19418716               97.07855591                0.74937090                0.00054731               -0.00211798                0.00445857                0.00018325                0.15743017                0.00092538
              14.69574986               10.19223010               96.92522881                0.74938337                0.00162977                0.00048008               -0.00297555                0.00017732                0.15904401               -0.00050495
              15.69577084               10.19027921               96.77184753                0.74934617                0.00263188                0.00323227               -0.01061544                0.00052321                0.14837244               -0.00192576
              16.69580250               10.18834684               96.61829269                0.74927811                0.00420239                0.00642552               -0.01952263                0.00120516                0.12523975               -0.00323417
              17.69585489               10.18644158               96.46445210                0.74920592                0.00747652                0.01031012               -0.03132026                0.00211040                0.09034340               -0.00434571
              18.69595203               10.18456409               96.31023955                0.74917715                0.01300800                0.01503173               -0.04785269                0.00287158                0.04691112               -0.00530680
              19.69611505               10.18270158               96.15561284                0.87459741                0.01630242                0.02053569               -0.06734273                0.00306775                0.02179964               -0.00754143
               9.82928416                0.20656647               98.72539374                0.87456364               -0.00670067               -0.00994667                0.03163240               -0.00145510                0.01318136                0.00111720
              10.82921716                0.20422414               98.57093300                0.74914035               -0.00424979               -0.00719880                0.02110721               -0.00038749                0.03925928               -0.00533366
              11.82919917                0.20193449               98.41691806                0.74920805               -0.00103786               -0.00436807                0.01265326                0.00127627                0.07833940               -0.00340734
              12.82919640                0.19970457               98.26320311                0.74929113               -0.00003042               -0.00252151                0.00724635                0.00255203                0.10208115               -0.00211302
              13.82919856                0.19751335               98.10967719                0.74935036                0.00055235               -0.00125916                0.00297054                0.00317917                0.11463508               -0.00077662
              14.82920745                0.19533735               97.95622850                0.74936345                0.00120481               -0.00026206               -0.00091122                0.00329748                0.11731757                0.00056632
              15.82922266                0.19315078               97.80274553                0.74933411                0.00163522                0.00085091               -0.00476115                0.00283614                0.11042652                0.00185953
              16.82924015                0.19092696               97.64911779                0.74926489                0.00177294                0.00244827               -0.00903238                0.00172247                0.09352572                0.00294677
              17.82925811                0.18864139               97.49523957                0.74918210                0.00260857                0.00483190               -0.01475025               -0.00006152                0.06617618                0.00333829
              18.82929232                0.18628160               97.34102707                0.74913185                0.00588535                0.00811222               -0.02420372               -0.00206862                0.03162998                0.00204752
              19.82937582                0.18386601               97.18648523                0.87456820                0.00834986                0.01266396               -0.03904465               -0.00210540                0.01113429               -0.00337347
               9.83161195                1.20646700               98.72237271                0.74912397               -0.00826743               -0.01048484                0.03351554                0.00053976                0.01435417                0.00568351
              10.83152927                1.20415215               98.56788298                0.49825864               -0.00701164               -0.00789526                0.02197346                0.00254103                0.04162628               -0.00387498
              11.83147171                1.20189081               98.41388272                0.49836606               -0.00483911               -0.00462670                0.01390874                0.00617179                0.07838500               -0.00213269
              12.83143249                1.19967935               98.26014573                0.49849171               -0.00288764               -0.00263532                0.00821554                0.00851168                0.09773513               -0.00106942
              13.83141396                1.19750076               98.10658207                0.49857585               -0.00053915               -0.00133131                0.00325577                0.00974005                0.10823829               -0.00019525
              14.83142171                1.19533473               97.95308804                0.49859790                0.00211254               -0.00030890               -0.00144544                0.01001568                0.11026518                0.00061129
              15.83145621                1.19315929               97.79955924                0.49855192                0.00451820                0.00084652               -0.00620367                0.00926317                0.10406527                0.00128381
              16.83151207                1.19095144               97.64589223                0.49845342                0.00619838                0.00256044               -0.01141481                0.00730780                0.08932483                0.00155442
              17.83158018                1.18868971               97.49198837                0.49832186                0.00736277                0.00522514               -0.01791940                0.00408516                0.06568740                0.00065981
              18.83165933                1.18636272               97.33776929                0.49824898                0.00950892                0.00895866               -0.02782889                0.00081865                0.03452248               -0.00328835
              19.83177036                1.18399265               97.18322024                0.74913233                0.01110311                0.01321820               -0.04393273                0.00046627                0.01548274               -0.01259890
               9.83392467                2.20635677               98.71935476                0.74912439               -0.00804971               -0.01239669                0.03709279                0.00096826                0.01230773                0.00864176
              10.83384417                2.20406623               98.56478531                0.49824819               -0.00646359               -0.00913953                0.02220393                0.00448197                0.04488845               -0.00199057
              11.83379540                2.20184196               98.41079814                0.49833109               -0.00437438               -0.00552973                0.01432681                0.01014608                0.08581995               -0.00165202
              12.83375668                2.19965186               98.25705744                0.49842384               -0.00287057               -0.00317729                0.00856454                0.01342329                0.10372009               -0.00080569
              13.83373799                2.19748672               98.10347771                0.49848507               -0.00037269               -0.00162617                0.00328946                0.01536650                0.11334174                0.00009353
              14.83374923                2.19533117               97.94996123                0.49850399                0.00266098               -0.00038730               -0.00178443                0.01583659                0.11508024                0.00095050
              15.83379121                2.19316771               97.79640714                0.49846644                0.00533285                0.00100913               -0.00688121                0.01471496                0.10898524                0.00153698
              16.83385589                2.19097817               97.64271332                0.49839092                0.00686665                0.00305715               -0.01229768                0.01185517                0.09435675                0.00137123
              17.83392854                2.18874589               97.48877720                0.49828938                0.00749338                0.00622267               -0.01886642                0.00732403                0.06982986               -0.00060016
              18.83400576                2.18646077               97.33450576                0.49823436                0.00983771                0.01063686               -0.02975962                0.00232937                0.03602136               -0.00648408
              19.83412529                2.18413037               97.17987767                0.74913187                0.01195375                0.01526592               -0.05099156                0.00066857                0.01517522               -0.01871329
               9.83621240                3.20621907               98.71632203                0.74913052               -0.00786671               -0.01465603                0.03899988                0.00128533                0.01362147                0.00945041
              10.83613373                3.20396936               98.56171165                0.49826116               -0.00616966               -0.01001957                0.02260974                0.00444786                0.04767376                0.00210299
              11.83608900                3.20178021               98.40770903                0.49834893               -0.00387705               -0.00655720                0.01441904                0.00902537                0.09046316                0.00047563
              12.83605619                3.19961581               98.25396145                0.49843957               -0.00235102               -0.00394210                0.00862564                0.01158490                0.10884137                0.00032180
              13.83604198                3.19746824               98.10037181                0.49850281                0.00006324               -0.00203951                0.00322554                0.01316374                0.11829573                0.00057634
              14.83605745                3.19532698               97.94684155                0.49851974                0.00307656               -0.00044361               -0.00201306                0.01355035                0.11986826                0.00086144
              15.83610351                3.19317947               97.79327027                0.49848407                0.00567697                0.00132148               -0.00725990                0.01260727                0.11361042                0.00085979
              16.83617099                3.19101259               97.63955484                0.49840277                0.00702710                0.00374230               -0.01279969                0.01028017                0.09857726                0.00010377
              17.83624406                3.18881416               97.48558859                0.49829994                0.00752201                0.00724024               -0.01962246                0.00674580                0.07308358               -0.00217717
              18.83632143                3.18657546               97.33127225                0.49824474                0.01002363                0.01200738               -0.03148972                0.00285428                0.03796119               -0.00724161
              19.83644453                3.18429797               97.17658492                0.74913713                0.01230959                0.01768306               -0.05491572                0.00123093                0.01618178               -0.01634060
               9.83844980                4.20606365               98.71328144                0.74913411               -0.00778155               -0.01573822                0.03977960                0.00103874                0.01392788                0.01007740
              10.83837198                4.20386584               98.55863722                0.49826534               -0.00601731               -0.01048326                0.02295515                0.00317939                0.04893151                0.00440092
              11.83832945                4.20171081               98.40461974                0.49835602               -0.00358111               -0.00707738                0.01447233                0.00630274                0.09291093                0.00231074
              12.83830036                4.19957302               98.25086320                0.49845864               -0.00196836               -0.00440917                0.00858209                0.00794791                0.11169056                0.00138566
              13.83829009                4.19744593               98.09726685                0.49851793                0.00043198               -0.00231683                0.00312174                0.00894403                0.12127855                0.00099441
              14.83830900                4.19532230               97.94372852                0.49853379                0.00338311               -0.00048125               -0.00219049                0.00917061                0.12276785                0.00069575
              15.83835775                4.19319414               97.79014607                0.49849944                0.00588995                0.00153378               -0.00751170                0.00853805                0.11626583                0.00014934
              16.83842680                4.19105302               97.63641428                0.49840747                0.00714164                0.00417503               -0.01314280                0.00700385                0.10075802               -0.00103867
              17.83850058                4.18889070               97.48242372                0.49831027                0.00761174                0.00781546               -0.02016969                0.00468879                0.07453500               -0.00339499
              18.83857904                4.18670092               97.32807327                0.49825138                0.01021567                0.01268174               -0.03247037                0.00211047                0.03852226               -0.00759985
              19.83870489                4.18448403               97.17334295                0.74914229                0.01258595                0.01869336               -0.05660111                0.00105633                0.01626477               -0.01416183
               9.84062880                5.20590431               98.71022560                0.74913361               -0.00786393               -0.01561842                0.03983477                0.00065471                0.01412262                0.01054030
              10.84055016                5.20375969               98.55555583                0.49826798               -0.00604604               -0.01049110                0.02307697                0.00168056                0.04969145                0.00591464
              11.84050788                5.20163867               98.40152554                0.49836372               -0.00350666               -0.00712021                0.01445630                0.00329391                0.09458233                0.00356722
              12.84048002                5.19952763               98.24776262                0.49846250               -0.00181455               -0.00447661                0.00850231                0.00407232                0.11378981                0.00218700
              13.84047159                5.19742190               98.09416323                0.49852662                0.00063175               -0.00237804                0.00300633                0.00448356                0.12355454                0.00128809
              14.84049266                5.19531736               97.94062211                0.49854356                0.00359873               -0.00050261               -0.00233491                0.00456430                0.12500464                0.00050309
              15.84054356                5.19321015               97.78703435                0.49850268                0.00609262                0.00156626               -0.00768909                0.00429079                0.11826318               -0.00047565
              16.84061451                5.19109609               97.63329231                0.49841736                0.00731832                0.00425177               -0.01336878                0.00359311                0.10232064               -0.00196037
              17.84068993                5.18897047               97.47928454                0.49830946                0.00778962                0.00788964               -0.02048050                0.00245140                0.07548731               -0.00431748
              18.84077030                5.18682909               97.32490911                0.49824958                0.01047505                0.01263714               -0.03290107                0.00111762                0.03882631               -0.00796265
              19.84089943                5.18467184               97.17014775                0.74914398                0.01291228                0.01837401               -0.05711244                0.00067469                0.01630215               -0.01312682
               9.84275212                6.20575128               98.70714948                0.74913548               -0.00808859               -0.01469483                0.03945922                0.00034765                0.01436488                0.01090185
              10.84267123                6.20365602               98.55245869                0.49827339               -0.00623603               -0.01003529                0.02301784                0.00046458                0.05044271                0.00667497
              11.84262740                6.20156841               98.39842018                0.49837029               -0.00363282               -0.00672307                0.01435503                0.00074806                0.09620946                0.00424376
              12.84259858                6.19948349               98.24465603                0.49847673               -0.00186870               -0.00418213                0.00838264                0.00069620                0.11585624                0.00264176
              13.84259002                6.19739837               98.09105961                0.49853897                0.00067310               -0.00223495                0.00288657                0.00056005                0.12581049                0.00143024
              14.84261204                6.19531225               97.93752248                0.49855991                0.00374058               -0.00052269               -0.00244661                0.00052473                0.12722958                0.00030270
              15.84266484                6.19322546               97.78393665                0.49851934                0.00631497                0.00139802               -0.00779572                0.00062567                0.12026043               -0.00097389
              16.84273834                6.19113805               97.63019176                0.49842708                0.00758827                0.00396441               -0.01347972                0.00074816                0.10390107               -0.00262933
              17.84281660                6.18904849               97.47617422                0.49831106                0.00808427                0.00750145               -0.02060289                0.00069908                0.07648862               -0.00494810
              18.84290002                6.18695366               97.32178112                0.49825053                0.01081525                0.01208033               -0.03299870                0.00041266                0.03921438               -0.00828346
              19.84303291                6.18485152               97.16699540                0.74914566                0.01328828                0.01738878               -0.05704899                0.00041316                0.01646612               -0.01286118
               9.84482628                7.20561041               98.70404512                0.74913347               -0.00839575               -0.01339549                0.03881257                0.00020875                0.01475376                0.01082487
              10.84474233                7.20355899               98.54933551                0.49827334               -0.00654588               -0.00924777                0.02286356               -0.00025610                0.05152679                0.00659738
              11.84469537                7.20150421               98.39529546                0.49838247               -0.00391713               -0.00597080                0.01418453               -0.00100420                0.09839053                0.00433325
              12.84466398                7.19944398               98.24153816                0.49848918               -0.00206689               -0.00361443                0.00822443               -0.00182392                0.11850558                0.00276193
              13.84465403                7.19737720               98.08795365                0.49855788                0.00060396               -0.00194830                0.00276460               -0.00243450                0.12865629                0.00142648
              14.84467606                7.19530690               97.93442996                0.49857635                0.00381212               -0.00054844               -0.00251923               -0.00255280                0.13004490                0.00010805
              15.84473027                7.19323811               97.78085574                0.49853319                0.00651940                0.00107124               -0.00782286               -0.00211394                0.12283801               -0.00132333
              16.84480645                7.19117537               97.62711745                0.49844037                0.00790122                0.00338842               -0.01348050               -0.00125960                0.10603569               -0.00300667
              17.84488829                7.18912050               97.47309876                0.49832033                0.00845411                0.00677017               -0.02058636               -0.00034137                0.07797921               -0.00516665
              18.84497553                7.18707070               97.31869482                0.49825124                0.01118464                0.01127013               -0.03291672                0.00017692                0.03992565               -0.00820806
              19.84511199                7.18501961               97.16388838                0.74914413                0.01364552                0.01632769               -0.05668975                0.00038082                0.01686350               -0.01260707
               9.84685914                8.20548337               98.70090003                0.74912865               -0.00868239               -0.01217099                0.03801584                0.00026528                0.01544718                0.00979370
              10.84677231                8.20347106               98.54617275                0.49828002               -0.00684097               -0.00832386                0.02270153               -0.00040705                0.05336806                0.00540624
              11.84672232                8.20144899               98.39214126                0.49840019               -0.00416045               -0.00509620                0.01396744               -0.00174105                0.10181940                0.00383961
              12.84668910                8.19941120               98.23840245                0.49851642               -0.00219527               -0.00298854                0.00802152               -0.00304413                0.12249163                0.00255957
              13.84667841                8.19735941               98.08484239                0.49859139                0.00054850               -0.00163284                0.00263505               -0.00389385                0.13290502                0.00127789
              14.84670007                8.19530128               97.93134528                0.49860964                0.00378373               -0.00056648               -0.00253381               -0.00403869                0.13428692               -0.00005013
              15.84675409                8.19324689               97.77779591                0.49856334                0.00653393                0.00072116               -0.00773217               -0.00341389                0.12679003               -0.00145200
              16.84683075                8.19120582               97.62407690                0.49845968                0.00801804                0.00274160               -0.01333572               -0.00212990                0.10942512               -0.00297405
              17.84691445                8.18918389               97.47006835                0.49833395                0.00868492                0.00593392               -0.02043508               -0.00057197                0.08053883               -0.00472753
              18.84700445                8.18717907               97.31566211                0.49825993                0.01141275                0.01047417               -0.03272825                0.00044971                0.04133980               -0.00715609
              19.84714270                8.18517807               97.16083792                0.74914302                0.01382515                0.01576862               -0.05617941                0.00058230                0.01770319               -0.01132422
               9.84885621                9.20536699               98.69769671                0.74912611               -0.00876460               -0.01157805                0.03722549                0.00028528                0.01656301                0.00671596
              10.84876857                9.20339251               98.54295291                0.49829105               -0.00679037               -0.00759359                0.02266049               -0.00035443                0.05648579                0.00297577
              11.84872041                9.20140228               98.38894553                0.49843005               -0.00379412               -0.00461392                0.01368589               -0.00138074                0.10749362                0.00266383
              12.84869269                9.19938421               98.23524075                0.49856286               -0.00171666               -0.00267053                0.00768289               -0.00244577                0.12908806                0.00183872
              13.84868607                9.19734454               98.08172211                0.49865185                0.00075604               -0.00146571                0.00246989               -0.00307299                0.14011241                0.00088142
              14.84870781                9.19529558               97.92826973                0.49866810                0.00356897               -0.00054438               -0.00244357               -0.00316897                0.14159909               -0.00010964
              15.84875745                9.19325253               97.77476347                0.49861294                0.00595213                0.00058156               -0.00739716               -0.00267314                0.13364872               -0.00113590
              16.84882685                9.19123021               97.62108111                0.49849868                0.00730778                0.00241095               -0.01285608               -0.00163025                0.11533739               -0.00218965
              17.84890361                9.18923918               97.46709840                0.49835284                0.00817511                0.00541201               -0.01998682               -0.00026947                0.08509161               -0.00323841
              18.84899035                9.18728018               97.31270257                0.49826122                0.01110103                0.00991565               -0.03233600                0.00063916                0.04401393               -0.00448736
              19.84912563                9.18533498               97.15786589                0.74913986                0.01352776                0.01615650               -0.05551451                0.00052151                0.01926649               -0.00751054
               9.85081380               10.20525181               98.69440521                0.87456468               -0.00838695               -0.01151751                0.03729566                0.00249651                0.01909711                0.00660035
              10.85072993               10.20331919               98.53965916                0.74915282               -0.00554004               -0.00733191                0.02287844                0.00138147                0.06153208                0.00375279
              11.85070300               10.20135671               98.38569367                0.74923363               -0.00160019               -0.00455683                0.01295618                0.00018949                0.11654961                0.00389708
              12.85069793               10.19935779               98.23204157                0.74930751                0.00012947               -0.00264220                0.00699545               -0.00080667                0.14051832                0.00259445
              13.85070559               10.19733009               98.07858770                0.74935592                0.00153895               -0.00144497                0.00221208               -0.00141819                0.15306619                0.00100737
              14.85072871               10.19529039               97.92520525                0.74936566                0.00302013               -0.00051838               -0.00214990               -0.00148845                0.15487824               -0.00064698
              15.85076599               10.19325852               97.77176740                0.74933507                0.00413964                0.00059903               -0.00654213               -0.00096359                0.14611906               -0.00230852
              16.85081150               10.19125404               97.61814542                0.74927208                0.00465444                0.00238312               -0.01154459                0.00014580                0.12586618               -0.00388036
              17.85085908               10.18929213               97.46420873                0.74918547                0.00549651                0.00529549               -0.01853097                0.00171446                0.09277135               -0.00508059
              18.85092143               10.18737738               97.30984072                0.74913270                0.00922270                0.00971953               -0.03123284                0.00356124                0.04834728               -0.00580888
              19.85104354               10.18550120               97.15500583                0.87457004                0.01221052                0.01662159               -0.05448656                0.00417267                0.02173507               -0.00730541
               9.98391751                0.20960001               99.72564387                0.87454277               -0.00343170               -0.00510082                0.01800317               -0.00050106                0.01526160                0.00273215
              10.98388319                0.20721145               99.57107977                0.74911605               -0.00282836               -0.00327653                0.01090609                0.00196502                0.03748727               -0.00611851
              11.98386094                0.20492607               99.41700055                0.74918405               -0.00301743               -0.00020439                0.00705276                0.00438546                0.06789547               -0.00420640
              12.98382284                0.20273403               99.26325067                0.74923546               -0.00303077                0.00041328                0.00432514                0.00622560                0.08429504               -0.00250339
              13.98380033                0.20059840               99.10969568                0.74926554               -0.00054861               -0.00007489                0.00161392                0.00723580                0.09239530               -0.00098428
              14.98381187                0.19848652               98.95621976                0.74927670                0.00297087               -0.00095745               -0.00111719                0.00752153                0.09427128                0.00059855
              15.98385974                0.19636486               98.80271057                0.74925872                0.00599783               -0.00168773               -0.00371200                0.00706690                0.09030400                0.00216878
              16.98393183                0.19419828               98.64905619                0.74922489                0.00717813               -0.00171093               -0.00604473                0.00569781                0.07988349                0.00365381
              17.98400331                0.19194922               98.49514364                0.74917213                0.00592186               -0.00032154               -0.00837471                0.00322705                0.06132538                0.00485402
              18.98405027                0.18958562               98.34086204                0.74911339                0.00486401                0.00270325               -0.01225235               -0.00028159                0.03383367                0.00392567
              19.98410059                0.18711544               98.18617042                0.87454882                0.00503216                0.00627251               -0.02289986               -0.00126900                0.01626577               -0.00424942
               9.98630105                1.20954900               99.72264895                0.74909119               -0.00612415               -0.00640685                0.02047424                0.00185419                0.01839093                0.00839812
              10.98623981                1.20717869               99.56804006                0.49823806               -0.00787720               -0.00444561                0.01229546                0.00695690                0.04409857               -0.00427020
              11.98614351                1.20492403               99.41398110                0.49834384               -0.00954361               -0.00089461                0.00931408                0.01309530                0.07333024               -0.00133931
              12.98604894                1.20273817               99.26020535                0.49842532               -0.00735328               -0.00000935                0.00578714                0.01608423                0.08535249               -0.00070527
              13.98599644                1.20059765               99.10660480                0.49846960               -0.00225397               -0.00029672                0.00219165                0.01794230                0.09143802               -0.00010860
              14.98600386                1.19847695               98.95307478                0.49848332                0.00390464               -0.00102963               -0.00151410                0.01861700                0.09262843                0.00050754
              15.98607453                1.19634798               98.79951003                0.49847003                0.00963823               -0.00160952               -0.00516446                0.01801695                0.08911331                0.00110189
              16.98619662                1.19418117               98.64580573                0.49841360                0.01336870               -0.00141848               -0.00864858                0.01593020                0.08050382                0.00155363
              17.98634191                1.19194601               98.49185788                0.49832460                0.01338586                0.00027913               -0.01213508                0.01184447                0.06545702                0.00140374
              18.98646434                1.18961265               98.33756276                0.49822950                0.01080813                0.00392103               -0.01645386                0.00547016                0.04122555               -0.00111940
              19.98655807                1.18717817               98.18284266                0.74910144                0.00937313                0.00756861               -0.02873712                0.00250419                0.02445810               -0.01530143
               9.98869521                2.20947187               99.71967264                0.74909275               -0.00479119               -0.01018296                0.02405042                0.00245707                0.01853634                0.00997271
              10.98864730                2.20712254               99.56494255                0.49824673               -0.00659207               -0.00617420                0.01216996                0.01010892                0.05383226               -0.00322117
              11.98856337                2.20490818               99.41090403                0.49835839               -0.00881958               -0.00275308                0.01042549                0.01980193                0.09095781               -0.00143127
              12.98847091                2.20273385               99.25712288                0.49841459               -0.00714886               -0.00122577                0.00654658                0.02395851                0.10212746               -0.00065205
              13.98842039                2.20059246               99.10350177                0.49844729               -0.00185133               -0.00093981                0.00240916                0.02679368                0.10770833                0.00006264
              14.98843388                2.19846593               98.94994448                0.49846069                0.00477333               -0.00117608               -0.00190228                0.02784420                0.10882286                0.00080225
              15.98851586                2.19633267               98.79635005                0.49844777                0.01092602               -0.00126143               -0.00614189                0.02694654                0.10552007                0.00145465
              16.98865240                2.19416991               98.64261626                0.49841040                0.01464280               -0.00050608               -0.01008628                0.02388742                0.09724710                0.00176038
              17.98880872                2.19195481               98.48863723                0.49833256                0.01375528                0.00181860               -0.01374468                0.01824536                0.08145947                0.00102232
              18.98892751                2.18966404               98.33428385                0.49824167                0.01054587                0.00624095               -0.01822539                0.00913899                0.05283664               -0.00298292
              19.98901963                2.18726682               98.17941775                0.74910848                0.00921253                0.01189624               -0.03625421                0.00376147                0.03189103               -0.01902044
               9.99104885                3.20934534               99.71665847                0.74909888               -0.00431704               -0.01348303                0.02575966                0.00246572                0.01988148                0.00774393
              10.99100568                3.20705521               99.56187313                0.49825700               -0.00603032               -0.00724909                0.01271758                0.00792078                0.05638305                0.00042296
              11.99092824                3.20486897               99.40781582                0.49837214               -0.00809261               -0.00444998                0.01075105                0.01502320                0.09484012               -0.00029130
              12.99084382                3.20271365               99.25402842                0.49843518               -0.00640038               -0.00254765                0.00679098                0.01813725                0.10652153               -0.00000577
              13.99080023                3.20057885               99.10039571                0.49847003               -0.00116425               -0.00167085                0.00241708                0.02021445                0.11198147                0.00034861
              14.99082054                3.19845343               98.94682252                0.49847550                0.00546252               -0.00129512               -0.00218047                0.02101905                0.11302928                0.00071868
              15.99090948                3.19632275               98.79320900                0.49846665                0.01158451               -0.00077031               -0.00669071                0.02030082                0.10967992                0.00095382
              16.99105223                3.19417105               98.63945231                0.49842337                0.01516014                0.00055906               -0.01083919                0.01792534                0.10115738                0.00077344
              17.99121269                3.19198238               98.48544129                0.49834828                0.01414399                0.00329437               -0.01467417                0.01364276                0.08448724               -0.00040538
              18.99133511                3.18973747               98.33103359                0.49825235                0.01075290                0.00795687               -0.01973061                0.00729142                0.05442464               -0.00398389
              19.99142774                3.18741609               98.17608565                0.74911460                0.00926351                0.01559377               -0.03941637                0.00363408                0.03254701               -0.01288781
               9.99332479                4.20920221               99.71362425                0.74910049               -0.00427068               -0.01413010                0.02612968                0.00160758                0.01997691                0.00695236
              10.99328209                4.20697756               99.55880262                0.49826235               -0.00597031               -0.00790907                0.01312093                0.00485112                0.05725732                0.00217802
              11.99320539                4.20481918               99.40472735                0.49837784               -0.00791597               -0.00510835                0.01092546                0.00927834                0.09661516                0.00101631
              12.99312377                4.20268289               99.25093013                0.49843808               -0.00602397               -0.00323621                0.00686236                0.01114657                0.10855542                0.00063407
              13.99308491                4.20055905               99.09728998                0.49847160               -0.00067013               -0.00210444                0.00235474                0.01232267                0.11412624                0.00058044
              14.99311037                4.19844003               98.94370772                0.49847956                0.00596720               -0.00136477               -0.00239669                0.01278532                0.11513868                0.00056588
              15.99320425                4.19631726               98.79008208                0.49846990                0.01204565               -0.00046419               -0.00705119                0.01237273                0.11165881                0.00041414
              16.99335128                4.19418109               98.63630821                0.49842758                0.01554487                0.00117031               -0.01131673                0.01091696                0.10283210               -0.00011730
              17.99351515                4.19202069               98.48227133                0.49835065                0.01441722                0.00403155               -0.01525745                0.00820074                0.08565277               -0.00143818
              18.99363962                4.18982318               98.32782628                0.49825688                0.01099579                0.00867628               -0.02049669                0.00423328                0.05479672               -0.00416617
              19.99373507                4.18757869               98.17283055                0.74911514                0.00954430                0.01579524               -0.04020198                0.00221647                0.03244187               -0.00960224
               9.99553030                5.20906274               99.71056764                0.74910046               -0.00445686               -0.01328987                0.02592479                0.00092348                0.02007291                0.00664178
              10.99548573                5.20689702               99.55572220                0.49826466               -0.00609110               -0.00779562                0.01317352                0.00240970                0.05768150                0.00318938
              11.99540847                5.20476680               99.40163299                0.49838021               -0.00794185               -0.00504596                0.01092537                0.00461331                0.09761274                0.00185315
              12.99532689                5.20264893               99.24782889                0.49844532               -0.00594597               -0.00326132                0.00681459                0.00538002                0.10984347                0.00114216
              13.99528955                5.20053676               99.09418533                0.49847878               -0.00044287               -0.00217497                0.00225424                0.00576006                0.11552267                0.00073697
              14.99531803                5.19842613               98.94059992                0.49848590                0.00631594               -0.00141366               -0.00255640                0.00594544                0.11652133                0.00040004
              15.99541587                5.19631347               98.78696863                0.49847076                0.01245506               -0.00046530               -0.00726334                0.00589599                0.11290626               -0.00005414
              16.99556713                5.19419445               98.63318418                0.49843546                0.01593714                0.00120483               -0.01156068                0.00541330                0.10382172               -0.00081891
              17.99573462                5.19206301               98.47912967                0.49835272                0.01473215                0.00405362               -0.01550986                0.00420216                0.08625176               -0.00215524
              18.99586178                5.18991099               98.32465930                0.49826044                0.01132131                0.00844263               -0.02069704                0.00219497                0.05496649               -0.00440441
              19.99596104                5.18773200               98.16963327                0.74911793                0.00992653                0.01453621               -0.04019134                0.00129634                0.03239858               -0.00827442
               9.99767469                6.20893641               99.70748687                0.74909876               -0.00484725               -0.01167506                0.02537545                0.00040861                0.02021352                0.00657530
              10.99762622                6.20682165               99.55262400                0.49825972               -0.00644700               -0.00697913                0.01299170                0.00051951                0.05804907                0.00371088
              11.99754575                6.20471826               99.39852634                0.49838318               -0.00824066               -0.00434262                0.01077201                0.00078239                0.09846925                0.00228669
              12.99746141                6.20261767               99.24472101                0.49844872               -0.00614216               -0.00273119                0.00667202                0.00043541                0.11097766                0.00142664
              13.99742291                6.20051555               99.09108054                0.49847978               -0.00044164               -0.00192681                0.00212805                0.00005433                0.11676818                0.00080921
              14.99745257                6.19841175               98.93749931                0.49848865                0.00654700               -0.00147608               -0.00266031                0.00002055                0.11774846                0.00023403
              15.99755385                6.19630795               98.78387015                0.49848033                0.01287135               -0.00081040               -0.00733952                0.00038797                0.11400372               -0.00043590
              16.99771000                6.19420519               98.63008303                0.49843994                0.01644026                0.00064093               -0.01160220                0.00092198                0.10467527               -0.00134012
              17.99788265                6.19210177               98.47601897                0.49835505                0.01522679                0.00333167               -0.01549696                0.00117110                0.08676137               -0.00267165
              18.99801454                6.18999203               98.32153169                0.49826095                0.01181662                0.00744288               -0.02056483                0.00077770                0.05512021               -0.00469327
              19.99811899                6.18786942               98.16648354                0.74911455                0.01044503                0.01275324               -0.03978213                0.00069688                0.03245535               -0.00793269
               9.99976800                7.20882924               99.70437542                0.74909637               -0.00537280               -0.00969006                0.02460775                0.00011854                0.02045461                0.00638437
              10.99971427                7.20675744               99.54949874                0.49826443               -0.00699469               -0.00568057                0.01268374               -0.00068475                0.05858475                0.00373053
              11.99962810                7.20467995               99.39539935                0.49839000               -0.00879773               -0.00304368                0.01049150               -0.00198030                0.09959275                0.00236500
              12.99953831                7.20259430               99.24160121                0.49846068               -0.00657730               -0.00173420                0.00643927               -0.00346251                0.11237981                0.00152848
              13.99949656                7.20049823               99.08797328                0.49849454               -0.00061377               -0.00144258                0.00197939               -0.00457470                0.11826613                0.00080586
              14.99952604                7.19839661               98.93440627                0.49850315                0.00668210               -0.00156991               -0.00270465               -0.00478636                0.11921770                0.00007223
              15.99963020                7.19629726               98.78078948                0.49849077                0.01328615               -0.00146146               -0.00727792               -0.00400716                0.11533532               -0.00074088
              16.99979176                7.19420727               98.62700953                0.49844344                0.01704996               -0.00047127               -0.01145036               -0.00248592                0.10575266               -0.00171131
              17.99997120                7.19212964               98.47294473                0.49836575                0.01589603                0.00194375               -0.01526859               -0.00085031                0.08746585               -0.00297909
              19.00010968                7.19005985               98.31844739                0.49826151                0.01245042                0.00593871               -0.02023041                0.00005172                0.05540327               -0.00483131
              20.00022021                7.18798706               98.16338137                0.74911374                0.01105241                0.01085072               -0.03917054                0.00045493                0.03267906               -0.00786207
              10.00182065                8.20874261               99.70122195                0.74909528               -0.00588400               -0.00790535                0.02376616                0.00010833                0.02090600                0.00567217
              11.00176181                8.20670804               99.54633377                0.49826729               -0.00756844               -0.00416209                0.01233301               -0.00103839                0.05959269                0.00307546
              12.00166928                8.20465739               99.39224194                0.49839852               -0.00939679               -0.00138473                0.01007293               -0.00327590                0.10146080                0.00215895
              13.00157388                8.20258298               99.23846281                0.49847542               -0.00700866               -0.00052515                0.00608959               -0.00561881                0.11454352                0.00147743
              14.00152911                8.20048670               99.08486047                0.49850868               -0.00080304               -0.00087857                0.00179364               -0.00716636                0.12053770                0.00073915
              15.00155781                8.19838035               98.93132168                0.49852147                0.00669651               -0.00167313               -0.00267781               -0.00746364                0.12147612               -0.00006589
              16.00166304                8.19627872               98.77773125                0.49850497                0.01350397               -0.00222904               -0.00704462               -0.00646056                0.11741034               -0.00093124
              17.00182789                8.19419576               98.62397149                0.49845823                0.01750139               -0.00185002               -0.01106579               -0.00432015                0.10750306               -0.00187748
              18.00201307                8.19214064               98.46991707                0.49836888                0.01651285                0.00018453               -0.01481504               -0.00166874                0.08873902               -0.00297034
              19.00215815                8.19011080               98.31541746                0.49826325                0.01302976                0.00427802               -0.01976515                0.00011049                0.05605677               -0.00445101
              20.00227366                8.18808643               98.16033641                0.74911313                0.01155115                0.00955196               -0.03853334                0.00058005                0.03322804               -0.00731870
              10.00383931                9.20867113               99.69800995                0.74909592               -0.00605879               -0.00688184                0.02297626                0.00018428                0.02164273                0.00378028
              11.00377872                9.20667420               99.54311230                0.49827736               -0.00758368               -0.00291641                0.01199900               -0.00082830                0.06155863                0.00172865
              12.00368764                9.20465225               99.38904170                0.49842046               -0.00910465               -0.00020422                0.00941531               -0.00253201                0.10480751                0.00163542
              13.00359663                9.20258380               99.23529642                0.49850293               -0.00658895                0.00024969                0.00550831               -0.00451156                0.11834062                0.00116288
              14.00355586                9.20048066               99.08173801                0.49854545               -0.00059465               -0.00052814                0.00152337               -0.00569322                0.12478376                0.00053217
              15.00358474                9.19836315               98.92824722                0.49855940                0.00648607               -0.00171086               -0.00255061               -0.00590337                0.12579307               -0.00011403
              16.00368558                9.19625268               98.77470303                0.49854464                0.01293520               -0.00267746               -0.00653303               -0.00514326                0.12140794               -0.00079836
              17.00384344                9.19417027               98.62098190                0.49848286                0.01686012               -0.00275796               -0.01028105               -0.00343729                0.11082420               -0.00153842
              18.00402278                9.19213334               98.46695293                0.49838195                0.01613308               -0.00106587               -0.01398940               -0.00114529                0.09127972               -0.00226138
              19.00416610                9.19014541               98.31246271                0.49826480                0.01288849                0.00304005               -0.01908428                0.00042451                0.05755599               -0.00299323
              20.00428055                9.18817810               98.15737073                0.74911129                0.01144494                0.00945816               -0.03790147                0.00056259                0.03429355               -0.00504513
              10.00581820               10.20860497               99.69471806                0.87454648               -0.00540753               -0.00661549                0.02291085                0.00236195                0.02292309                0.00505565
              11.00576412               10.20664971               99.53981887                0.74913966               -0.00545773               -0.00244909                0.01172583                0.00095624                0.06455219                0.00381646
              12.00570904               10.20465330               99.38577887                0.74921955               -0.00544393                0.00010502                0.00788493               -0.00094616                0.11137987                0.00471815
              13.00565524               10.20258798               99.23208813                0.74926671               -0.00365705                0.00041772                0.00439645               -0.00299737                0.12774683                0.00286028
              14.00563590               10.20047613               99.07860015                0.74929469                0.00062422               -0.00045235                0.00109440               -0.00408785                0.13566137                0.00106979
              15.00566773               10.19834614               98.92518581                0.74930254                0.00585735               -0.00170080               -0.00225326               -0.00424897                0.13699259               -0.00077909
              16.00575305               10.19622517               98.77171669                0.74928849                0.01053820               -0.00275025               -0.00550209               -0.00353001                0.13194430               -0.00266010
              17.00587849               10.19414060               98.61806180                0.74925346                0.01309872               -0.00296698               -0.00857309               -0.00178762                0.11961300               -0.00456007
              18.00601502               10.19211932               98.46408148                0.74920120                0.01216918               -0.00140117               -0.01191191                0.00077395                0.09718758               -0.00637107
              19.00612187               10.19017160               98.30961490                0.74913337                0.01022567                0.00261909               -0.01759142                0.00339063                0.06042578               -0.00661850
              20.00621954               10.18827559               98.15452311                0.87455696                0.00976609                0.00974909               -0.03687287                0.00429726                0.03598010               -0.00767226
              10.13871758                0.21261096              100.72575381                1.00000000               -0.01073652               -0.00047631                0.01099402                0.00501695                0.01973944                0.00393407
              11.13861022                0.21018118              100.57115113                1.00000000               -0.01657018                0.00227790                0.00713530                0.01080269                0.03796832               -0.00525048
              12.13838618                0.20788927              100.41705912                1.00000000               -0.02115254                0.00712785                0.00585677                0.01688212                0.05944823               -0.00269216
              13.13818717                0.20574513              100.26328961                1.00000000               -0.01544020                0.00479109                0.00389420                0.02217593                0.06895001               -0.00170394
              14.13807738                0.20367544              100.10970947                1.00000000               -0.00545926                0.00170603                0.00137846                0.02429938                0.07353259               -0.00065201
              15.13807798                0.20163928               99.95620616                1.00000000                0.00574651               -0.00191247               -0.00135966                0.02509570                0.07470222                0.00043519
              16.13819231                0.19959524               99.80267129                1.00000000                0.01633872               -0.00533865               -0.00392853                0.02460592                0.07279326                0.00150423
              17.13840476                0.19750095               99.64899690                1.00000000                0.02432306               -0.00785112               -0.00592875                0.02269053                0.06733230                0.00250376
              18.13867877                0.19530997               99.49507207                1.00000000                0.02687251               -0.00857829               -0.00715635                0.01823782                0.05680267                0.00343438
              19.13894221                0.19295867               99.34078203                1.00000000                0.02028000               -0.00401517               -0.00800124                0.01201331                0.03695246                0.00312368
              20.13908437                0.19043654               99.18602723                1.00000000                0.01421607                0.00027522               -0.01431889                0.00932137                0.02289900               -0.00606352
              10.14119753                1.21260619              100.72278220                1.00000000               -0.01184363               -0.00321252                0.01332534                0.01167589                0.02431710                0.00981765
              11.14107909                1.21020396              100.56812889                1.00000000               -0.02122495               -0.00062215                0.00888284                0.02167804                0.04826844               -0.00359380
              12.14077303                1.20796055              100.41406900                1.00000000               -0.02816245                0.00446697                0.00879050                0.03185652                0.06958133                0.00102803
              13.14051584                1.20579304              100.26026147                1.00000000               -0.01998656                0.00353137                0.00561206                0.03731377                0.07453576                0.00042533
              14.14037330                1.20369250              100.10662591                1.00000000               -0.00734007                0.00108098                0.00211111                0.04101396                0.07749969                0.00030637
              15.14036904                1.20162015               99.95305776                1.00000000                0.00671159               -0.00199005               -0.00170230                0.04243898                0.07802040                0.00017181
              16.14050753                1.19954185               99.79945595                1.00000000                0.02026270               -0.00486996               -0.00540833                0.04199061                0.07637489                0.00003822
              17.14077430                1.19742244               99.64571926                1.00000000                0.03123791               -0.00670810               -0.00864653                0.03956158                0.07225322               -0.00013790
              18.14113229                1.19522419               99.49174567                1.00000000                0.03623812               -0.00635223               -0.01122179                0.03537221                0.06508535               -0.00066979
              19.14149906                1.19291852               99.33744021                1.00000000                0.02837128               -0.00141908               -0.01225506                0.02774296                0.04846369               -0.00145157
              20.14169971                1.19043929               99.18264550                1.00000000                0.02006556                0.00352176               -0.01971615                0.02262480                0.03469353               -0.01762015
              10.14375557                2.21254671              100.71983577                1.00000000               -0.00661368               -0.00919271                0.01631322                0.01136183                0.02532866                0.01023485
              11.14368943                2.21016874              100.56502870                1.00000000               -0.01606666               -0.00431053                0.00861497                0.02284218                0.06275664               -0.00352467
              12.14343423                2.20797861              100.41100665                1.00000000               -0.02439687               -0.00047403                0.01026186                0.03522540                0.09506938               -0.00020501
              13.14320149                2.20581576              100.25718837                1.00000000               -0.01818435                0.00077013                0.00654918                0.04046676                0.09902077               -0.00001916
              14.14307055                2.20369706              100.10352590                1.00000000               -0.00620401               -0.00027501                0.00241252                0.04489669                0.10175598                0.00017173
              15.14307741                2.20159948               99.94992318                1.00000000                0.00796432               -0.00210157               -0.00213005                0.04682486                0.10227347                0.00036390
              16.14322983                2.19949784               99.79628431                1.00000000                0.02181192               -0.00376690               -0.00657412                0.04635511                0.10081785                0.00054276
              17.14351365                2.19736679               99.64251160                1.00000000                0.03301516               -0.00431681               -0.01046631                0.04363193                0.09702496                0.00062780
              18.14389013                2.19518293               99.48850231                1.00000000                0.03841578               -0.00261180               -0.01349171                0.03918704                0.08962485                0.00028413
              19.14428197                2.19293029               99.33414126                1.00000000                0.03025919                0.00174168               -0.01425978                0.02952778                0.06795934               -0.00150316
              20.14449532                2.19050698               99.17915258                1.00000000                0.02133535                0.00940590               -0.02651684                0.02224966                0.04870125               -0.01842950
              10.14618070                3.21242234              100.71683722                1.00000000               -0.00766612               -0.01265882                0.01787577                0.00639271                0.02606288                0.00611286
              11.14610403                3.21011775              100.56196600                1.00000000               -0.01750887               -0.00542031                0.00928726                0.01266621                0.06417720               -0.00019853
              12.14583052                3.20795106              100.40792405                1.00000000               -0.02486543               -0.00323187                0.01082299                0.01953560                0.09679108               -0.00021039
              13.14560673                3.20580844              100.25409727                1.00000000               -0.01715031               -0.00152653                0.00688513                0.02216423                0.10109525                0.00008338
              14.14548751                3.20368700              100.10042015                1.00000000               -0.00509842               -0.00145661                0.00244386                0.02470748                0.10376129                0.00021689
              15.14550476                3.20157812               99.94679794                1.00000000                0.00899026               -0.00216324               -0.00245815                0.02608879                0.10423705                0.00034000
              16.14566732                3.19946651               99.79313646                1.00000000                0.02285424               -0.00275269               -0.00725380                0.02592935                0.10278935                0.00041321
              17.14596184                3.19733611               99.63933806                1.00000000                0.03426058               -0.00239921               -0.01142574                0.02429953                0.09889357                0.00032303
              18.14635253                3.19517195               99.48529510                1.00000000                0.04018617               -0.00046846               -0.01461904                0.02113389                0.09096362               -0.00022960
              19.14676557                3.19295335               99.33087764                1.00000000                0.03194025                0.00307938               -0.01559423                0.01446183                0.06812013               -0.00230761
              20.14699133                3.19062741               99.17579659                1.00000000                0.02257681                0.01186981               -0.02890608                0.00989943                0.04825387               -0.00955180
              10.14849259                4.21229353              100.71380403                1.00000000               -0.00785676               -0.01239108                0.01797817                0.00370230                0.02634123                0.00447579
              11.14841403                4.21006033              100.55889964                1.00000000               -0.01791717               -0.00578277                0.00970218                0.00774188                0.06490471                0.00094221
              12.14813425                4.20791397              100.40483824                1.00000000               -0.02525923               -0.00371612                0.01108929                0.01239049                0.09792675                0.00047859
              13.14790884                4.20578523              100.25100045                1.00000000               -0.01696169               -0.00244295                0.00703249                0.01358919                0.10229235                0.00031518
              14.14779502                4.20366793              100.09731394                1.00000000               -0.00445851               -0.00204625                0.00239630                0.01472404                0.10501786                0.00029573
              15.14781967                4.20155621               99.94368059                1.00000000                0.00977087               -0.00221766               -0.00271293                0.01549426                0.10548578                0.00027083
              16.14799043                4.19944278               99.79000505                1.00000000                0.02372628               -0.00227572               -0.00770377                0.01563549                0.10398587                0.00018400
              17.14829420                4.19731881               99.63618794                1.00000000                0.03525648               -0.00156087               -0.01202662                0.01494231                0.09996817               -0.00007630
              18.14869556                4.19517356               99.48211857                1.00000000                0.04107738                0.00038857               -0.01527578                0.01301870                0.09181103               -0.00075119
              19.14911575                4.19299188               99.32766333                1.00000000                0.03248138                0.00411229               -0.01629468                0.00856386                0.06862936               -0.00225366
              20.14934519                4.19074437               99.17253891                1.00000000                0.02294465                0.01129753               -0.02916399                0.00565616                0.04857031               -0.00606547
              10.15072113                5.21217452              100.71074410                1.00000000               -0.00827002               -0.01092618                0.01764637                0.00223438                0.02660391                0.00382607
              11.15063843                5.21000210              100.55581930                1.00000000               -0.01838492               -0.00533220                0.00971047                0.00404722                0.06526798                0.00145147
              12.15035343                5.20787674              100.40174405                1.00000000               -0.02569398               -0.00330940                0.01110577                0.00615085                0.09847629                0.00086270
              13.15012455                5.20575959              100.24789891                1.00000000               -0.01712130               -0.00227604                0.00700130                0.00622067                0.10297936                0.00051659
              14.15001101                5.20364607              100.09420831                1.00000000               -0.00423846               -0.00206565                0.00229783                0.00631263                0.10574913                0.00034240
              15.15003978                5.20153377               99.94057098                1.00000000                0.01032121               -0.00228175               -0.00289420                0.00663286                0.10621399                0.00019787
              16.15021743                5.19942100               99.78688909                1.00000000                0.02450646               -0.00234418               -0.00795462                0.00709381                0.10466176               -0.00000626
              17.15052991                5.19730489               99.63306110                1.00000000                0.03611997               -0.00164573               -0.01230776                0.00737775                0.10054086               -0.00036805
              18.15093983                5.19517973               99.47897435                1.00000000                0.04180587                0.00032167               -0.01553202                0.00691587                0.09222496               -0.00104288
              19.15136603                5.19303560               99.32449517                1.00000000                0.03298180                0.00399176               -0.01641395                0.00478745                0.06890404               -0.00221530
              20.15159947                5.19085336               99.16934392                1.00000000                0.02334374                0.01001945               -0.02893499                0.00343244                0.04871806               -0.00482126
              10.15288212                6.21207501              100.70765699                1.00000000               -0.00893783               -0.00857497                0.01701202                0.00124830                0.02689695                0.00351810
              11.15279275                6.20995369              100.55271853                1.00000000               -0.01911730               -0.00391337                0.00945233                0.00122158                0.06558403                0.00169813
              12.15249978                6.20784778              100.39863562                1.00000000               -0.02644107               -0.00204201                0.01092759                0.00086686                0.09894977                0.00101405
              13.15226393                6.20573971              100.24478947                1.00000000               -0.01763459               -0.00134158                0.00684575               -0.00040336                0.10357987                0.00060604
              14.15214709                6.20362661              100.09110217                1.00000000               -0.00432606               -0.00163385                0.00216280               -0.00129268                0.10640812                0.00035295
              15.15217740                6.20151058               99.93746927                1.00000000                0.01070522               -0.00238937               -0.00300403               -0.00131417                0.10686733                0.00012685
              16.15236119                6.19939590               99.78378986                1.00000000                0.02528103               -0.00294034               -0.00802933               -0.00041992                0.10525662               -0.00015069
              17.15268302                6.19728589               99.62995971                1.00000000                0.03709895               -0.00261003               -0.01233148                0.00102160                0.10102388               -0.00056215
              18.15310317                6.19517999               99.47586428                1.00000000                0.04274172               -0.00084556               -0.01546856                0.00228708                0.09255700               -0.00122501
              19.15353786                6.19307171               99.32136982                1.00000000                0.03375729                0.00263530               -0.01618685                0.00228476                0.06910629               -0.00227898
              20.15377832                6.19094476               99.16619976                1.00000000                0.02404572                0.00780671               -0.02837767                0.00221184                0.04892713               -0.00441289
              10.15498873                7.21200302              100.70453728                1.00000000               -0.00986416               -0.00563597                0.01618541                0.00065545                0.02726425                0.00329602
              11.15489009                7.20992383              100.54958918                1.00000000               -0.02019883               -0.00173365                0.00904393               -0.00078443                0.06598305                0.00168299
              12.15458476                7.20783590              100.39550529                1.00000000               -0.02762176                0.00010188                0.01059406               -0.00341773                0.09955363                0.00095058
              13.15433765                7.20573275              100.24166695                1.00000000               -0.01852351                0.00029169                0.00657408               -0.00624890                0.10433142                0.00058394
              14.15421428                7.20361340              100.08799324                1.00000000               -0.00467209               -0.00085785                0.00199622               -0.00817818                0.10721886                0.00032118
              15.15424421                7.20148598               99.93437587                1.00000000                0.01097174               -0.00257810               -0.00304046               -0.00848966                0.10766447                0.00006013
              16.15443372                7.19936219               99.78071018                1.00000000                0.02610201               -0.00405925               -0.00793012               -0.00710015                0.10598090               -0.00024872
              17.15476625                7.19725269               99.62688845                1.00000000                0.03830168               -0.00449971               -0.01210861               -0.00437053                0.10160985               -0.00066493
              18.15519975                7.19516282               99.47279339                1.00000000                0.04403525               -0.00318536               -0.01513384               -0.00121454                0.09294409               -0.00129464
              19.15564696                7.19308831               99.31829022                1.00000000                0.03489278                0.00015056               -0.01571738                0.00075348                0.06930657               -0.00230531
              20.15589761                7.19100950               99.16310497                1.00000000                0.02506506                0.00487853               -0.02763993                0.00167116                0.04921574               -0.00438215
              10.15705361                8.21196229              100.70137535                1.00000000               -0.01094383               -0.00282678                0.01533997                0.00045534                0.02770241                0.00291569
              11.15694417                8.20991902              100.54641941                1.00000000               -0.02155564                0.00090774                0.00856401               -0.00172850                0.06660477                0.00128313
              12.15662250                8.20784982              100.39234272                1.00000000               -0.02913602                0.00310829                0.01007762               -0.00628972                0.10056330                0.00067023
              13.15636145                8.20574554              100.23852425                1.00000000               -0.01961015                0.00246958                0.00614376               -0.01074135                0.10553479                0.00045389
              14.15623030                8.20360946              100.08487826                1.00000000               -0.00513189                0.00010510                0.00177946               -0.01349327                0.10849275                0.00024307
              15.15625882                8.20145902               99.93129173                1.00000000                0.01110929               -0.00284106               -0.00299519               -0.01401516                0.10893780                0.00000857
              16.15645248                8.19931472               99.77765501                1.00000000                0.02680875               -0.00555340               -0.00762327               -0.01229542                0.10713728               -0.00026947
              17.15679499                8.19719590               99.62385559                1.00000000                0.03953899               -0.00717797               -0.01159034               -0.00856259                0.10256136               -0.00063439
              18.15724326                8.19511629               99.46977205                1.00000000                0.04556287               -0.00666385               -0.01450224               -0.00362670                0.09358047               -0.00117430
              19.15770625                8.19307472               99.31526681                1.00000000                0.03630484               -0.00327122               -0.01506501                0.00013779                0.06956985               -0.00207464
              20.15796936                8.19104233               99.16006725                1.00000000                0.02631107                0.00189434               -0.02691585                0.00165321                0.04961405               -0.00426543
              10.15908438                9.21194648              100.69815624                1.00000000               -0.01163896               -0.00127886                0.01462859                0.00040170                0.02817142                0.00193909
              11.15896799                9.20994198              100.54319289                1.00000000               -0.02259706                0.00316780                0.00805880               -0.00162081                0.06780647                0.00049149
              12.15863244                9.20789807              100.38913384                1.00000000               -0.03023988                0.00634682                0.00921332               -0.00604998                0.10238133                0.00001369
              13.15836319                9.20578215              100.23535091                1.00000000               -0.02007458                0.00430133                0.00544967               -0.01062232                0.10759321                0.00009740
              14.15823095                9.20361550              100.08175258                1.00000000               -0.00522706                0.00088748                0.00145697               -0.01310724                0.11089896                0.00005072
              15.15825865                9.20142916               99.92821872                1.00000000                0.01099917               -0.00306947               -0.00285000               -0.01355822                0.11140248                0.00002415
              16.15845093                9.19925112               99.77463281                1.00000000                0.02673909               -0.00683560               -0.00702232               -0.01218116                0.10937312               -0.00003820
              17.15879343                9.19710913               99.62087549                1.00000000                0.03987324               -0.00964280               -0.01064172               -0.00888061                0.10428952               -0.00019578
              18.15924839                9.19502954               99.46681862                1.00000000                0.04651185               -0.01043397               -0.01343144               -0.00398854                0.09483080               -0.00045760
              19.15972367                9.19302288               99.31232088                1.00000000                0.03735322               -0.00670406               -0.01418319               -0.00000408                0.07021867               -0.00114903
              20.15999546                9.19104738               99.15710786                1.00000000                0.02717894                0.00003366               -0.02628745                0.00131790                0.05018838               -0.00301608
              10.16107064               10.21193671              100.69486342                1.00000000               -0.01104717               -0.00097730                0.01453635                0.00319293                0.02826975                0.00389211
              11.16096017               10.20998237              100.53989367                1.00000000               -0.02046529                0.00403891                0.00748034                0.00122064                0.06900215                0.00334526
              12.16066134               10.20797675              100.38585137                1.00000000               -0.02642975                0.00786867                0.00724998               -0.00465013                0.10702111                0.00409781
              13.16043158               10.20583157              100.23212950                1.00000000               -0.01701005                0.00494220                0.00413718               -0.01063884                0.11554480                0.00221787
              14.16032114               10.20362720              100.07860959                1.00000000               -0.00397757                0.00117070                0.00094377               -0.01267789                0.12005750                0.00080821
              15.16035203               10.20139763               99.92516018                1.00000000                0.01038768               -0.00315343               -0.00256323               -0.01312242                0.12081827               -0.00070523
              16.16052889               10.19917800               99.77165736                1.00000000                0.02434689               -0.00731197               -0.00593290               -0.01193296                0.11827336               -0.00226193
              17.16083896               10.19700304               99.61797396                1.00000000                0.03604238               -0.01060861               -0.00878403               -0.00896660                0.11170395               -0.00390865
              18.16124974               10.19490761               99.46397049                1.00000000                0.04246792               -0.01219316               -0.01109930               -0.00298546                0.09921814               -0.00598429
              19.16168832               10.19294064               99.30948889                1.00000000                0.03484877               -0.00822382               -0.01260059                0.00323531                0.07153873               -0.00629514
              20.16194671               10.19104300               99.15426837                1.00000000                0.02583915               -0.00043776               -0.02547384                0.00536182                0.05066581               -0.00720778
         1          2         13         12        122        123        134        133  
         2          3         14         13        123        124        135        134  
         3          4         15         14        124        125        136        135  
         4          5         16         15        125        126        137        136  
         5          6         17         16        126        127        138        137  
         6          7         18         17        127        128        139        138  
         7          8         19         18        128        129        140        139  
         8          9         20         19        129        130        141        140  
         9         10         21         20        130        131        142        141  
        10         11         22         21        131        132        143        142  
        12         13         24         23        133        134        145        144  
        13         14         25         24        134        135        146        145  
        14         15         26         25        135        136        147        146  
        15         16         27         26        136        137        148        147  
        16         17         28         27        137        138        149        148  
        17         18         29         28        138        139        150        149  
        18         19         30         29        139        140        151        150  
        19         20         31         30        140        141        152        151  
        20         21         32         31        141        142        153        152  
        21         22         33         32        142        143        154        153  
        23         24         35         34        144        145        156        155  
        24         25         36         35        145        146        157        156  
        25         26         37         36        146        147        158        157  
        26         27         38         37        147        148        159        158  
        27         28         39         38        148        149        160        159  
        28         29         40         39        149        150        161        160  
        29         30         41         40        150        151        162        161  
        30         31         42         41        151        152        163        162  
        31         32         43         42        152        153        164        163  
        32         33         44         43        153        154        165        164  
        34         35         46         45        155        156        167        166  
        35         36         47         46        156        157        168        167  
        36         37         48         47        157        158        169        168  
        37         38         49         48        158        159        170        169  
        38         39         50         49        159        160        171        170  
        39         40         51         50        160        161        172        171  
        40         41         52         51        161        162        173        172  
        41         42         53         52        162        163        174        173  
        42         43         54         53        163        164        175        174  
        43         44         55         54        164        165        176        175  
        45         46         57         56        166        167        178        177  
        46         47         58         57        167        168        179        178  
        47         48         59         58        168        169        180        179  
        48         49         60         59        169        170        181        180  
        49         50         61         60        170        171        182        181  
        50         51         62         61        171        172        183        182  
        51         52         63         62        172        173        184        183  
        52         53         64         63        173        174        185        184  
        53         54         65         64        174        175        186        185  
        54         55         66         65        175        176        187        186  
        56         57         68         67        177        178        189        188  
        57         58         69         68        178        179        190        189  
        58         59         70         69        179        180        191        190  
        59         60         71         70        180        181        192        191  
        60         61         72         71        181        182        193        192  
        61         62         73         72        182        183        194        193  
        62         63         74         73        183        184        195        194  
        63         64         75         74        184        185        196        195  
        64         65         76         75        185        186        197        196  
        65         66         77         76        186        187        198        197  
        67         68         79         78        188        189        200        199  
        68         69         80         79        189        190        201        200  
        69         70         81         80        190        191        202        201  
        70         71         82         81        191        192        203        202  
        71         72         83         82        192        193        204        203  
        72         73         84         83        193        194        205        204  
        73         74         85         84        194        195        206        205  
        74         75         86         85        195        196        207        206  
        75         76         87         86        196        197        208        207  
        76         77         88         87        197        198        209        208  
        78         79         90         89        199        200        211        210  
        79         80         91         90        200        201        212        211  
        80         81         92         91        201        202        213        212  
        81         82         93         92        202        203        214        213  
        82         83         94         93        203        204        215        214  
        83         84         95         94        204        205        216        215  
        84         85         96         95        205        206        217        216  
        85         86         97         96        206        207        218        217  
        86         87         98         97        207        208        219        218  
        87         88         99         98        208        209        220        219  
        89         90        101        100        210        211        222        221  
        90         91        102        101        211        212        223        222  
        91         92        103        102        212        213        224        223  
        92         93        104        103        213        214        225        224  
        93         94        105        104        214        215        226        225  
        94         95        106        105        215        216        227        226  
        95         96        107        106        216        217        228        227  
        96         97        108        107        217        218        229        228  
        97         98        109        108        218        219        230        229  
        98         99        110        109        219        220        231        230  
       100        101        112        111        221        222        233        232  
       101        102        113        112        222        223        234        233  
       102        103        114        113        223        224        235        234  
       103        104        115        114        224        225        236        235  
       104        105        116        115        225        226        237        236  
       105        106        117        116        226        227        238        237  
       106        107        118        117        227        228        239        238  
       107        108        119        118        228        229        240        239  
       108        109        120        119        229        230        241        240  
       109        110        121        120        230        231        242        241  
       122        123        134        133        243        244        255        254  
       123        124        135        134        244        245        256        255  
       124        125        136        135        245        246        257        256  
       125        126        137        136        246        247        258        257  
       126        127        138        137        247        248        259        258  
       127        128        139        138        248        249        260        259  
       128        129        140        139        249        250        261        260  
       129        130        141        140        250        251        262        261  
       130        131        142        141        251        252        263        262  
       131        132        143        142        252        253        264        263  
       133        134        145        144        254        255        266        265  
       134        135        146        145        255        256        267        266  
       135        136        147        146        256        257        268        267  
       136        137        148        147        257        258        269        268  
       137        138        149        148        258        259        270        269  
       138        139        150        149        259        260        271        270  
       139        140        151        150        260        261        272        271  
       140        141        152        151        261        262        273        272  
       141        142        153        152        262        263        274        273  
       142        143        154        153        263        264        275        274  
       144        145        156        155        265        266        277        276  
       145        146        157        156        266        267        278        277  
       146        147        158        157        267        268        279        278  
       147        148        159        158        268        269        280        279  
       148        149        160        159        269        270        281        280  
       149        150        161        160        270        271        282        281  
       150        151        162        161        271        272        283        282  
       151        152        163        162        272        273        284        283  
       152        153        164        163        273        274        285        284  
       153        154        165        164        274        275        286        285  
       155        156        167        166        276        277        288        287  
       156        157        168        167        277        278        289        288  
       157        158        169        168        278        279        290        289  
       158        159        170        169        279        280        291        290  
       159        160        171        170        280        281        292        291  
       160        161        172        171        281        282        293        292  
       161        162        173        172        282        283        294        293  
       162        163        174        173        283        284        295        294  
       163        164        175        174        284        285        296        295  
       164        165        176        175        285        286        297        296  
       166        167        178        177        287        288        299        298  
       167        168        179        178        288        289        300        299  
       168        169        180        179        289        290        301        300  
       169        170        181        180        290        291        302        301  
       170        171        182        181        291        292        303        302  
       171        172        183        182        292        293        304        303  
       172        173        184        183        293        294        305        304  
       173        174        185        184        294        295        306        305  
       174        175        186        185        295        296        307        306  
       175        176        187        186        296        297        308        307  
       177        178        189        188        298        299        310        309  
       178        179        190        189        299        300        311        310  
       179        180        191        190        300        301        312        311  
       180        181        192        191        301        302        313        312  
       181        182        193        192        302        303        314        313  
       182        183        194        193        303        304        315        314  
       183        184        195        194        304        305        316        315  
       184        185        196        195        305        306        317        316  
       185        186        197        196        306        307        318        317  
       186        187        198        197        307        308        319        318  
       188        189        200        199        309        310        321        320  
       189        190        201        200        310        311        322        321  
       190        191        202        201        311        312        323        322  
       191        192        203        202        312        313        324        323  
       192        193        204        203        313        314        325        324  
       193        194        205        204        314        315        326        325  
       194        195        206        205        315        316        327        326  
       195        196        207        206        316        317        328        327  
       196        197        208        207        317        318        329        328  
       197        198        209        208        318        319        330        329  
       199        200        211        210        320        321        332        331  
       200        201        212        211        321        322        333        332  
       201        202        213        212        322        323        334        333  
       202        203        214        213        323        324        335        334  
       203        204        215        214        324        325        336        335  
       204        205        216        215        325        326        337        336  
       205        206        217        216        326        327        338        337  
       206        207        218        217        327        328        339        338  
       207        208        219        218        328        329        340        339  
       208        209        220        219        329        330        341        340  
       210        211        222        221        331        332        343        342  
       211        212        223        222        332        333        344        343  
       212        213        224        223        333        334        345        344  
       213        214        225        224        334        335        346        345  
       214        215        226        225        335        336        347        346  
       215        216        227        226        336        337        348        347  
       216        217        228        227        337        338        349        348  
       217        218        229        228        338        339        350        349  
       218        219        230        229        339        340        351        350  
       219        220        231        230        340        341        352        351  
       221        222        233        232        342        343        354        353  
       222        223        234        233        343        344        355        354  
       223        224        235        234        344        345        356        355  
       224        225        236        235        345        346        357        356  
       225        226        237        236        346        347        358        357  
       226        227        238        237        347        348        359        358  
       227        228        239        238        348        349        360        359  
       228        229        240        239        349        350        361        360  
       229        230        241        240        350        351        362        361  
       230        231        242        241        351        352        363        362  
       243        244        255        254        364        365        376        375  
       244        245        256        255        365        366        377        376  
       245        246        257        256        366        367        378        377  
       246        247        258        257        367        368        379        378  
       247        248        259        258        368        369        380        379  
       248        249        260        259        369        370        381        380  
       249        250        261        260        370        371        382        381  
       250        251        262        261        371        372        383        382  
       251        252        263        262        372        373        384        383  
       252        253        264        263        373        374        385        384  
       254        255        266        265        375        376        387        386  
       255        256        267        266        376        377        388        387  
       256        257        268        267        377        378        389        388  
       257        258        269        268        378        379        390        389  
       258        259        270        269        379        380        391        390  
       259        260        271        270        380        381        392        391  
       260        261        272        271        381        382        393        392  
       261        262        273        272        382        383        394        393  
       262        263        274        273        383        384        395        394  
       263        264        275        274        384        385        396        395  
       265        266        277        276        386        387        398        397  
       266        267        278        277        387        388        399        398  
       267        268        279        278        388        389        400        399  
       268        269        280        279        389        390        401        400  
       269        270        281        280        390        391        402        401  
       270        271        282        281        391        392        403        402  
       271        272        283        282        392        393        404        403  
       272        273        284        283        393        394        405        404  
       273        274        285        284        394        395        406        405  
       274        275        286        285        395        396        407        406  
       276        277        288        287        397        398        409        408  
       277        278        289        288        398        399        410        409  
       278        279        290        289        399        400        411        410  
       279        280        291        290        400        401        412        411  
       280        281        292        291        401        402        413        412  
       281        282        293        292        402        403        414        413  
       282        283        294        293        403        404        415        414  
       283        284        295        294        404        405        416        415  
       284        285        296        295        405        406        417        416  
       285        286        297        296        406        407        418        417  
       287        288        299        298        408        409        420        419  
       288        289        300        299        409        410        421        420  
       289        290        301        300        410        411        422        421  
       290        291        302        301        411        412        423        422  
       291        292        303        302        412        413        424        423  
       292        293        304        303        413        414        425        424  
       293        294        305        304        414        415        426        425  
       294        295        306        305        415        416        427        426  
       295        296        307        306        416        417        428        427  
       296        297        308        307        417        418        429        428  
       298        299        310        309        419        420        431        430  
       299        300        311        310        420        421        432        431  
       300        301        312        311        421        422        433        432  
       301        302        313        312        422        423        434        433  
       302        303        314        313        423        424        435        434  
       303        304        315        314        424        425        436        435  
       304        305        316        315        425        426        437        436  
       305        306        317        316        426        427        438        437  
       306        307        318        317        427        428        439        438  
       307        308        319        318        428        429        440        439  
       309        310        321        320        430        431        442        441  
       310        311        322        321        431        432        443        442  
       311        312        323        322        432        433        444        443  
       312        313        324        323        433        434        445        444  
       313        314        325        324        434        435        446        445  
       314        315        326        325        435        436        447        446  
       315        316        327        326        436        437        448        447  
       316        317        328        327        437        438        449        448  
       317        318        329        328        438        439        450        449  
       318        319        330        329        439        440        451        450  
       320        321        332        331        441        442        453        452  
       321        322        333        332        442        443        454        453  
       322        323        334        333        443        444        455        454  
       323        324        335        334        444        445        456        455  
       324        325        336        335        445        446        457        456  
       325        326        337        336        446        447        458        457  
       326        327        338        337        447        448        459        458  
       327        328        339        338        448        449        460        459  
       328        329        340        339        449        450        461        460  
       329        330        341        340        450        451        462        461  
       331        332        343        342        452        453        464        463  
       332        333        344        343        453        454        465        464  
       333        334        345        344        454        455        466        465  
       334        335        346        345        455        456        467        466  
       335        336        347        346        456        457        468        467  
       336        337        348        347        457        458        469        468  
       337        338        349        348        458        459        470        469  
       338        339        350        349        459        460        471        470  
       339        340        351        350        460        461        472        471  
       340        341        352        351        461        462        473        472  
       342        343        354        353        463        464        475        474  
       343        344        355        354        464        465        476        475  
       344        345        356        355        465        466        477        476  
       345        346        357        356        466        467        478        477  
       346        347        358        357        467        468        479        478  
       347        348        359        358        468        469        480        479  
       348        349        360        359        469        470        481        480  
       349        350        361        360        470        471        482        481  
       350        351        362        361        471        472        483        482  
       351        352        363        362        472        473        484        483  
       364        365        376        375        485        486        497        496  
       365        366        377        376        486        487        498        497  
       366        367        378        377        487        488        499        498  
       367        368        379        378        488        489        500        499  
       368        369        380        379        489        490        501        500  
       369        370        381        380        490        491        502        501  
       370        371        382        381        491        492        503        502  
       371        372        383        382        492        493        504        503  
       372        373        384        383        493        494        505        504  
       373        374        385        384        494        495        506        505  
       375        376        387        386        496        497        508        507  
       376        377        388        387        497        498        509        508  
       377        378        389        388        498        499        510        509  
       378        379        390        389        499        500        511        510  
       379        380        391        390        500        501        512        511  
       380        381        392        391        501        502        513        512  
       381        382        393        392        502        503        514        513  
       382        383        394        393        503        504        515        514  
       383        384        395        394        504        505        516        515  
       384        385        396        395        505        506        517        516  
       386        387        398        397        507        508        519        518  
       387        388        399        398        508        509        520        519  
       388        389        400        399        509        510        521        520  
       389        390        401        400        510        511        522        521  
       390        391        402        401        511        512        523        522  
       391        392        403        402        512        513        524        523  
       392        393        404        403        513        514        525        524  
       393        394        405        404        514        515        526        525  
       394        395        406        405        515        516        527        526  
       395        396        407        406        516        517        528        527  
       397        398        409        408        518        519        530        529  
       398        399        410        409        519        520        531        530  
       399        400        411        410        520        521        532        531  
       400        401        412        411        521        522        533        532  
       401        402        413        412        522        523        534        533  
       402        403        414        413        523        524        535        534  
       403        404        415        414        524        525        536        535  
       404        405        416        415        525        526        537        536  
       405        406        417        416        526        527        538        537  
       406        407        418        417        527        528        539        538  
       408        409        420        419        529        530        541        540  
       409        410        421        420        530        531        542        541  
       410        411        422        421        531        532        543        542  
       411        412        423        422        532        533        544        543  
       412        413        424        423        533        534        545        544  
       413        414        425        424        534        535        546        545  
       414        415        426        425        535        536        547        546  
       415        416        427        426        536        537        548        547  
       416        417        428        427        537        538        549        548  
       417        418        429        428        538        539        550        549  
       419        420        431        430        540        541        552        551  
       420        421        432        431        541        542        553        552  
       421        422        433        432        542        543        554        553  
       422        423        434        433        543        544        555        554  
       423        424        435        434        544        545        556        555  
       424        425        436        435        545        546        557        556  
       425        426        437        436        546        547        558        557  
       426        427        438        437        547        548        559        558  
       427        428        439        438        548        549        560        559  
       428        429        440        439        549        550        561        560  
       430        431        442        441        551        552        563        562  
       431        432        443        442        552        553        564        563  
       432        433        444        443        553        554        565        564  
       433        434        445        444        554        555        566        565  
       434        435        446        445        555        556        567        566  
       435        436        447        446        556        557        568        567  
       436        437        448        447        557        558        569        568  
       437        438        449        448        558        559        570        569  
       438        439        450        449        559        560        571        570  
       439        440        451        450        560        561        572        571  
       441        442        453        452        562        563        574        573  
       442        443        454        453        563        564        575        574  
       443        444        455        454        564        565        576        575  
       444        445        456        455        565        566        577        576  
       445        446        457        456        566        567        578        577  
       446        447        458        457        567        568        579        578  
       447        448        459        458        568        569        580        579  
       448        449        460        459        569        570        581        580  
       449        450        461        460        570        571        582        581  
       450        451        462        461        571        572        583        582  
       452        453        464        463        573        574        585        584  
       453        454        465        464        574        575        586        585  
       454        455        466        465        575        576        587        586  
       455        456        467        466        576        577        588        587  
       456        457        468        467        577        578        589        588  
       457        458        469        468        578        579        590        589  
       458        459        470        469        579        580        591        590  
       459        460        471        470        580        581        592        591  
       460        461        472        471        581        582        593        592  
       461        462        473        472        582        583        594        593  
       463        464        475        474        584        585        596        595  
       464        465        476        475        585        586        597        596  
       465        466        477        476        586        587        598        597  
       466        467        478        477        587        588        599        598  
       467        468        479        478        588        589        600        599  
       468        469        480        479        589        590        601        600  
       469        470        481        480        590        591        602        601  
       470        471        482        481        591        592        603        602  
       471        472        483        482        592        593        604        603  
       472        473        484        483        593        594        605        604  
       485        486        497        496        606        607        618        617  
       486        487        498        497        607        608        619        618  
       487        488        499        498        608        609        620        619  
       488        489        500        499        609        610        621        620  
       489        490        501        500        610        611        622        621  
       490        491        502        501        611        612        623        622  
       491        492        503        502        612        613        624        623  
       492        493        504        503        613        614        625        624  
       493        494        505        504        614        615        626        625  
       494        495        506        505        615        616        627        626  
       496        497        508        507        617        618        629        628  
       497        498        509        508        618        619        630        629  
       498        499        510        509        619        620        631        630  
       499        500        511        510        620        621        632        631  
       500        501        512        511        621        622        633        632  
       501        502        513        512        622        623        634        633  
       502        503        514        513        623        624        635        634  
       503        504        515        514        624        625        636        635  
       504        505        516        515        625        626        637        636  
       505        506        517        516        626        627        638        637  
       507        508        519        518        628        629        640        639  
       508        509        520        519        629        630        641        640  
       509        510        521        520        630        631        642        641  
       510        511        522        521        631        632        643        642  
       511        512        523        522        632        633        644        643  
       512        513        524        523        633        634        645        644  
       513        514        525        524        634        635        646        645  
       514        515        526        525        635        636        647        646  
       515        516        527        526        636        637        648        647  
       516        517        528        527        637        638        649        648  
       518        519        530        529        639        640        651        650  
       519        520        531        530        640        641        652        651  
       520        521        532        531        641        642        653        652  
       521        522        533        532        642        643        654        653  
       522        523        534        533        643        644        655        654  
       523        524        535        534        644        645        656        655  
       524        525        536        535        645        646        657        656  
       525        526        537        536        646        647        658        657  
       526        527        538        537        647        648        659        658  
       527        528        539        538        648        649        660        659  
       529        530        541        540        650        651        662        661  
       530        531        542        541        651        652        663        662  
       531        532        543        542        652        653        664        663  
       532        533        544        543        653        654        665        664  
       533        534        545        544        654        655        666        665  
       534        535        546        545        655        656        667        666  
       535        536        547        546        656        657        668        667  
       536        537        548        547        657        658        669        668  
       537        538        549        548        658        659        670        669  
       538        539        550        549        659        660        671        670  
       540        541        552        551        661        662        673        672  
       541        542        553        552        662        663        674        673  
       542        543        554        553        663        664        675        674  
       543        544        555        554        664        665        676        675  
       544        545        556        555        665        666        677        676  
       545        546        557        556        666        667        678        677  
       546        547        558        557        667        668        679        678  
       547        548        559        558        668        669        680        679  
       548        549        560        559        669        670        681        680  
       549        550        561        560        670        671        682        681  
       551        552        563        562        672        673        684        683  
       552        553        564        563        673        674        685        684  
       553        554        565        564        674        675        686        685  
       554        555        566        565        675        676        687        686  
       555        556        567        566        676        677        688        687  
       556        557        568        567        677        678        689        688  
       557        558        569        568        678        679        690        689  
       558        559        570        569        679        680        691        690  
       559        560        571        570        680        681        692        691  
       560        561        572        571        681        682        693        692  
       562        563        574        573        683        684        695        694  
       563        564        575        574        684        685        696        695  
       564        565        576        575        685        686        697        696  
       565        566        577        576        686        687        698        697  
       566        567        578        577        687        688        699        698  
       567        568        579        578        688        689        700        699  
       568        569        580        579        689        690        701        700  
       569        570        581        580        690        691        702        701  
       570        571        582        581        691        692        703        702  
       571        572        583        582        692        693        704        703  
       573        574        585        584        694        695        706        705  
       574        575        586        585        695        696        707        706  
       575        576        587        586        696        697        708        707  
       576        577        588        587        697        698        709        708  
       577        578        589        588        698        699        710        709  
       578        579        590        589        699        700        711        710  
       579        580        591        590        700        701        712        711  
       580        581        592        591        701        702        713        712  
       581        582        593        592        702        703        714        713  
       582        583        594        593        703        704        715        714  
       584        585        596        595        705        706        717        716  
       585        586        597        596        706        707        718        717  
       586        587        598        597        707        708        719        718  
       587        588        599        598        708        709        720        719  
       588        589        600        599        709        710        721        720  
       589        590        601        600        710        711        722        721  
       590        591        602        601        711        712        723        722  
       591        592        603        602        712        713        724        723  
       592        593        604        603        713        714        725        724  
       593        594        605        604        714        715        726        725  
       606        607        618        617        727        728        739        738  
       607        608        619        618        728        729        740        739  
       608        609        620        619        729        730        741        740  
       609        610        621        620        730        731        742        741  
       610        611        622        621        731        732        743        742  
       611        612        623        622        732        733        744        743  
       612        613        624        623        733        734        745        744  
       613        614        625        624        734        735        746        745  
       614        615        626        625        735        736        747        746  
       615        616        627        626        736        737        748        747  
       617        618        629        628        738        739        750        749  
       618        619        630        629        739        740        751        750  
       619        620        631        630        740        741        752        751  
       620        621        632        631        741        742        753        752  
       621        622        633        632        742        743        754        753  
       622        623        634        633        743        744        755        754  
       623        624        635        634        744        745        756        755  
       624        625        636        635        745        746        757        756  
       625        626        637        636        746        747        758        757  
       626        627        638        637        747        748        759        758  
       628        629        640        639        749        750        761        760  
       629        630        641        640        750        751        762        761  
       630        631        642        641        751        752        763        762  
       631        632        643        642        752        753        764        763  
       632        633        644        643        753        754        765        764  
       633        634        645        644        754        755        766        765  
       634        635        646        645        755        756        767        766  
       635        636        647        646        756        757        768        767  
       636        637        648        647        757        758        769        768  
       637        638        649        648        758        759        770        769  
       639        640        651        650        760        761        772        771  
       640        641        652        651        761        762        773        772  
       641        642        653        652        762        763        774        773  
       642        643        654        653        763        764        775        774  
       643        644        655        654        764        765        776        775  
       644        645        656        655        765        766        777        776  
       645        646        657        656        766        767        778        777  
       646        647        658        657        767        768        779        778  
       647        648        659        658        768        769        780        779  
       648        649        660        659        769        770        781        780  
       650        651        662        661        771        772        783        782  
       651        652        663        662        772        773        784        783  
       652        653        664        663        773        774        785        784  
       653        654        665        664        774        775        786        785  
       654        655        666        665        775        776        787        786  
       655        656        667        666        776        777        788        787  
       656        657        668        667        777        778        789        788  
       657        658        669        668        778        779        790        789  
       658        659        670        669        779        780        791        790  
       659        660        671        670        780        781        792        791  
       661        662        673        672        782        783        794        793  
       662        663        674        673        783        784        795        794  
       663        664        675        674        784        785        796        795  
       664        665        676        675        785        786        797        796  
       665        666        677        676        786        787        798        797  
       666        667        678        677        787        788        799        798  
       667        668        679        678        788        789        800        799  
       668        669        680        679        789        790        801        800  
       669        670        681        680        790        791        802        801  
       670        671        682        681        791        792        803        802  
       672        673        684        683        793        794        805        804  
       673        674        685        684        794        795        806        805  
       674        675        686        685        795        796        807        806  
       675        676        687        686        796        797        808        807  
       676        677        688        687        797        798        809        808  
       677        678        689        688        798        799        810        809  
       678        679        690        689        799        800        811        810  
       679        680        691        690        800        801        812        811  
       680        681        692        691        801        802        813        812  
       681        682        693        692        802        803        814        813  
       683        684        695        694        804        805        816        815  
       684        685        696        695        805        806        817        816  
       685        686        697        696        806        807        818        817  
       686        687        698        697        807        808        819        818  
       687        688        699        698        808        809        820        819  
       688        689        700        699        809        810        821        820  
       689        690        701        700        810        811        822        821  
       690        691        702        701        811        812        823        822  
       691        692        703        702        812        813        824        823  
       692        693        704        703        813        814        825        824  
       694        695        706        705        815        816        827        826  
       695        696        707        706        816        817        828        827  
       696        697        708        707        817        818        829        828  
       697        698        709        708        818        819        830        829  
       698        699        710        709        819        820        831        830  
       699        700        711        710        820        821        832        831  
       700        701        712        711        821        822        833        832  
       701        702        713        712        822        823        834        833  
       702        703        714        713        823        824        835        834  
       703        704        715        714        824        825        836        835  
       705        706        717        716        826        827        838        837  
       706        707        718        717        827        828        839        838  
       707        708        719        718        828        829        840        839  
       708        709        720        719        829        830        841        840  
       709        710        721        720        830        831        842        841  
       710        711        722        721        831        832        843        842  
       711        712        723        722        832        833        844        843  
       712        713        724        723        833        834        845        844  
       713        714        725        724        834        835        846        845  
       714        715        726        725        835        836        847        846  
       727        728        739        738        848        849        860        859  
       728        729        740        739        849        850        861        860  
       729        730        741        740        850        851        862        861  
       730        731        742        741        851        852        863        862  
       731        732        743        742        852        853        864        863  
       732        733        744        743        853        854        865        864  
       733        734        745        744        854        855        866        865  
       734        735        746        745        855        856        867        866  
       735        736        747        746        856        857        868        867  
       736        737        748        747        857        858        869        868  
       738        739        750        749        859        860        871        870  
       739        740        751        750        860        861        872        871  
       740        741        752        751        861        862        873        872  
       741        742        753        752        862        863        874        873  
       742        743        754        753        863        864        875        874  
       743        744        755        754        864        865        876        875  
       744        745        756        755        865        866        877        876  
       745        746        757        756        866        867        878        877  
       746        747        758        757        867        868        879        878  
       747        748        759        758        868        869        880        879  
       749        750        761        760        870        871        882        881  
       750        751        762        761        871        872        883        882  
       751        752        763        762        872        873        884        883  
       752        753        764        763        873        874        885        884  
       753        754        765        764        874        875        886        885  
       754        755        766        765        875        876        887        886  
       755        756        767        766        876        877        888        887  
       756        757        768        767        877        878        889        888  
       757        758        769        768        878        879        890        889  
       758        759        770        769        879        880        891        890  
       760        761        772        771        881        882        893        892  
       761        762        773        772        882        883        894        893  
       762        763        774        773        883        884        895        894  
       763        764        775        774        884        885        896        895  
       764        765        776        775        885        886        897        896  
       765        766        777        776        886        887        898        897  
       766        767        778        777        887        888        899        898  
       767        768        779        778        888        889        900        899  
       768        769        780        779        889        890        901        900  
       769        770        781        780        890        891        902        901  
       771        772        783        782        892        893        904        903  
       772        773        784        783        893        894        905        904  
       773        774        785        784        894        895        906        905  
       774        775        786        785        895        896        907        906  
       775        776        787        786        896        897        908        907  
       776        777        788        787        897        898        909        908  
       777        778        789        788        898        899        910        909  
       778        779        790        789        899        900        911        910  
       779        780        791        790        900        901        912        911  
       780        781        792        791        901        902        913        912  
       782        783        794        793        903        904        915        914  
       783        784        795        794        904        905        916        915  
       784        785        796        795        905        906        917        916  
       785        786        797        796        906        907        918        917  
       786        787        798        797        907        908        919        918  
       787        788        799        798        908        909        920        919  
       788        789        800        799        909        910        921        920  
       789        790        801        800        910        911        922        921  
       790        791        802        801        911        912        923        922  
       791        792        803        802        912        913        924        923  
       793        794        805        804        914        915        926        925  
       794        795        806        805        915        916        927        926  
       795        796        807        806        916        917        928        927  
       796        797        808        807        917        918        929        928  
       797        798        809        808        918        919        930        929  
       798        799        810        809        919        920        931        930  
       799        800        811        810        920        921        932        931  
       800        801        812        811        921        922        933        932  
       801        802        813        812        922        923        934        933  
       802        803        814        813        923        924        935        934  
       804        805        816        815        925        926        937        936  
       805        806        817        816        926        927        938        937  
       806        807        818        817        927        928        939        938  
       807        808        819        818        928        929        940        939  
       808        809        820        819        929        930        941        940  
       809        810        821        820        930        931        942        941  
       810        811        822        821        931        932        943        942  
       811        812        823        822        932        933        944        943  
       812        813        824        823        933        934        945        944  
       813        814        825        824        934        935        946        945  
       815        816        827        826        936        937        948        947  
       816        817        828        827        937        938        949        948  
       817        818        829        828        938        939        950        949  
       818        819        830        829        939        940        951        950  
       819        820        831        830        940        941        952        951  
       820        821        832        831        941        942        953        952  
       821        822        833        832        942        943        954        953  
       822        823        834        833        943        944        955        954  
       823        824        835        834        944        945        956        955  
       824        825        836        835        945        946        957        956  
       826        827        838        837        947        948        959        958  
       827        828        839        838        948        949        960        959  
       828        829        840        839        949        950        961        960  
       829        830        841        840        950        951        962        961  
       830        831        842        841        951        952        963        962  
       831        832        843        842        952        953        964        963  
       832        833        844        843        953        954        965        964  
       833        834        845        844        954        955        966        965  
       834        835        846        845        955        956        967        966  
       835        836        847        846        956        957        968        967  
       848        849        860        859        969        970        981        980  
       849        850        861        860        970        971        982        981  
       850        851        862        861        971        972        983        982  
       851        852        863        862        972        973        984        983  
       852        853        864        863        973        974        985        984  
       853        854        865        864        974        975        986        985  
       854        855        866        865        975        976        987        986  
       855        856        867        866        976        977        988        987  
       856        857        868        867        977        978        989        988  
       857        858        869        868        978        979        990        989  
       859        860        871        870        980        981        992        991  
       860        861        872        871        981        982        993        992  
       861        862        873        872        982        983        994        993  
       862        863        874        873        983        984        995        994  
       863        864        875        874        984        985        996        995  
       864        865        876        875        985        986        997        996  
       865        866        877        876        986        987        998        997  
       866        867        878        877        987        988        999        998  
       867        868        879        878        988        989       1000        999  
       868        869        880        879        989        990       1001       1000  
       870        871        882        881        991        992       1003       1002  
       871        872        883        882        992        993       1004       1003  
       872        873        884        883        993        994       1005       1004  
       873        874        885        884        994        995       1006       1005  
       874        875        886        885        995        996       1007       1006  
       875        876        887        886        996        997       1008       1007  
       876        877        888        887        997        998       1009       1008  
       877        878        889        888        998        999       1010       1009  
       878        879        890        889        999       1000       1011       1010  
       879        880        891        890       1000       1001       1012       1011  
       881        882        893        892       1002       1003       1014       1013  
       882        883        894        893       1003       1004       1015       1014  
       883        884        895        894       1004       1005       1016       1015  
       884        885        896        895       1005       1006       1017       1016  
       885        886        897        896       1006       1007       1018       1017  
       886        887        898        897       1007       1008       1019       1018  
       887        888        899        898       1008       1009       1020       1019  
       888        889        900        899       1009       1010       1021       1020  
       889        890        901        900       1010       1011       1022       1021  
       890        891        902        901       1011       1012       1023       1022  
       892        893        904        903       1013       1014       1025       1024  
       893        894        905        904       1014       1015       1026       1025  
       894        895        906        905       1015       1016       1027       1026  
       895        896        907        906       1016       1017       1028       1027  
       896        897        908        907       1017       1018       1029       1028  
       897        898        909        908       1018       1019       1030       1029  
       898        899        910        909       1019       1020       1031       1030  
       899        900        911        910       1020       1021       1032       1031  
       900        901        912        911       1021       1022       1033       1032  
       901        902        913        912       1022       1023       1034       1033  
       903        904        915        914       1024       1025       1036       1035  
       904        905        916        915       1025       1026       1037       1036  
       905        906        917        916       1026       1027       1038       1037  
       906        907        918        917       1027       1028       1039       1038  
       907        908        919        918       1028       1029       1040       1039  
       908        909        920        919       1029       1030       1041       1040  
       909        910        921        920       1030       1031       1042       1041  
       910        911        922        921       1031       1032       1043       1042  
       911        912        923        922       1032       1033       1044       1043  
       912        913        924        923       1033       1034       1045       1044  
       914        915        926        925       1035       1036       1047       1046  
       915        916        927        926       1036       1037       1048       1047  
       916        917        928        927       1037       1038       1049       1048  
       917        918        929        928       1038       1039       1050       1049  
       918        919        930        929       1039       1040       1051       1050  
       919        920        931        930       1040       1041       1052       1051  
       920        921        932        931       1041       1042       1053       1052  
       921        922        933        932       1042       1043       1054       1053  
       922        923        934        933       1043       1044       1055       1054  
       923        924        935        934       1044       1045       1056       1055  
       925        926        937        936       1046       1047       1058       1057  
       926        927        938        937       1047       1048       1059       1058  
       927        928        939        938       1048       1049       1060       1059  
       928        929        940        939       1049       1050       1061       1060  
       929        930        941        940       1050       1051       1062       1061  
       930        931        942        941       1051       1052       1063       1062  
       931        932        943        942       1052       1053       1064       1063  
       932        933        944        943       1053       1054       1065       1064  
       933        934        945        944       1054       1055       1066       1065  
       934        935        946        945       1055       1056       1067       1066  
       936        937        948        947       1057       1058       1069       1068  
       937        938        949        948       1058       1059       1070       1069  
       938        939        950        949       1059       1060       1071       1070  
       939        940        951        950       1060       1061       1072       1071  
       940        941        952        951       1061       1062       1073       1072  
       941        942        953        952       1062       1063       1074       1073  
       942        943        954        953       1063       1064       1075       1074  
       943        944        955        954       1064       1065       1076       1075  
       944        945        956        955       1065       1066       1077       1076  
       945        946        957        956       1066       1067       1078       1077  
       947        948        959        958       1068       1069       1080       1079  
       948        949        960        959       1069       1070       1081       1080  
       949        950        961        960       1070       1071       1082       1081  
       950        951        962        961       1071       1072       1083       1082  
       951        952        963        962       1072       1073       1084       1083  
       952        953        964        963       1073       1074       1085       1084  
       953        954        965        964       1074       1075       1086       1085  
       954        955        966        965       1075       1076       1087       1086  
       955        956        967        966       1076       1077       1088       1087  
       956        957        968        967       1077       1078       1089       1088  
       969        970        981        980       1090       1091       1102       1101  
       970        971        982        981       1091       1092       1103       1102  
       971        972        983        982       1092       1093       1104       1103  
       972        973        984        983       1093       1094       1105       1104  
       973        974        985        984       1094       1095       1106       1105  
       974        975        986        985       1095       1096       1107       1106  
       975        976        987        986       1096       1097       1108       1107  
       976        977        988        987       1097       1098       1109       1108  
       977        978        989        988       1098       1099       1110       1109  
       978        979        990        989       1099       1100       1111       1110  
       980        981        992        991       1101       1102       1113       1112  
       981        982        993        992       1102       1103       1114       1113  
       982        983        994        993       1103       1104       1115       1114  
       983        984        995        994       1104       1105       1116       1115  
       984        985        996        995       1105       1106       1117       1116  
       985        986        997        996       1106       1107       1118       1117  
       986        987        998        997       1107       1108       1119       1118  
       987        988        999        998       1108       1109       1120       1119  
       988        989       1000        999       1109       1110       1121       1120  
       989        990       1001       1000       1110       1111       1122       1121  
       991        992       1003       1002       1112       1113       1124       1123  
       992        993       1004       1003       1113       1114       1125       1124  
       993        994       1005       1004       1114       1115       1126       1125  
       994        995       1006       1005       1115       1116       1127       1126  
       995        996       1007       1006       1116       1117       1128       1127  
       996        997       1008       1007       1117       1118       1129       1128  
       997        998       1009       1008       1118       1119       1130       1129  
       998        999       1010       1009       1119       1120       1131       1130  
       999       1000       1011       1010       1120       1121       1132       1131  
      1000       1001       1012       1011       1121       1122       1133       1132  
      1002       1003       1014       1013       1123       1124       1135       1134  
      1003       1004       1015       1014       1124       1125       1136       1135  
      1004       1005       1016       1015       1125       1126       1137       1136  
      1005       1006       1017       1016       1126       1127       1138       1137  
      1006       1007       1018       1017       1127       1128       1139       1138  
      1007       1008       1019       1018       1128       1129       1140       1139  
      1008       1009       1020       1019       1129       1130       1141       1140  
      1009       1010       1021       1020       1130       1131       1142       1141  
      1010       1011       1022       1021       1131       1132       1143       1142  
      1011       1012       1023       1022       1132       1133       1144       1143  
      1013       1014       1025       1024       1134       1135       1146       1145  
      1014       1015       1026       1025       1135       1136       1147       1146  
      1015       1016       1027       1026       1136       1137       1148       1147  
      1016       1017       1028       1027       1137       1138       1149       1148  
      1017       1018       1029       1028       1138       1139       1150       1149  
      1018       1019       1030       1029       1139       1140       1151       1150  
      1019       1020       1031       1030       1140       1141       1152       1151  
      1020       1021       1032       1031       1141       1142       1153       1152  
      1021       1022       1033       1032       1142       1143       1154       1153  
      1022       1023       1034       1033       1143       1144       1155       1154  
      1024       1025       1036       1035       1145       1146       1157       1156  
      1025       1026       1037       1036       1146       1147       1158       1157  
      1026       1027       1038       1037       1147       1148       1159       1158  
      1027       1028       1039       1038       1148       1149       1160       1159  
      1028       1029       1040       1039       1149       1150       1161       1160  
      1029       1030       1041       1040       1150       1151       1162       1161  
      1030       1031       1042       1041       1151       1152       1163       1162  
      1031       1032       1043       1042       1152       1153       1164       1163  
      1032       1033       1044       1043       1153       1154       1165       1164  
      1033       1034       1045       1044       1154       1155       1166       1165  
      1035       1036       1047       1046       1156       1157       1168       1167  
      1036       1037       1048       1047       1157       1158       1169       1168  
      1037       1038       1049       1048       1158       1159       1170       1169  
      1038       1039       1050       1049       1159       1160       1171       1170  
      1039       1040       1051       1050       1160       1161       1172       1171  
      1040       1041       1052       1051       1161       1162       1173       1172  
      1041       1042       1053       1052       1162       1163       1174       1173  
      1042       1043       1054       1053       1163       1164       1175       1174  
      1043       1044       1055       1054       1164       1165       1176       1175  
      1044       1045       1056       1055       1165       1166       1177       1176  
      1046       1047       1058       1057       1167       1168       1179       1178  
      1047       1048       1059       1058       1168       1169       1180       1179  
      1048       1049       1060       1059       1169       1170       1181       1180  
      1049       1050       1061       1060       1170       1171       1182       1181  
      1050       1051       1062       1061       1171       1172       1183       1182  
      1051       1052       1063       1062       1172       1173       1184       1183  
      1052       1053       1064       1063       1173       1174       1185       1184  
      1053       1054       1065       1064       1174       1175       1186       1185  
      1054       1055       1066       1065       1175       1176       1187       1186  
      1055       1056       1067       1066       1176       1177       1188       1187  
      1057       1058       1069       1068       1178       1179       1190       1189  
      1058       1059       1070       1069       1179       1180       1191       1190  
      1059       1060       1071       1070       1180       1181       1192       1191  
      1060       1061       1072       1071       1181       1182       1193       1192  
      1061       1062       1073       1072       1182       1183       1194       1193  
      1062       1063       1074       1073       1183       1184       1195       1194  
      1063       1064       1075       1074       1184       1185       1196       1195  
      1064       1065       1076       1075       1185       1186       1197       1196  
      1065       1066       1077       1076       1186       1187       1198       1197  
      1066       1067       1078       1077       1187       1188       1199       1198  
      1068       1069       1080       1079       1189       1190       1201       1200  
      1069       1070       1081       1080       1190       1191       1202       1201  
      1070       1071       1082       1081       1191       1192       1203       1202  
      1071       1072       1083       1082       1192       1193       1204       1203  
      1072       1073       1084       1083       1193       1194       1205       1204  
      1073       1074       1085       1084       1194       1195       1206       1205  
      1074       1075       1086       1085       1195       1196       1207       1206  
      1075       1076       1087       1086       1196       1197       1208       1207  
      1076       1077       1088       1087       1197       1198       1209       1208  
      1077       1078       1089       1088       1198       1199       1210       1209  
      1090       1091       1102       1101       1211       1212       1223       1222  
      1091       1092       1103       1102       1212       1213       1224       1223  
      1092       1093       1104       1103       1213       1214       1225       1224  
      1093       1094       1105       1104       1214       1215       1226       1225  
      1094       1095       1106       1105       1215       1216       1227       1226  
      1095       1096       1107       1106       1216       1217       1228       1227  
      1096       1097       1108       1107       1217       1218       1229       1228  
      1097       1098       1109       1108       1218       1219       1230       1229  
      1098       1099       1110       1109       1219       1220       1231       1230  
      1099       1100       1111       1110       1220       1221       1232       1231  
      1101       1102       1113       1112       1222       1223       1234       1233  
      1102       1103       1114       1113       1223       1224       1235       1234  
      1103       1104       1115       1114       1224       1225       1236       1235  
      1104       1105       1116       1115       1225       1226       1237       1236  
      1105       1106       1117       1116       1226       1227       1238       1237  
      1106       1107       1118       1117       1227       1228       1239       1238  
      1107       1108       1119       1118       1228       1229       1240       1239  
      1108       1109       1120       1119       1229       1230       1241       1240  
      1109       1110       1121       1120       1230       1231       1242       1241  
      1110       1111       1122       1121       1231       1232       1243       1242  
      1112       1113       1124       1123       1233       1234       1245       1244  
      1113       1114       1125       1124       1234       1235       1246       1245  
      1114       1115       1126       1125       1235       1236       1247       1246  
      1115       1116       1127       1126       1236       1237       1248       1247  
      1116       1117       1128       1127       1237       1238       1249       1248  
      1117       1118       1129       1128       1238       1239       1250       1249  
      1118       1119       1130       1129       1239       1240       1251       1250  
      1119       1120       1131       1130       1240       1241       1252       1251  
      1120       1121       1132       1131       1241       1242       1253       1252  
      1121       1122       1133       1132       1242       1243       1254       1253  
      1123       1124       1135       1134       1244       1245       1256       1255  
      1124       1125       1136       1135       1245       1246       1257       1256  
      1125       1126       1137       1136       1246       1247       1258       1257  
      1126       1127       1138       1137       1247       1248       1259       1258  
      1127       1128       1139       1138       1248       1249       1260       1259  
      1128       1129       1140       1139       1249       1250       1261       1260  
      1129       1130       1141       1140       1250       1251       1262       1261  
      1130       1131       1142       1141       1251       1252       1263       1262  
      1131       1132       1143       1142       1252       1253       1264       1263  
      1132       1133       1144       1143       1253       1254       1265       1264  
      1134       1135       1146       1145       1255       1256       1267       1266  
      1135       1136       1147       1146       1256       1257       1268       1267  
      1136       1137       1148       1147       1257       1258       1269       1268  
      1137       1138       1149       1148       1258       1259       1270       1269  
      1138       1139       1150       1149       1259       1260       1271       1270  
      1139       1140       1151       1150       1260       1261       1272       1271  
      1140       1141       1152       1151       1261       1262       1273       1272  
      1141       1142       1153       1152       1262       1263       1274       1273  
      1142       1143       1154       1153       1263       1264       1275       1274  
      1143       1144       1155       1154       1264       1265       1276       1275  
      1145       1146       1157       1156       1266       1267       1278       1277  
      1146       1147       1158       1157       1267       1268       1279       1278  
      1147       1148       1159       1158       1268       1269       1280       1279  
      1148       1149       1160       1159       1269       1270       1281       1280  
      1149       1150       1161       1160       1270       1271       1282       1281  
      1150       1151       1162       1161       1271       1272       1283       1282  
      1151       1152       1163       1162       1272       1273       1284       1283  
      1152       1153       1164       1163       1273       1274       1285       1284  
      1153       1154       1165       1164       1274       1275       1286       1285  
      1154       1155       1166       1165       1275       1276       1287       1286  
      1156       1157       1168       1167       1277       1278       1289       1288  
      1157       1158       1169       1168       1278       1279       1290       1289  
      1158       1159       1170       1169       1279       1280       1291       1290  
      1159       1160       1171       1170       1280       1281       1292       1291  
      1160       1161       1172       1171       1281       1282       1293       1292  
      1161       1162       1173       1172       1282       1283       1294       1293  
      1162       1163       1174       1173       1283       1284       1295       1294  
      1163       1164       1175       1174       1284       1285       1296       1295  
      1164       1165       1176       1175       1285       1286       1297       1296  
      1165       1166       1177       1176       1286       1287       1298       1297  
      1167       1168       1179       1178       1288       1289       1300       1299  
      1168       1169       1180       1179       1289       1290       1301       1300  
      1169       1170       1181       1180       1290       1291       1302       1301  
      1170       1171       1182       1181       1291       1292       1303       1302  
      1171       1172       1183       1182       1292       1293       1304       1303  
      1172       1173       1184       1183       1293       1294       1305       1304  
      1173       1174       1185       1184       1294       1295       1306       1305  
      1174       1175       1186       1185       1295       1296       1307       1306  
      1175       1176       1187       1186       1296       1297       1308       1307  
      1176       1177       1188       1187       1297       1298       1309       1308  
      1178       1179       1190       1189       1299       1300       1311       1310  
      1179       1180       1191       1190       1300       1301       1312       1311  
      1180       1181       1192       1191       1301       1302       1313       1312  
      1181       1182       1193       1192       1302       1303       1314       1313  
      1182       1183       1194       1193       1303       1304       1315       1314  
      1183       1184       1195       1194       1304       1305       1316       1315  
      1184       1185       1196       1195       1305       1306       1317       1316  
      1185       1186       1197       1196       1306       1307       1318       1317  
      1186       1187       1198       1197       1307       1308       1319       1318  
      1187       1188       1199       1198       1308       1309       1320       1319  
      1189       1190       1201       1200       1310       1311       1322       1321  
      1190       1191       1202       1201       1311       1312       1323       1322  
      1191       1192       1203       1202       1312       1313       1324       1323  
      1192       1193       1204       1203       1313       1314       1325       1324  
      1193       1194       1205       1204       1314       1315       1326       1325  
      1194       1195       1206       1205       1315       1316       1327       1326  
      1195       1196       1207       1206       1316       1317       1328       1327  
      1196       1197       1208       1207       1317       1318       1329       1328  
      1197       1198       1209       1208       1318       1319       1330       1329  
      1198       1199       1210       1209       1319       1320       1331       1330  
      1211       1212       1223       1222       1332       1333       1344       1343  
      1212       1213       1224       1223       1333       1334       1345       1344  
      1213       1214       1225       1224       1334       1335       1346       1345  
      1214       1215       1226       1225       1335       1336       1347       1346  
      1215       1216       1227       1226       1336       1337       1348       1347  
      1216       1217       1228       1227       1337       1338       1349       1348  
      1217       1218       1229       1228       1338       1339       1350       1349  
      1218       1219       1230       1229       1339       1340       1351       1350  
      1219       1220       1231       1230       1340       1341       1352       1351  
      1220       1221       1232       1231       1341       1342       1353       1352  
      1222       1223       1234       1233       1343       1344       1355       1354  
      1223       1224       1235       1234       1344       1345       1356       1355  
      1224       1225       1236       1235       1345       1346       1357       1356  
      1225       1226       1237       1236       1346       1347       1358       1357  
      1226       1227       1238       1237       1347       1348       1359       1358  
      1227       1228       1239       1238       1348       1349       1360       1359  
      1228       1229       1240       1239       1349       1350       1361       1360  
      1229       1230       1241       1240       1350       1351       1362       1361  
      1230       1231       1242       1241       1351       1352       1363       1362  
      1231       1232       1243       1242       1352       1353       1364       1363  
      1233       1234       1245       1244       1354       1355       1366       1365  
      1234       1235       1246       1245       1355       1356       1367       1366  
      1235       1236       1247       1246       1356       1357       1368       1367  
      1236       1237       1248       1247       1357       1358       1369       1368  
      1237       1238       1249       1248       1358       1359       1370       1369  
      1238       1239       1250       1249       1359       1360       1371       1370  
      1239       1240       1251       1250       1360       1361       1372       1371  
      1240       1241       1252       1251       1361       1362       1373       1372  
      1241       1242       1253       1252       1362       1363       1374       1373  
      1242       1243       1254       1253       1363       1364       1375       1374  
      1244       1245       1256       1255       1365       1366       1377       1376  
      1245       1246       1257       1256       1366       1367       1378       1377  
      1246       1247       1258       1257       1367       1368       1379       1378  
      1247       1248       1259       1258       1368       1369       1380       1379  
      1248       1249       1260       1259       1369       1370       1381       1380  
      1249       1250       1261       1260       1370       1371       1382       1381  
      1250       1251       1262       1261       1371       1372       1383       1382  
      1251       1252       1263       1262       1372       1373       1384       1383  
      1252       1253       1264       1263       1373       1374       1385       1384  
      1253       1254       1265       1264       1374       1375       1386       1385  
      1255       1256       1267       1266       1376       1377       1388       1387  
      1256       1257       1268       1267       1377       1378       1389       1388  
      1257       1258       1269       1268       1378       1379       1390       1389  
      1258       1259       1270       1269       1379       1380       1391       1390  
      1259       1260       1271       1270       1380       1381       1392       1391  
      1260       1261       1272       1271       1381       1382       1393       1392  
      1261       1262       1273       1272       1382       1383       1394       1393  
      1262       1263       1274       1273       1383       1384       1395       1394  
      1263       1264       1275       1274       1384       1385       1396       1395  
      1264       1265       1276       1275       1385       1386       1397       1396  
      1266       1267       1278       1277       1387       1388       1399       1398  
      1267       1268       1279       1278       1388       1389       1400       1399  
      1268       1269       1280       1279       1389       1390       1401       1400  
      1269       1270       1281       1280       1390       1391       1402       1401  
      1270       1271       1282       1281       1391       1392       1403       1402  
      1271       1272       1283       1282       1392       1393       1404       1403  
      1272       1273       1284       1283       1393       1394       1405       1404  
      1273       1274       1285       1284       1394       1395       1406       1405  
      1274       1275       1286       1285       1395       1396       1407       1406  
      1275       1276       1287       1286       1396       1397       1408       1407  
      1277       1278       1289       1288       1398       1399       1410       1409  
      1278       1279       1290       1289       1399       1400       1411       1410  
      1279       1280       1291       1290       1400       1401       1412       1411  
      1280       1281       1292       1291       1401       1402       1413       1412  
      1281       1282       1293       1292       1402       1403       1414       1413  
      1282       1283       1294       1293       1403       1404       1415       1414  
      1283       1284       1295       1294       1404       1405       1416       1415  
      1284       1285       1296       1295       1405       1406       1417       1416  
      1285       1286       1297       1296       1406       1407       1418       1417  
      1286       1287       1298       1297       1407       1408       1419       1418  
      1288       1289       1300       1299       1409       1410       1421       1420  
      1289       1290       1301       1300       1410       1411       1422       1421  
      1290       1291       1302       1301       1411       1412       1423       1422  
      1291       1292       1303       1302       1412       1413       1424       1423  
      1292       1293       1304       1303       1413       1414       1425       1424  
      1293       1294       1305       1304       1414       1415       1426       1425  
      1294       1295       1306       1305       1415       1416       1427       1426  
      1295       1296       1307       1306       1416       1417       1428       1427  
      1296       1297       1308       1307       1417       1418       1429       1428  
      1297       1298       1309       1308       1418       1419       1430       1429  
      1299       1300       1311       1310       1420       1421       1432       1431  
      1300       1301       1312       1311       1421       1422       1433       1432  
      1301       1302       1313       1312       1422       1423       1434       1433  
      1302       1303       1314       1313       1423       1424       1435       1434  
      1303       1304       1315       1314       1424       1425       1436       1435  
      1304       1305       1316       1315       1425       1426       1437       1436  
      1305       1306       1317       1316       1426       1427       1438       1437  
      1306       1307       1318       1317       1427       1428       1439       1438  
      1307       1308       1319       1318       1428       1429       1440       1439  
      1308       1309       1320       1319       1429       1430       1441       1440  
      1310       1311       1322       1321       1431       1432       1443       1442  
      1311       1312       1323       1322       1432       1433       1444       1443  
      1312       1313       1324       1323       1433       1434       1445       1444  
      1313       1314       1325       1324       1434       1435       1446       1445  
      1314       1315       1326       1325       1435       1436       1447       1446  
      1315       1316       1327       1326       1436       1437       1448       1447  
      1316       1317       1328       1327       1437       1438       1449       1448  
      1317       1318       1329       1328       1438       1439       1450       1449  
      1318       1319       1330       1329       1439       1440       1451       1450  
      1319       1320       1331       1330       1440       1441       1452       1451  
      1332       1333       1344       1343       1453       1454       1465       1464  
      1333       1334       1345       1344       1454       1455       1466       1465  
      1334       1335       1346       1345       1455       1456       1467       1466  
      1335       1336       1347       1346       1456       1457       1468       1467  
      1336       1337       1348       1347       1457       1458       1469       1468  
      1337       1338       1349       1348       1458       1459       1470       1469  
      1338       1339       1350       1349       1459       1460       1471       1470  
      1339       1340       1351       1350       1460       1461       1472       1471  
      1340       1341       1352       1351       1461       1462       1473       1472  
      1341       1342       1353       1352       1462       1463       1474       1473  
      1343       1344       1355       1354       1464       1465       1476       1475  
      1344       1345       1356       1355       1465       1466       1477       1476  
      1345       1346       1357       1356       1466       1467       1478       1477  
      1346       1347       1358       1357       1467       1468       1479       1478  
      1347       1348       1359       1358       1468       1469       1480       1479  
      1348       1349       1360       1359       1469       1470       1481       1480  
      1349       1350       1361       1360       1470       1471       1482       1481  
      1350       1351       1362       1361       1471       1472       1483       1482  
      1351       1352       1363       1362       1472       1473       1484       1483  
      1352       1353       1364       1363       1473       1474       1485       1484  
      1354       1355       1366       1365       1475       1476       1487       1486  
      1355       1356       1367       1366       1476       1477       1488       1487  
      1356       1357       1368       1367       1477       1478       1489       1488  
      1357       1358       1369       1368       1478       1479       1490       1489  
      1358       1359       1370       1369       1479       1480       1491       1490  
      1359       1360       1371       1370       1480       1481       1492       1491  
      1360       1361       1372       1371       1481       1482       1493       1492  
      1361       1362       1373       1372       1482       1483       1494       1493  
      1362       1363       1374       1373       1483       1484       1495       1494  
      1363       1364       1375       1374       1484       1485       1496       1495  
      1365       1366       1377       1376       1486       1487       1498       1497  
      1366       1367       1378       1377       1487       1488       1499       1498  
      1367       1368       1379       1378       1488       1489       1500       1499  
      1368       1369       1380       1379       1489       1490       1501       1500  
      1369       1370       1381       1380       1490       1491       1502       1501  
      1370       1371       1382       1381       1491       1492       1503       1502  
      1371       1372       1383       1382       1492       1493       1504       1503  
      1372       1373       1384       1383       1493       1494       1505       1504  
      1373       1374       1385       1384       1494       1495       1506       1505  
      1374       1375       1386       1385       1495       1496       1507       1506  
      1376       1377       1388       1387       1497       1498       1509       1508  
      1377       1378       1389       1388       1498       1499       1510       1509  
      1378       1379       1390       1389       1499       1500       1511       1510  
      1379       1380       1391       1390       1500       1501       1512       1511  
      1380       1381       1392       1391       1501       1502       1513       1512  
      1381       1382       1393       1392       1502       1503       1514       1513  
      1382       1383       1394       1393       1503       1504       1515       1514  
      1383       1384       1395       1394       1504       1505       1516       1515  
      1384       1385       1396       1395       1505       1506       1517       1516  
      1385       1386       1397       1396       1506       1507       1518       1517  
      1387       1388       1399       1398       1508       1509       1520       1519  
      1388       1389       1400       1399       1509       1510       1521       1520  
      1389       1390       1401       1400       1510       1511       1522       1521  
      1390       1391       1402       1401       1511       1512       1523       1522  
      1391       1392       1403       1402       1512       1513       1524       1523  
      1392       1393       1404       1403       1513       1514       1525       1524  
      1393       1394       1405       1404       1514       1515       1526       1525  
      1394       1395       1406       1405       1515       1516       1527       1526  
      1395       1396       1407       1406       1516       1517       1528       1527  
      1396       1397       1408       1407       1517       1518       1529       1528  
      1398       1399       1410       1409       1519       1520       1531       1530  
      1399       1400       1411       1410       1520       1521       1532       1531  
      1400       1401       1412       1411       1521       1522       1533       1532  
      1401       1402       1413       1412       1522       1523       1534       1533  
      1402       1403       1414       1413       1523       1524       1535       1534  
      1403       1404       1415       1414       1524       1525       1536       1535  
      1404       1405       1416       1415       1525       1526       1537       1536  
      1405       1406       1417       1416       1526       1527       1538       1537  
      1406       1407       1418       1417       1527       1528       1539       1538  
      1407       1408       1419       1418       1528       1529       1540       1539  
      1409       1410       1421       1420       1530       1531       1542       1541  
      1410       1411       1422       1421       1531       1532       1543       1542  
      1411       1412       1423       1422       1532       1533       1544       1543  
      1412       1413       1424       1423       1533       1534       1545       1544  
      1413       1414       1425       1424       1534       1535       1546       1545  
      1414       1415       1426       1425       1535       1536       1547       1546  
      1415       1416       1427       1426       1536       1537       1548       1547  
      1416       1417       1428       1427       1537       1538       1549       1548  
      1417       1418       1429       1428       1538       1539       1550       1549  
      1418       1419       1430       1429       1539       1540       1551       1550  
      1420       1421       1432       1431       1541       1542       1553       1552  
      1421       1422       1433       1432       1542       1543       1554       1553  
      1422       1423       1434       1433       1543       1544       1555       1554  
      1423       1424       1435       1434       1544       1545       1556       1555  
      1424       1425       1436       1435       1545       1546       1557       1556  
      1425       1426       1437       1436       1546       1547       1558       1557  
      1426       1427       1438       1437       1547       1548       1559       1558  
      1427       1428       1439       1438       1548       1549       1560       1559  
      1428       1429       1440       1439       1549       1550       1561       1560  
      1429       1430       1441       1440       1550       1551       1562       1561  
      1431       1432       1443       1442       1552       1553       1564       1563  
      1432       1433       1444       1443       1553       1554       1565       1564  
      1433       1434       1445       1444       1554       1555       1566       1565  
      1434       1435       1446       1445       1555       1556       1567       1566  
      1435       1436       1447       1446       1556       1557       1568       1567  
      1436       1437       1448       1447       1557       1558       1569       1568  
      1437       1438       1449       1448       1558       1559       1570       1569  
      1438       1439       1450       1449       1559       1560       1571       1570  
      1439       1440       1451       1450       1560       1561       1572       1571  
      1440       1441       1452       1451       1561       1562       1573       1572  
      1453       1454       1465       1464       1574       1575       1586       1585  
      1454       1455       1466       1465       1575       1576       1587       1586  
      1455       1456       1467       1466       1576       1577       1588       1587  
      1456       1457       1468       1467       1577       1578       1589       1588  
      1457       1458       1469       1468       1578       1579       1590       1589  
      1458       1459       1470       1469       1579       1580       1591       1590  
      1459       1460       1471       1470       1580       1581       1592       1591  
      1460       1461       1472       1471       1581       1582       1593       1592  
      1461       1462       1473       1472       1582       1583       1594       1593  
      1462       1463       1474       1473       1583       1584       1595       1594  
      1464       1465       1476       1475       1585       1586       1597       1596  
      1465       1466       1477       1476       1586       1587       1598       1597  
      1466       1467       1478       1477       1587       1588       1599       1598  
      1467       1468       1479       1478       1588       1589       1600       1599  
      1468       1469       1480       1479       1589       1590       1601       1600  
      1469       1470       1481       1480       1590       1591       1602       1601  
      1470       1471       1482       1481       1591       1592       1603       1602  
      1471       1472       1483       1482       1592       1593       1604       1603  
      1472       1473       1484       1483       1593       1594       1605       1604  
      1473       1474       1485       1484       1594       1595       1606       1605  
      1475       1476       1487       1486       1596       1597       1608       1607  
      1476       1477       1488       1487       1597       1598       1609       1608  
      1477       1478       1489       1488       1598       1599       1610       1609  
      1478       1479       1490       1489       1599       1600       1611       1610  
      1479       1480       1491       1490       1600       1601       1612       1611  
      1480       1481       1492       1491       1601       1602       1613       1612  
      1481       1482       1493       1492       1602       1603       1614       1613  
      1482       1483       1494       1493       1603       1604       1615       1614  
      1483       1484       1495       1494       1604       1605       1616       1615  
      1484       1485       1496       1495       1605       1606       1617       1616  
      1486       1487       1498       1497       1607       1608       1619       1618  
      1487       1488       1499       1498       1608       1609       1620       1619  
      1488       1489       1500       1499       1609       1610       1621       1620  
      1489       1490       1501       1500       1610       1611       1622       1621  
      1490       1491       1502       1501       1611       1612       1623       1622  
      1491       1492       1503       1502       1612       1613       1624       1623  
      1492       1493       1504       1503       1613       1614       1625       1624  
      1493       1494       1505       1504       1614       1615       1626       1625  
      1494       1495       1506       1505       1615       1616       1627       1626  
      1495       1496       1507       1506       1616       1617       1628       1627  
      1497       1498       1509       1508       1618       1619       1630       1629  
      1498       1499       1510       1509       1619       1620       1631       1630  
      1499       1500       1511       1510       1620       1621       1632       1631  
      1500       1501       1512       1511       1621       1622       1633       1632  
      1501       1502       1513       1512       1622       1623       1634       1633  
      1502       1503       1514       1513       1623       1624       1635       1634  
      1503       1504       1515       1514       1624       1625       1636       1635  
      1504       1505       1516       1515       1625       1626       1637       1636  
      1505       1506       1517       1516       1626       1627       1638       1637  
      1506       1507       1518       1517       1627       1628       1639       1638  
      1508       1509       1520       1519       1629       1630       1641       1640  
      1509       1510       1521       1520       1630       1631       1642       1641  
      1510       1511       1522       1521       1631       1632       1643       1642  
      1511       1512       1523       1522       1632       1633       1644       1643  
      1512       1513       1524       1523       1633       1634       1645       1644  
      1513       1514       1525       1524       1634       1635       1646       1645  
      1514       1515       1526       1525       1635       1636       1647       1646  
      1515       1516       1527       1526       1636       1637       1648       1647  
      1516       1517       1528       1527       1637       1638       1649       1648  
      1517       1518       1529       1528       1638       1639       1650       1649  
      1519       1520       1531       1530       1640       1641       1652       1651  
      1520       1521       1532       1531       1641       1642       1653       1652  
      1521       1522       1533       1532       1642       1643       1654       1653  
      1522       1523       1534       1533       1643       1644       1655       1654  
      1523       1524       1535       1534       1644       1645       1656       1655  
      1524       1525       1536       1535       1645       1646       1657       1656  
      1525       1526       1537       1536       1646       1647       1658       1657  
      1526       1527       1538       1537       1647       1648       1659       1658  
      1527       1528       1539       1538       1648       1649       1660       1659  
      1528       1529       1540       1539       1649       1650       1661       1660  
      1530       1531       1542       1541       1651       1652       1663       1662  
      1531       1532       1543       1542       1652       1653       1664       1663  
      1532       1533       1544       1543       1653       1654       1665       1664  
      1533       1534       1545       1544       1654       1655       1666       1665  
      1534       1535       1546       1545       1655       1656       1667       1666  
      1535       1536       1547       1546       1656       1657       1668       1667  
      1536       1537       1548       1547       1657       1658       1669       1668  
      1537       1538       1549       1548       1658       1659       1670       1669  
      1538       1539       1550       1549       1659       1660       1671       1670  
      1539       1540       1551       1550       1660       1661       1672       1671  
      1541       1542       1553       1552       1662       1663       1674       1673  
      1542       1543       1554       1553       1663       1664       1675       1674  
      1543       1544       1555       1554       1664       1665       1676       1675  
      1544       1545       1556       1555       1665       1666       1677       1676  
      1545       1546       1557       1556       1666       1667       1678       1677  
      1546       1547       1558       1557       1667       1668       1679       1678  
      1547       1548       1559       1558       1668       1669       1680       1679  
      1548       1549       1560       1559       1669       1670       1681       1680  
      1549       1550       1561       1560       1670       1671       1682       1681  
      1550       1551       1562       1561       1671       1672       1683       1682  
      1552       1553       1564       1563       1673       1674       1685       1684  
      1553       1554       1565       1564       1674       1675       1686       1685  
      1554       1555       1566       1565       1675       1676       1687       1686  
      1555       1556       1567       1566       1676       1677       1688       1687  
      1556       1557       1568       1567       1677       1678       1689       1688  
      1557       1558       1569       1568       1678       1679       1690       1689  
      1558       1559       1570       1569       1679       1680       1691       1690  
      1559       1560       1571       1570       1680       1681       1692       1691  
      1560       1561       1572       1571       1681       1682       1693       1692  
      1561       1562       1573       1572       1682       1683       1694       1693  
      1574       1575       1586       1585       1695       1696       1707       1706  
      1575       1576       1587       1586       1696       1697       1708       1707  
      1576       1577       1588       1587       1697       1698       1709       1708  
      1577       1578       1589       1588       1698       1699       1710       1709  
      1578       1579       1590       1589       1699       1700       1711       1710  
      1579       1580       1591       1590       1700       1701       1712       1711  
      1580       1581       1592       1591       1701       1702       1713       1712  
      1581       1582       1593       1592       1702       1703       1714       1713  
      1582       1583       1594       1593       1703       1704       1715       1714  
      1583       1584       1595       1594       1704       1705       1716       1715  
      1585       1586       1597       1596       1706       1707       1718       1717  
      1586       1587       1598       1597       1707       1708       1719       1718  
      1587       1588       1599       1598       1708       1709       1720       1719  
      1588       1589       1600       1599       1709       1710       1721       1720  
      1589       1590       1601       1600       1710       1711       1722       1721  
      1590       1591       1602       1601       1711       1712       1723       1722  
      1591       1592       1603       1602       1712       1713       1724       1723  
      1592       1593       1604       1603       1713       1714       1725       1724  
      1593       1594       1605       1604       1714       1715       1726       1725  
      1594       1595       1606       1605       1715       1716       1727       1726  
      1596       1597       1608       1607       1717       1718       1729       1728  
      1597       1598       1609       1608       1718       1719       1730       1729  
      1598       1599       1610       1609       1719       1720       1731       1730  
      1599       1600       1611       1610       1720       1721       1732       1731  
      1600       1601       1612       1611       1721       1722       1733       1732  
      1601       1602       1613       1612       1722       1723       1734       1733  
      1602       1603       1614       1613       1723       1724       1735       1734  
      1603       1604       1615       1614       1724       1725       1736       1735  
      1604       1605       1616       1615       1725       1726       1737       1736  
      1605       1606       1617       1616       1726       1727       1738       1737  
      1607       1608       1619       1618       1728       1729       1740       1739  
      1608       1609       1620       1619       1729       1730       1741       1740  
      1609       1610       1621       1620       1730       1731       1742       1741  
      1610       1611       1622       1621       1731       1732       1743       1742  
      1611       1612       1623       1622       1732       1733       1744       1743  
      1612       1613       1624       1623       1733       1734       1745       1744  
      1613       1614       1625       1624       1734       1735       1746       1745  
      1614       1615       1626       1625       1735       1736       1747       1746  
      1615       1616       1627       1626       1736       1737       1748       1747  
      1616       1617       1628       1627       1737       1738       1749       1748  
      1618       1619       1630       1629       1739       1740       1751       1750  
      1619       1620       1631       1630       1740       1741       1752       1751  
      1620       1621       1632       1631       1741       1742       1753       1752  
      1621       1622       1633       1632       1742       1743       1754       1753  
      1622       1623       1634       1633       1743       1744       1755       1754  
      1623       1624       1635       1634       1744       1745       1756       1755  
      1624       1625       1636       1635       1745       1746       1757       1756  
      1625       1626       1637       1636       1746       1747       1758       1757  
      1626       1627       1638       1637       1747       1748       1759       1758  
      1627       1628       1639       1638       1748       1749       1760       1759  
      1629       1630       1641       1640       1750       1751       1762       1761  
      1630       1631       1642       1641       1751       1752       1763       1762  
      1631       1632       1643       1642       1752       1753       1764       1763  
      1632       1633       1644       1643       1753       1754       1765       1764  
      1633       1634       1645       1644       1754       1755       1766       1765  
      1634       1635       1646       1645       1755       1756       1767       1766  
      1635       1636       1647       1646       1756       1757       1768       1767  
      1636       1637       1648       1647       1757       1758       1769       1768  
      1637       1638       1649       1648       1758       1759       1770       1769  
      1638       1639       1650       1649       1759       1760       1771       1770  
      1640       1641       1652       1651       1761       1762       1773       1772  
      1641       1642       1653       1652       1762       1763       1774       1773  
      1642       1643       1654       1653       1763       1764       1775       1774  
      1643       1644       1655       1654       1764       1765       1776       1775  
      1644       1645       1656       1655       1765       1766       1777       1776  
      1645       1646       1657       1656       1766       1767       1778       1777  
      1646       1647       1658       1657       1767       1768       1779       1778  
      1647       1648       1659       1658       1768       1769       1780       1779  
      1648       1649       1660       1659       1769       1770       1781       1780  
      1649       1650       1661       1660       1770       1771       1782       1781  
      1651       1652       1663       1662       1772       1773       1784       1783  
      1652       1653       1664       1663       1773       1774       1785       1784  
      1653       1654       1665       1664       1774       1775       1786       1785  
      1654       1655       1666       1665       1775       1776       1787       1786  
      1655       1656       1667       1666       1776       1777       1788       1787  
      1656       1657       1668       1667       1777       1778       1789       1788  
      1657       1658       1669       1668       1778       1779       1790       1789  
      1658       1659       1670       1669       1779       1780       1791       1790  
      1659       1660       1671       1670       1780       1781       1792       1791  
      1660       1661       1672       1671       1781       1782       1793       1792  
      1662       1663       1674       1673       1783       1784       1795       1794  
      1663       1664       1675       1674       1784       1785       1796       1795  
      1664       1665       1676       1675       1785       1786       1797       1796  
      1665       1666       1677       1676       1786       1787       1798       1797  
      1666       1667       1678       1677       1787       1788       1799       1798  
      1667       1668       1679       1678       1788       1789       1800       1799  
      1668       1669       1680       1679       1789       1790       1801       1800  
      1669       1670       1681       1680       1790       1791       1802       1801  
      1670       1671       1682       1681       1791       1792       1803       1802  
      1671       1672       1683       1682       1792       1793       1804       1803  
      1673       1674       1685       1684       1794       1795       1806       1805  
      1674       1675       1686       1685       1795       1796       1807       1806  
      1675       1676       1687       1686       1796       1797       1808       1807  
      1676       1677       1688       1687       1797       1798       1809       1808  
      1677       1678       1689       1688       1798       1799       1810       1809  
      1678       1679       1690       1689       1799       1800       1811       1810  
      1679       1680       1691       1690       1800       1801       1812       1811  
      1680       1681       1692       1691       1801       1802       1813       1812  
      1681       1682       1693       1692       1802       1803       1814       1813  
      1682       1683       1694       1693       1803       1804       1815       1814  
      1695       1696       1707       1706       1816       1817       1828       1827  
      1696       1697       1708       1707       1817       1818       1829       1828  
      1697       1698       1709       1708       1818       1819       1830       1829  
      1698       1699       1710       1709       1819       1820       1831       1830  
      1699       1700       1711       1710       1820       1821       1832       1831  
      1700       1701       1712       1711       1821       1822       1833       1832  
      1701       1702       1713       1712       1822       1823       1834       1833  
      1702       1703       1714       1713       1823       1824       1835       1834  
      1703       1704       1715       1714       1824       1825       1836       1835  
      1704       1705       1716       1715       1825       1826       1837       1836  
      1706       1707       1718       1717       1827       1828       1839       1838  
      1707       1708       1719       1718       1828       1829       1840       1839  
      1708       1709       1720       1719       1829       1830       1841       1840  
      1709       1710       1721       1720       1830       1831       1842       1841  
      1710       1711       1722       1721       1831       1832       1843       1842  
      1711       1712       1723       1722       1832       1833       1844       1843  
      1712       1713       1724       1723       1833       1834       1845       1844  
      1713       1714       1725       1724       1834       1835       1846       1845  
      1714       1715       1726       1725       1835       1836       1847       1846  
      1715       1716       1727       1726       1836       1837       1848       1847  
      1717       1718       1729       1728       1838       1839       1850       1849  
      1718       1719       1730       1729       1839       1840       1851       1850  
      1719       1720       1731       1730       1840       1841       1852       1851  
      1720       1721       1732       1731       1841       1842       1853       1852  
      1721       1722       1733       1732       1842       1843       1854       1853  
      1722       1723       1734       1733       1843       1844       1855       1854  
      1723       1724       1735       1734       1844       1845       1856       1855  
      1724       1725       1736       1735       1845       1846       1857       1856  
      1725       1726       1737       1736       1846       1847       1858       1857  
      1726       1727       1738       1737       1847       1848       1859       1858  
      1728       1729       1740       1739       1849       1850       1861       1860  
      1729       1730       1741       1740       1850       1851       1862       1861  
      1730       1731       1742       1741       1851       1852       1863       1862  
      1731       1732       1743       1742       1852       1853       1864       1863  
      1732       1733       1744       1743       1853       1854       1865       1864  
      1733       1734       1745       1744       1854       1855       1866       1865  
      1734       1735       1746       1745       1855       1856       1867       1866  
      1735       1736       1747       1746       1856       1857       1868       1867  
      1736       1737       1748       1747       1857       1858       1869       1868  
      1737       1738       1749       1748       1858       1859       1870       1869  
      1739       1740       1751       1750       1860       1861       1872       1871  
      1740       1741       1752       1751       1861       1862       1873       1872  
      1741       1742       1753       1752       1862       1863       1874       1873  
      1742       1743       1754       1753       1863       1864       1875       1874  
      1743       1744       1755       1754       1864       1865       1876       1875  
      1744       1745       1756       1755       1865       1866       1877       1876  
      1745       1746       1757       1756       1866       1867       1878       1877  
      1746       1747       1758       1757       1867       1868       1879       1878  
      1747       1748       1759       1758       1868       1869       1880       1879  
      1748       1749       1760       1759       1869       1870       1881       1880  
      1750       1751       1762       1761       1871       1872       1883       1882  
      1751       1752       1763       1762       1872       1873       1884       1883  
      1752       1753       1764       1763       1873       1874       1885       1884  
      1753       1754       1765       1764       1874       1875       1886       1885  
      1754       1755       1766       1765       1875       1876       1887       1886  
      1755       1756       1767       1766       1876       1877       1888       1887  
      1756       1757       1768       1767       1877       1878       1889       1888  
      1757       1758       1769       1768       1878       1879       1890       1889  
      1758       1759       1770       1769       1879       1880       1891       1890  
      1759       1760       1771       1770       1880       1881       1892       1891  
      1761       1762       1773       1772       1882       1883       1894       1893  
      1762       1763       1774       1773       1883       1884       1895       1894  
      1763       1764       1775       1774       1884       1885       1896       1895  
      1764       1765       1776       1775       1885       1886       1897       1896  
      1765       1766       1777       1776       1886       1887       1898       1897  
      1766       1767       1778       1777       1887       1888       1899       1898  
      1767       1768       1779       1778       1888       1889       1900       1899  
      1768       1769       1780       1779       1889       1890       1901       1900  
      1769       1770       1781       1780       1890       1891       1902       1901  
      1770       1771       1782       1781       1891       1892       1903       1902  
      1772       1773       1784       1783       1893       1894       1905       1904  
      1773       1774       1785       1784       1894       1895       1906       1905  
      1774       1775       1786       1785       1895       1896       1907       1906  
      1775       1776       1787       1786       1896       1897       1908       1907  
      1776       1777       1788       1787       1897       1898       1909       1908  
      1777       1778       1789       1788       1898       1899       1910       1909  
      1778       1779       1790       1789       1899       1900       1911       1910  
      1779       1780       1791       1790       1900       1901       1912       1911  
      1780       1781       1792       1791       1901       1902       1913       1912  
      1781       1782       1793       1792       1902       1903       1914       1913  
      1783       1784       1795       1794       1904       1905       1916       1915  
      1784       1785       1796       1795       1905       1906       1917       1916  
      1785       1786       1797       1796       1906       1907       1918       1917  
      1786       1787       1798       1797       1907       1908       1919       1918  
      1787       1788       1799       1798       1908       1909       1920       1919  
      1788       1789       1800       1799       1909       1910       1921       1920  
      1789       1790       1801       1800       1910       1911       1922       1921  
      1790       1791       1802       1801       1911       1912       1923       1922  
      1791       1792       1803       1802       1912       1913       1924       1923  
      1792       1793       1804       1803       1913       1914       1925       1924  
      1794       1795       1806       1805       1915       1916       1927       1926  
      1795       1796       1807       1806       1916       1917       1928       1927  
      1796       1797       1808       1807       1917       1918       1929       1928  
      1797       1798       1809       1808       1918       1919       1930       1929  
      1798       1799       1810       1809       1919       1920       1931       1930  
      1799       1800       1811       1810       1920       1921       1932       1931  
      1800       1801       1812       1811       1921       1922       1933       1932  
      1801       1802       1813       1812       1922       1923       1934       1933  
      1802       1803       1814       1813       1923       1924       1935       1934  
      1803       1804       1815       1814       1924       1925       1936       1935  
      1816       1817       1828       1827       1937       1938       1949       1948  
      1817       1818       1829       1828       1938       1939       1950       1949  
      1818       1819       1830       1829       1939       1940       1951       1950  
      1819       1820       1831       1830       1940       1941       1952       1951  
      1820       1821       1832       1831       1941       1942       1953       1952  
      1821       1822       1833       1832       1942       1943       1954       1953  
      1822       1823       1834       1833       1943       1944       1955       1954  
      1823       1824       1835       1834       1944       1945       1956       1955  
      1824       1825       1836       1835       1945       1946       1957       1956  
      1825       1826       1837       1836       1946       1947       1958       1957  
      1827       1828       1839       1838       1948       1949       1960       1959  
      1828       1829       1840       1839       1949       1950       1961       1960  
      1829       1830       1841       1840       1950       1951       1962       1961  
      1830       1831       1842       1841       1951       1952       1963       1962  
      1831       1832       1843       1842       1952       1953       1964       1963  
      1832       1833       1844       1843       1953       1954       1965       1964  
      1833       1834       1845       1844       1954       1955       1966       1965  
      1834       1835       1846       1845       1955       1956       1967       1966  
      1835       1836       1847       1846       1956       1957       1968       1967  
      1836       1837       1848       1847       1957       1958       1969       1968  
      1838       1839       1850       1849       1959       1960       1971       1970  
      1839       1840       1851       1850       1960       1961       1972       1971  
      1840       1841       1852       1851       1961       1962       1973       1972  
      1841       1842       1853       1852       1962       1963       1974       1973  
      1842       1843       1854       1853       1963       1964       1975       1974  
      1843       1844       1855       1854       1964       1965       1976       1975  
      1844       1845       1856       1855       1965       1966       1977       1976  
      1845       1846       1857       1856       1966       1967       1978       1977  
      1846       1847       1858       1857       1967       1968       1979       1978  
      1847       1848       1859       1858       1968       1969       1980       1979  
      1849       1850       1861       1860       1970       1971       1982       1981  
      1850       1851       1862       1861       1971       1972       1983       1982  
      1851       1852       1863       1862       1972       1973       1984       1983  
      1852       1853       1864       1863       1973       1974       1985       1984  
      1853       1854       1865       1864       1974       1975       1986       1985  
      1854       1855       1866       1865       1975       1976       1987       1986  
      1855       1856       1867       1866       1976       1977       1988       1987  
      1856       1857       1868       1867       1977       1978       1989       1988  
      1857       1858       1869       1868       1978       1979       1990       1989  
      1858       1859       1870       1869       1979       1980       1991       1990  
      1860       1861       1872       1871       1981       1982       1993       1992  
      1861       1862       1873       1872       1982       1983       1994       1993  
      1862       1863       1874       1873       1983       1984       1995       1994  
      1863       1864       1875       1874       1984       1985       1996       1995  
      1864       1865       1876       1875       1985       1986       1997       1996  
      1865       1866       1877       1876       1986       1987       1998       1997  
      1866       1867       1878       1877       1987       1988       1999       1998  
      1867       1868       1879       1878       1988       1989       2000       1999  
      1868       1869       1880       1879       1989       1990       2001       2000  
      1869       1870       1881       1880       1990       1991       2002       2001  
      1871       1872       1883       1882       1992       1993       2004       2003  
      1872       1873       1884       1883       1993       1994       2005       2004  
      1873       1874       1885       1884       1994       1995       2006       2005  
      1874       1875       1886       1885       1995       1996       2007       2006  
      1875       1876       1887       1886       1996       1997       2008       2007  
      1876       1877       1888       1887       1997       1998       2009       2008  
      1877       1878       1889       1888       1998       1999       2010       2009  
      1878       1879       1890       1889       1999       2000       2011       2010  
      1879       1880       1891       1890       2000       2001       2012       2011  
      1880       1881       1892       1891       2001       2002       2013       2012  
      1882       1883       1894       1893       2003       2004       2015       2014  
      1883       1884       1895       1894       2004       2005       2016       2015  
      1884       1885       1896       1895       2005       2006       2017       2016  
      1885       1886       1897       1896       2006       2007       2018       2017  
      1886       1887       1898       1897       2007       2008       2019       2018  
      1887       1888       1899       1898       2008       2009       2020       2019  
      1888       1889       1900       1899       2009       2010       2021       2020  
      1889       1890       1901       1900       2010       2011       2022       2021  
      1890       1891       1902       1901       2011       2012       2023       2022  
      1891       1892       1903       1902       2012       2013       2024       2023  
      1893       1894       1905       1904       2014       2015       2026       2025  
      1894       1895       1906       1905       2015       2016       2027       2026  
      1895       1896       1907       1906       2016       2017       2028       2027  
      1896       1897       1908       1907       2017       2018       2029       2028  
      1897       1898       1909       1908       2018       2019       2030       2029  
      1898       1899       1910       1909       2019       2020       2031       2030  
      1899       1900       1911       1910       2020       2021       2032       2031  
      1900       1901       1912       1911       2021       2022       2033       2032  
      1901       1902       1913       1912       2022       2023       2034       2033  
      1902       1903       1914       1913       2023       2024       2035       2034  
      1904       1905       1916       1915       2025       2026       2037       2036  
      1905       1906       1917       1916       2026       2027       2038       2037  
      1906       1907       1918       1917       2027       2028       2039       2038  
      1907       1908       1919       1918       2028       2029       2040       2039  
      1908       1909       1920       1919       2029       2030       2041       2040  
      1909       1910       1921       1920       2030       2031       2042       2041  
      1910       1911       1922       1921       2031       2032       2043       2042  
      1911       1912       1923       1922       2032       2033       2044       2043  
      1912       1913       1924       1923       2033       2034       2045       2044  
      1913       1914       1925       1924       2034       2035       2046       2045  
      1915       1916       1927       1926       2036       2037       2048       2047  
      1916       1917       1928       1927       2037       2038       2049       2048  
      1917       1918       1929       1928       2038       2039       2050       2049  
      1918       1919       1930       1929       2039       2040       2051       2050  
      1919       1920       1931       1930       2040       2041       2052       2051  
      1920       1921       1932       1931       2041       2042       2053       2052  
      1921       1922       1933       1932       2042       2043       2054       2053  
      1922       1923       1934       1933       2043       2044       2055       2054  
      1923       1924       1935       1934       2044       2045       2056       2055  
      1924       1925       1936       1935       2045       2046       2057       2056  
      1937       1938       1949       1948       2058       2059       2070       2069  
      1938       1939       1950       1949       2059       2060       2071       2070  
      1939       1940       1951       1950       2060       2061       2072       2071  
      1940       1941       1952       1951       2061       2062       2073       2072  
      1941       1942       1953       1952       2062       2063       2074       2073  
      1942       1943       1954       1953       2063       2064       2075       2074  
      1943       1944       1955       1954       2064       2065       2076       2075  
      1944       1945       1956       1955       2065       2066       2077       2076  
      1945       1946       1957       1956       2066       2067       2078       2077  
      1946       1947       1958       1957       2067       2068       2079       2078  
      1948       1949       1960       1959       2069       2070       2081       2080  
      1949       1950       1961       1960       2070       2071       2082       2081  
      1950       1951       1962       1961       2071       2072       2083       2082  
      1951       1952       1963       1962       2072       2073       2084       2083  
      1952       1953       1964       1963       2073       2074       2085       2084  
      1953       1954       1965       1964       2074       2075       2086       2085  
      1954       1955       1966       1965       2075       2076       2087       2086  
      1955       1956       1967       1966       2076       2077       2088       2087  
      1956       1957       1968       1967       2077       2078       2089       2088  
      1957       1958       1969       1968       2078       2079       2090       2089  
      1959       1960       1971       1970       2080       2081       2092       2091  
      1960       1961       1972       1971       2081       2082       2093       2092  
      1961       1962       1973       1972       2082       2083       2094       2093  
      1962       1963       1974       1973       2083       2084       2095       2094  
      1963       1964       1975       1974       2084       2085       2096       2095  
      1964       1965       1976       1975       2085       2086       2097       2096  
      1965       1966       1977       1976       2086       2087       2098       2097  
      1966       1967       1978       1977       2087       2088       2099       2098  
      1967       1968       1979       1978       2088       2089       2100       2099  
      1968       1969       1980       1979       2089       2090       2101       2100  
      1970       1971       1982       1981       2091       2092       2103       2102  
      1971       1972       1983       1982       2092       2093       2104       2103  
      1972       1973       1984       1983       2093       2094       2105       2104  
      1973       1974       1985       1984       2094       2095       2106       2105  
      1974       1975       1986       1985       2095       2096       2107       2106  
      1975       1976       1987       1986       2096       2097       2108       2107  
      1976       1977       1988       1987       2097       2098       2109       2108  
      1977       1978       1989       1988       2098       2099       2110       2109  
      1978       1979       1990       1989       2099       2100       2111       2110  
      1979       1980       1991       1990       2100       2101       2112       2111  
      1981       1982       1993       1992       2102       2103       2114       2113  
      1982       1983       1994       1993       2103       2104       2115       2114  
      1983       1984       1995       1994       2104       2105       2116       2115  
      1984       1985       1996       1995       2105       2106       2117       2116  
      1985       1986       1997       1996       2106       2107       2118       2117  
      1986       1987       1998       1997       2107       2108       2119       2118  
      1987       1988       1999       1998       2108       2109       2120       2119  
      1988       1989       2000       1999       2109       2110       2121       2120  
      1989       1990       2001       2000       2110       2111       2122       2121  
      1990       1991       2002       2001       2111       2112       2123       2122  
      1992       1993       2004       2003       2113       2114       2125       2124  
      1993       1994       2005       2004       2114       2115       2126       2125  
      1994       1995       2006       2005       2115       2116       2127       2126  
      1995       1996       2007       2006       2116       2117       2128       2127  
      1996       1997       2008       2007       2117       2118       2129       2128  
      1997       1998       2009       2008       2118       2119       2130       2129  
      1998       1999       2010       2009       2119       2120       2131       2130  
      1999       2000       2011       2010       2120       2121       2132       2131  
      2000       2001       2012       2011       2121       2122       2133       2132  
      2001       2002       2013       2012       2122       2123       2134       2133  
      2003       2004       2015       2014       2124       2125       2136       2135  
      2004       2005       2016       2015       2125       2126       2137       2136  
      2005       2006       2017       2016       2126       2127       2138       2137  
      2006       2007       2018       2017       2127       2128       2139       2138  
      2007       2008       2019       2018       2128       2129       2140       2139  
      2008       2009       2020       2019       2129       2130       2141       2140  
      2009       2010       2021       2020       2130       2131       2142       2141  
      2010       2011       2022       2021       2131       2132       2143       2142  
      2011       2012       2023       2022       2132       2133       2144       2143  
      2012       2013       2024       2023       2133       2134       2145       2144  
      2014       2015       2026       2025       2135       2136       2147       2146  
      2015       2016       2027       2026       2136       2137       2148       2147  
      2016       2017       2028       2027       2137       2138       2149       2148  
      2017       2018       2029       2028       2138       2139       2150       2149  
      2018       2019       2030       2029       2139       2140       2151       2150  
      2019       2020       2031       2030       2140       2141       2152       2151  
      2020       2021       2032       2031       2141       2142       2153       2152  
      2021       2022       2033       2032       2142       2143       2154       2153  
      2022       2023       2034       2033       2143       2144       2155       2154  
      2023       2024       2035       2034       2144       2145       2156       2155  
      2025       2026       2037       2036       2146       2147       2158       2157  
      2026       2027       2038       2037       2147       2148       2159       2158  
      2027       2028       2039       2038       2148       2149       2160       2159  
      2028       2029       2040       2039       2149       2150       2161       2160  
      2029       2030       2041       2040       2150       2151       2162       2161  
      2030       2031       2042       2041       2151       2152       2163       2162  
      2031       2032       2043       2042       2152       2153       2164       2163  
      2032       2033       2044       2043       2153       2154       2165       2164  
      2033       2034       2045       2044       2154       2155       2166       2165  
      2034       2035       2046       2045       2155       2156       2167       2166  
      2036       2037       2048       2047       2157       2158       2169       2168  
      2037       2038       2049       2048       2158       2159       2170       2169  
      2038       2039       2050       2049       2159       2160       2171       2170  
      2039       2040       2051       2050       2160       2161       2172       2171  
      2040       2041       2052       2051       2161       2162       2173       2172  
      2041       2042       2053       2052       2162       2163       2174       2173  
      2042       2043       2054       2053       2163       2164       2175       2174  
      2043       2044       2055       2054       2164       2165       2176       2175  
      2044       2045       2056       2055       2165       2166       2177       2176  
      2045       2046       2057       2056       2166       2167       2178       2177  
      2058       2059       2070       2069       2179       2180       2191       2190  
      2059       2060       2071       2070       2180       2181       2192       2191  
      2060       2061       2072       2071       2181       2182       2193       2192  
      2061       2062       2073       2072       2182       2183       2194       2193  
      2062       2063       2074       2073       2183       2184       2195       2194  
      2063       2064       2075       2074       2184       2185       2196       2195  
      2064       2065       2076       2075       2185       2186       2197       2196  
      2065       2066       2077       2076       2186       2187       2198       2197  
      2066       2067       2078       2077       2187       2188       2199       2198  
      2067       2068       2079       2078       2188       2189       2200       2199  
      2069       2070       2081       2080       2190       2191       2202       2201  
      2070       2071       2082       2081       2191       2192       2203       2202  
      2071       2072       2083       2082       2192       2193       2204       2203  
      2072       2073       2084       2083       2193       2194       2205       2204  
      2073       2074       2085       2084       2194       2195       2206       2205  
      2074       2075       2086       2085       2195       2196       2207       2206  
      2075       2076       2087       2086       2196       2197       2208       2207  
      2076       2077       2088       2087       2197       2198       2209       2208  
      2077       2078       2089       2088       2198       2199       2210       2209  
      2078       2079       2090       2089       2199       2200       2211       2210  
      2080       2081       2092       2091       2201       2202       2213       2212  
      2081       2082       2093       2092       2202       2203       2214       2213  
      2082       2083       2094       2093       2203       2204       2215       2214  
      2083       2084       2095       2094       2204       2205       2216       2215  
      2084       2085       2096       2095       2205       2206       2217       2216  
      2085       2086       2097       2096       2206       2207       2218       2217  
      2086       2087       2098       2097       2207       2208       2219       2218  
      2087       2088       2099       2098       2208       2209       2220       2219  
      2088       2089       2100       2099       2209       2210       2221       2220  
      2089       2090       2101       2100       2210       2211       2222       2221  
      2091       2092       2103       2102       2212       2213       2224       2223  
      2092       2093       2104       2103       2213       2214       2225       2224  
      2093       2094       2105       2104       2214       2215       2226       2225  
      2094       2095       2106       2105       2215       2216       2227       2226  
      2095       2096       2107       2106       2216       2217       2228       2227  
      2096       2097       2108       2107       2217       2218       2229       2228  
      2097       2098       2109       2108       2218       2219       2230       2229  
      2098       2099       2110       2109       2219       2220       2231       2230  
      2099       2100       2111       2110       2220       2221       2232       2231  
      2100       2101       2112       2111       2221       2222       2233       2232  
      2102       2103       2114       2113       2223       2224       2235       2234  
      2103       2104       2115       2114       2224       2225       2236       2235  
      2104       2105       2116       2115       2225       2226       2237       2236  
      2105       2106       2117       2116       2226       2227       2238       2237  
      2106       2107       2118       2117       2227       2228       2239       2238  
      2107       2108       2119       2118       2228       2229       2240       2239  
      2108       2109       2120       2119       2229       2230       2241       2240  
      2109       2110       2121       2120       2230       2231       2242       2241  
      2110       2111       2122       2121       2231       2232       2243       2242  
      2111       2112       2123       2122       2232       2233       2244       2243  
      2113       2114       2125       2124       2234       2235       2246       2245  
      2114       2115       2126       2125       2235       2236       2247       2246  
      2115       2116       2127       2126       2236       2237       2248       2247  
      2116       2117       2128       2127       2237       2238       2249       2248  
      2117       2118       2129       2128       2238       2239       2250       2249  
      2118       2119       2130       2129       2239       2240       2251       2250  
      2119       2120       2131       2130       2240       2241       2252       2251  
      2120       2121       2132       2131       2241       2242       2253       2252  
      2121       2122       2133       2132       2242       2243       2254       2253  
      2122       2123       2134       2133       2243       2244       2255       2254  
      2124       2125       2136       2135       2245       2246       2257       2256  
      2125       2126       2137       2136       2246       2247       2258       2257  
      2126       2127       2138       2137       2247       2248       2259       2258  
      2127       2128       2139       2138       2248       2249       2260       2259  
      2128       2129       2140       2139       2249       2250       2261       2260  
      2129       2130       2141       2140       2250       2251       2262       2261  
      2130       2131       2142       2141       2251       2252       2263       2262  
      2131       2132       2143       2142       2252       2253       2264       2263  
      2132       2133       2144       2143       2253       2254       2265       2264  
      2133       2134       2145       2144       2254       2255       2266       2265  
      2135       2136       2147       2146       2256       2257       2268       2267  
      2136       2137       2148       2147       2257       2258       2269       2268  
      2137       2138       2149       2148       2258       2259       2270       2269  
      2138       2139       2150       2149       2259       2260       2271       2270  
      2139       2140       2151       2150       2260       2261       2272       2271  
      2140       2141       2152       2151       2261       2262       2273       2272  
      2141       2142       2153       2152       2262       2263       2274       2273  
      2142       2143       2154       2153       2263       2264       2275       2274  
      2143       2144       2155       2154       2264       2265       2276       2275  
      2144       2145       2156       2155       2265       2266       2277       2276  
      2146       2147       2158       2157       2267       2268       2279       2278  
      2147       2148       2159       2158       2268       2269       2280       2279  
      2148       2149       2160       2159       2269       2270       2281       2280  
      2149       2150       2161       2160       2270       2271       2282       2281  
      2150       2151       2162       2161       2271       2272       2283       2282  
      2151       2152       2163       2162       2272       2273       2284       2283  
      2152       2153       2164       2163       2273       2274       2285       2284  
      2153       2154       2165       2164       2274       2275       2286       2285  
      2154       2155       2166       2165       2275       2276       2287       2286  
      2155       2156       2167       2166       2276       2277       2288       2287  
      2157       2158       2169       2168       2278       2279       2290       2289  
      2158       2159       2170       2169       2279       2280       2291       2290  
      2159       2160       2171       2170       2280       2281       2292       2291  
      2160       2161       2172       2171       2281       2282       2293       2292  
      2161       2162       2173       2172       2282       2283       2294       2293  
      2162       2163       2174       2173       2283       2284       2295       2294  
      2163       2164       2175       2174       2284       2285       2296       2295  
      2164       2165       2176       2175       2285       2286       2297       2296  
      2165       2166       2177       2176       2286       2287       2298       2297  
      2166       2167       2178       2177       2287       2288       2299       2298  
      2179       2180       2191       2190       2300       2301       2312       2311  
      2180       2181       2192       2191       2301       2302       2313       2312  
      2181       2182       2193       2192       2302       2303       2314       2313  
      2182       2183       2194       2193       2303       2304       2315       2314  
      2183       2184       2195       2194       2304       2305       2316       2315  
      2184       2185       2196       2195       2305       2306       2317       2316  
      2185       2186       2197       2196       2306       2307       2318       2317  
      2186       2187       2198       2197       2307       2308       2319       2318  
      2187       2188       2199       2198       2308       2309       2320       2319  
      2188       2189       2200       2199       2309       2310       2321       2320  
      2190       2191       2202       2201       2311       2312       2323       2322  
      2191       2192       2203       2202       2312       2313       2324       2323  
      2192       2193       2204       2203       2313       2314       2325       2324  
      2193       2194       2205       2204       2314       2315       2326       2325  
      2194       2195       2206       2205       2315       2316       2327       2326  
      2195       2196       2207       2206       2316       2317       2328       2327  
      2196       2197       2208       2207       2317       2318       2329       2328  
      2197       2198       2209       2208       2318       2319       2330       2329  
      2198       2199       2210       2209       2319       2320       2331       2330  
      2199       2200       2211       2210       2320       2321       2332       2331  
      2201       2202       2213       2212       2322       2323       2334       2333  
      2202       2203       2214       2213       2323       2324       2335       2334  
      2203       2204       2215       2214       2324       2325       2336       2335  
      2204       2205       2216       2215       2325       2326       2337       2336  
      2205       2206       2217       2216       2326       2327       2338       2337  
      2206       2207       2218       2217       2327       2328       2339       2338  
      2207       2208       2219       2218       2328       2329       2340       2339  
      2208       2209       2220       2219       2329       2330       2341       2340  
      2209       2210       2221       2220       2330       2331       2342       2341  
      2210       2211       2222       2221       2331       2332       2343       2342  
      2212       2213       2224       2223       2333       2334       2345       2344  
      2213       2214       2225       2224       2334       2335       2346       2345  
      2214       2215       2226       2225       2335       2336       2347       2346  
      2215       2216       2227       2226       2336       2337       2348       2347  
      2216       2217       2228       2227       2337       2338       2349       2348  
      2217       2218       2229       2228       2338       2339       2350       2349  
      2218       2219       2230       2229       2339       2340       2351       2350  
      2219       2220       2231       2230       2340       2341       2352       2351  
      2220       2221       2232       2231       2341       2342       2353       2352  
      2221       2222       2233       2232       2342       2343       2354       2353  
      2223       2224       2235       2234       2344       2345       2356       2355  
      2224       2225       2236       2235       2345       2346       2357       2356  
      2225       2226       2237       2236       2346       2347       2358       2357  
      2226       2227       2238       2237       2347       2348       2359       2358  
      2227       2228       2239       2238       2348       2349       2360       2359  
      2228       2229       2240       2239       2349       2350       2361       2360  
      2229       2230       2241       2240       2350       2351       2362       2361  
      2230       2231       2242       2241       2351       2352       2363       2362  
      2231       2232       2243       2242       2352       2353       2364       2363  
      2232       2233       2244       2243       2353       2354       2365       2364  
      2234       2235       2246       2245       2355       2356       2367       2366  
      2235       2236       2247       2246       2356       2357       2368       2367  
      2236       2237       2248       2247       2357       2358       2369       2368  
      2237       2238       2249       2248       2358       2359       2370       2369  
      2238       2239       2250       2249       2359       2360       2371       2370  
      2239       2240       2251       2250       2360       2361       2372       2371  
      2240       2241       2252       2251       2361       2362       2373       2372  
      2241       2242       2253       2252       2362       2363       2374       2373  
      2242       2243       2254       2253       2363       2364       2375       2374  
      2243       2244       2255       2254       2364       2365       2376       2375  
      2245       2246       2257       2256       2366       2367       2378       2377  
      2246       2247       2258       2257       2367       2368       2379       2378  
      2247       2248       2259       2258       2368       2369       2380       2379  
      2248       2249       2260       2259       2369       2370       2381       2380  
      2249       2250       2261       2260       2370       2371       2382       2381  
      2250       2251       2262       2261       2371       2372       2383       2382  
      2251       2252       2263       2262       2372       2373       2384       2383  
      2252       2253       2264       2263       2373       2374       2385       2384  
      2253       2254       2265       2264       2374       2375       2386       2385  
      2254       2255       2266       2265       2375       2376       2387       2386  
      2256       2257       2268       2267       2377       2378       2389       2388  
      2257       2258       2269       2268       2378       2379       2390       2389  
      2258       2259       2270       2269       2379       2380       2391       2390  
      2259       2260       2271       2270       2380       2381       2392       2391  
      2260       2261       2272       2271       2381       2382       2393       2392  
      2261       2262       2273       2272       2382       2383       2394       2393  
      2262       2263       2274       2273       2383       2384       2395       2394  
      2263       2264       2275       2274       2384       2385       2396       2395  
      2264       2265       2276       2275       2385       2386       2397       2396  
      2265       2266       2277       2276       2386       2387       2398       2397  
      2267       2268       2279       2278       2388       2389       2400       2399  
      2268       2269       2280       2279       2389       2390       2401       2400  
      2269       2270       2281       2280       2390       2391       2402       2401  
      2270       2271       2282       2281       2391       2392       2403       2402  
      2271       2272       2283       2282       2392       2393       2404       2403  
      2272       2273       2284       2283       2393       2394       2405       2404  
      2273       2274       2285       2284       2394       2395       2406       2405  
      2274       2275       2286       2285       2395       2396       2407       2406  
      2275       2276       2287       2286       2396       2397       2408       2407  
      2276       2277       2288       2287       2397       2398       2409       2408  
      2278       2279       2290       2289       2399       2400       2411       2410  
      2279       2280       2291       2290       2400       2401       2412       2411  
      2280       2281       2292       2291       2401       2402       2413       2412  
      2281       2282       2293       2292       2402       2403       2414       2413  
      2282       2283       2294       2293       2403       2404       2415       2414  
      2283       2284       2295       2294       2404       2405       2416       2415  
      2284       2285       2296       2295       2405       2406       2417       2416  
      2285       2286       2297       2296       2406       2407       2418       2417  
      2286       2287       2298       2297       2407       2408       2419       2418  
      2287       2288       2299       2298       2408       2409       2420       2419  
      2300       2301       2312       2311       2421       2422       2433       2432  
      2301       2302       2313       2312       2422       2423       2434       2433  
      2302       2303       2314       2313       2423       2424       2435       2434  
      2303       2304       2315       2314       2424       2425       2436       2435  
      2304       2305       2316       2315       2425       2426       2437       2436  
      2305       2306       2317       2316       2426       2427       2438       2437  
      2306       2307       2318       2317       2427       2428       2439       2438  
      2307       2308       2319       2318       2428       2429       2440       2439  
      2308       2309       2320       2319       2429       2430       2441       2440  
      2309       2310       2321       2320       2430       2431       2442       2441  
      2311       2312       2323       2322       2432       2433       2444       2443  
      2312       2313       2324       2323       2433       2434       2445       2444  
      2313       2314       2325       2324       2434       2435       2446       2445  
      2314       2315       2326       2325       2435       2436       2447       2446  
      2315       2316       2327       2326       2436       2437       2448       2447  
      2316       2317       2328       2327       2437       2438       2449       2448  
      2317       2318       2329       2328       2438       2439       2450       2449  
      2318       2319       2330       2329       2439       2440       2451       2450  
      2319       2320       2331       2330       2440       2441       2452       2451  
      2320       2321       2332       2331       2441       2442       2453       2452  
      2322       2323       2334       2333       2443       2444       2455       2454  
      2323       2324       2335       2334       2444       2445       2456       2455  
      2324       2325       2336       2335       2445       2446       2457       2456  
      2325       2326       2337       2336       2446       2447       2458       2457  
      2326       2327       2338       2337       2447       2448       2459       2458  
      2327       2328       2339       2338       2448       2449       2460       2459  
      2328       2329       2340       2339       2449       2450       2461       2460  
      2329       2330       2341       2340       2450       2451       2462       2461  
      2330       2331       2342       2341       2451       2452       2463       2462  
      2331       2332       2343       2342       2452       2453       2464       2463  
      2333       2334       2345       2344       2454       2455       2466       2465  
      2334       2335       2346       2345       2455       2456       2467       2466  
      2335       2336       2347       2346       2456       2457       2468       2467  
      2336       2337       2348       2347       2457       2458       2469       2468  
      2337       2338       2349       2348       2458       2459       2470       2469  
      2338       2339       2350       2349       2459       2460       2471       2470  
      2339       2340       2351       2350       2460       2461       2472       2471  
      2340       2341       2352       2351       2461       2462       2473       2472  
      2341       2342       2353       2352       2462       2463       2474       2473  
      2342       2343       2354       2353       2463       2464       2475       2474  
      2344       2345       2356       2355       2465       2466       2477       2476  
      2345       2346       2357       2356       2466       2467       2478       2477  
      2346       2347       2358       2357       2467       2468       2479       2478  
      2347       2348       2359       2358       2468       2469       2480       2479  
      2348       2349       2360       2359       2469       2470       2481       2480  
      2349       2350       2361       2360       2470       2471       2482       2481  
      2350       2351       2362       2361       2471       2472       2483       2482  
      2351       2352       2363       2362       2472       2473       2484       2483  
      2352       2353       2364       2363       2473       2474       2485       2484  
      2353       2354       2365       2364       2474       2475       2486       2485  
      2355       2356       2367       2366       2476       2477       2488       2487  
      2356       2357       2368       2367       2477       2478       2489       2488  
      2357       2358       2369       2368       2478       2479       2490       2489  
      2358       2359       2370       2369       2479       2480       2491       2490  
      2359       2360       2371       2370       2480       2481       2492       2491  
      2360       2361       2372       2371       2481       2482       2493       2492  
      2361       2362       2373       2372       2482       2483       2494       2493  
      2362       2363       2374       2373       2483       2484       2495       2494  
      2363       2364       2375       2374       2484       2485       2496       2495  
      2364       2365       2376       2375       2485       2486       2497       2496  
      2366       2367       2378       2377       2487       2488       2499       2498  
      2367       2368       2379       2378       2488       2489       2500       2499  
      2368       2369       2380       2379       2489       2490       2501       2500  
      2369       2370       2381       2380       2490       2491       2502       2501  
      2370       2371       2382       2381       2491       2492       2503       2502  
      2371       2372       2383       2382       2492       2493       2504       2503  
      2372       2373       2384       2383       2493       2494       2505       2504  
      2373       2374       2385       2384       2494       2495       2506       2505  
      2374       2375       2386       2385       2495       2496       2507       2506  
      2375       2376       2387       2386       2496       2497       2508       2507  
      2377       2378       2389       2388       2498       2499       2510       2509  
      2378       2379       2390       2389       2499       2500       2511       2510  
      2379       2380       2391       2390       2500       2501       2512       2511  
      2380       2381       2392       2391       2501       2502       2513       2512  
      2381       2382       2393       2392       2502       2503       2514       2513  
      2382       2383       2394       2393       2503       2504       2515       2514  
      2383       2384       2395       2394       2504       2505       2516       2515  
      2384       2385       2396       2395       2505       2506       2517       2516  
      2385       2386       2397       2396       2506       2507       2518       2517  
      2386       2387       2398       2397       2507       2508       2519       2518  
      2388       2389       2400       2399       2509       2510       2521       2520  
      2389       2390       2401       2400       2510       2511       2522       2521  
      2390       2391       2402       2401       2511       2512       2523       2522  
      2391       2392       2403       2402       2512       2513       2524       2523  
      2392       2393       2404       2403       2513       2514       2525       2524  
      2393       2394       2405       2404       2514       2515       2526       2525  
      2394       2395       2406       2405       2515       2516       2527       2526  
      2395       2396       2407       2406       2516       2517       2528       2527  
      2396       2397       2408       2407       2517       2518       2529       2528  
      2397       2398       2409       2408       2518       2519       2530       2529  
      2399       2400       2411       2410       2520       2521       2532       2531  
      2400       2401       2412       2411       2521       2522       2533       2532  
      2401       2402       2413       2412       2522       2523       2534       2533  
      2402       2403       2414       2413       2523       2524       2535       2534  
      2403       2404       2415       2414       2524       2525       2536       2535  
      2404       2405       2416       2415       2525       2526       2537       2536  
      2405       2406       2417       2416       2526       2527       2538       2537  
      2406       2407       2418       2417       2527       2528       2539       2538  
      2407       2408       2419       2418       2528       2529       2540       2539  
      2408       2409       2420       2419       2529       2530       2541       2540  
      2421       2422       2433       2432       2542       2543       2554       2553  
      2422       2423       2434       2433       2543       2544       2555       2554  
      2423       2424       2435       2434       2544       2545       2556       2555  
      2424       2425       2436       2435       2545       2546       2557       2556  
      2425       2426       2437       2436       2546       2547       2558       2557  
      2426       2427       2438       2437       2547       2548       2559       2558  
      2427       2428       2439       2438       2548       2549       2560       2559  
      2428       2429       2440       2439       2549       2550       2561       2560  
      2429       2430       2441       2440       2550       2551       2562       2561  
      2430       2431       2442       2441       2551       2552       2563       2562  
      2432       2433       2444       2443       2553       2554       2565       2564  
      2433       2434       2445       2444       2554       2555       2566       2565  
      2434       2435       2446       2445       2555       2556       2567       2566  
      2435       2436       2447       2446       2556       2557       2568       2567  
      2436       2437       2448       2447       2557       2558       2569       2568  
      2437       2438       2449       2448       2558       2559       2570       2569  
      2438       2439       2450       2449       2559       2560       2571       2570  
      2439       2440       2451       2450       2560       2561       2572       2571  
      2440       2441       2452       2451       2561       2562       2573       2572  
      2441       2442       2453       2452       2562       2563       2574       2573  
      2443       2444       2455       2454       2564       2565       2576       2575  
      2444       2445       2456       2455       2565       2566       2577       2576  
      2445       2446       2457       2456       2566       2567       2578       2577  
      2446       2447       2458       2457       2567       2568       2579       2578  
      2447       2448       2459       2458       2568       2569       2580       2579  
      2448       2449       2460       2459       2569       2570       2581       2580  
      2449       2450       2461       2460       2570       2571       2582       2581  
      2450       2451       2462       2461       2571       2572       2583       2582  
      2451       2452       2463       2462       2572       2573       2584       2583  
      2452       2453       2464       2463       2573       2574       2585       2584  
      2454       2455       2466       2465       2575       2576       2587       2586  
      2455       2456       2467       2466       2576       2577       2588       2587  
      2456       2457       2468       2467       2577       2578       2589       2588  
      2457       2458       2469       2468       2578       2579       2590       2589  
      2458       2459       2470       2469       2579       2580       2591       2590  
      2459       2460       2471       2470       2580       2581       2592       2591  
      2460       2461       2472       2471       2581       2582       2593       2592  
      2461       2462       2473       2472       2582       2583       2594       2593  
      2462       2463       2474       2473       2583       2584       2595       2594  
      2463       2464       2475       2474       2584       2585       2596       2595  
      2465       2466       2477       2476       2586       2587       2598       2597  
      2466       2467       2478       2477       2587       2588       2599       2598  
      2467       2468       2479       2478       2588       2589       2600       2599  
      2468       2469       2480       2479       2589       2590       2601       2600  
      2469       2470       2481       2480       2590       2591       2602       2601  
      2470       2471       2482       2481       2591       2592       2603       2602  
      2471       2472       2483       2482       2592       2593       2604       2603  
      2472       2473       2484       2483       2593       2594       2605       2604  
      2473       2474       2485       2484       2594       2595       2606       2605  
      2474       2475       2486       2485       2595       2596       2607       2606  
      2476       2477       2488       2487       2597       2598       2609       2608  
      2477       2478       2489       2488       2598       2599       2610       2609  
      2478       2479       2490       2489       2599       2600       2611       2610  
      2479       2480       2491       2490       2600       2601       2612       2611  
      2480       2481       2492       2491       2601       2602       2613       2612  
      2481       2482       2493       2492       2602       2603       2614       2613  
      2482       2483       2494       2493       2603       2604       2615       2614  
      2483       2484       2495       2494       2604       2605       2616       2615  
      2484       2485       2496       2495       2605       2606       2617       2616  
      2485       2486       2497       2496       2606       2607       2618       2617  
      2487       2488       2499       2498       2608       2609       2620       2619  
      2488       2489       2500       2499       2609       2610       2621       2620  
      2489       2490       2501       2500       2610       2611       2622       2621  
      2490       2491       2502       2501       2611       2612       2623       2622  
      2491       2492       2503       2502       2612       2613       2624       2623  
      2492       2493       2504       2503       2613       2614       2625       2624  
      2493       2494       2505       2504       2614       2615       2626       2625  
      2494       2495       2506       2505       2615       2616       2627       2626  
      2495       2496       2507       2506       2616       2617       2628       2627  
      2496       2497       2508       2507       2617       2618       2629       2628  
      2498       2499       2510       2509       2619       2620       2631       2630  
      2499       2500       2511       2510       2620       2621       2632       2631  
      2500       2501       2512       2511       2621       2622       2633       2632  
      2501       2502       2513       2512       2622       2623       2634       2633  
      2502       2503       2514       2513       2623       2624       2635       2634  
      2503       2504       2515       2514       2624       2625       2636       2635  
      2504       2505       2516       2515       2625       2626       2637       2636  
      2505       2506       2517       2516       2626       2627       2638       2637  
      2506       2507       2518       2517       2627       2628       2639       2638  
      2507       2508       2519       2518       2628       2629       2640       2639  
      2509       2510       2521       2520       2630       2631       2642       2641  
      2510       2511       2522       2521       2631       2632       2643       2642  
      2511       2512       2523       2522       2632       2633       2644       2643  
      2512       2513       2524       2523       2633       2634       2645       2644  
      2513       2514       2525       2524       2634       2635       2646       2645  
      2514       2515       2526       2525       2635       2636       2647       2646  
      2515       2516       2527       2526       2636       2637       2648       2647  
      2516       2517       2528       2527       2637       2638       2649       2648  
      2517       2518       2529       2528       2638       2639       2650       2649  
      2518       2519       2530       2529       2639       2640       2651       2650  
      2520       2521       2532       2531       2641       2642       2653       2652  
      2521       2522       2533       2532       2642       2643       2654       2653  
      2522       2523       2534       2533       2643       2644       2655       2654  
      2523       2524       2535       2534       2644       2645       2656       2655  
      2524       2525       2536       2535       2645       2646       2657       2656  
      2525       2526       2537       2536       2646       2647       2658       2657  
      2526       2527       2538       2537       2647       2648       2659       2658  
      2527       2528       2539       2538       2648       2649       2660       2659  
      2528       2529       2540       2539       2649       2650       2661       2660  
      2529       2530       2541       2540       2650       2651       2662       2661  
      2542       2543       2554       2553       2663       2664       2675       2674  
      2543       2544       2555       2554       2664       2665       2676       2675  
      2544       2545       2556       2555       2665       2666       2677       2676  
      2545       2546       2557       2556       2666       2667       2678       2677  
      2546       2547       2558       2557       2667       2668       2679       2678  
      2547       2548       2559       2558       2668       2669       2680       2679  
      2548       2549       2560       2559       2669       2670       2681       2680  
      2549       2550       2561       2560       2670       2671       2682       2681  
      2550       2551       2562       2561       2671       2672       2683       2682  
      2551       2552       2563       2562       2672       2673       2684       2683  
      2553       2554       2565       2564       2674       2675       2686       2685  
      2554       2555       2566       2565       2675       2676       2687       2686  
      2555       2556       2567       2566       2676       2677       2688       2687  
      2556       2557       2568       2567       2677       2678       2689       2688  
      2557       2558       2569       2568       2678       2679       2690       2689  
      2558       2559       2570       2569       2679       2680       2691       2690  
      2559       2560       2571       2570       2680       2681       2692       2691  
      2560       2561       2572       2571       2681       2682       2693       2692  
      2561       2562       2573       2572       2682       2683       2694       2693  
      2562       2563       2574       2573       2683       2684       2695       2694  
      2564       2565       2576       2575       2685       2686       2697       2696  
      2565       2566       2577       2576       2686       2687       2698       2697  
      2566       2567       2578       2577       2687       2688       2699       2698  
      2567       2568       2579       2578       2688       2689       2700       2699  
      2568       2569       2580       2579       2689       2690       2701       2700  
      2569       2570       2581       2580       2690       2691       2702       2701  
      2570       2571       2582       2581       2691       2692       2703       2702  
      2571       2572       2583       2582       2692       2693       2704       2703  
      2572       2573       2584       2583       2693       2694       2705       2704  
      2573       2574       2585       2584       2694       2695       2706       2705  
      2575       2576       2587       2586       2696       2697       2708       2707  
      2576       2577       2588       2587       2697       2698       2709       2708  
      2577       2578       2589       2588       2698       2699       2710       2709  
      2578       2579       2590       2589       2699       2700       2711       2710  
      2579       2580       2591       2590       2700       2701       2712       2711  
      2580       2581       2592       2591       2701       2702       2713       2712  
      2581       2582       2593       2592       2702       2703       2714       2713  
      2582       2583       2594       2593       2703       2704       2715       2714  
      2583       2584       2595       2594       2704       2705       2716       2715  
      2584       2585       2596       2595       2705       2706       2717       2716  
      2586       2587       2598       2597       2707       2708       2719       2718  
      2587       2588       2599       2598       2708       2709       2720       2719  
      2588       2589       2600       2599       2709       2710       2721       2720  
      2589       2590       2601       2600       2710       2711       2722       2721  
      2590       2591       2602       2601       2711       2712       2723       2722  
      2591       2592       2603       2602       2712       2713       2724       2723  
      2592       2593       2604       2603       2713       2714       2725       2724  
      2593       2594       2605       2604       2714       2715       2726       2725  
      2594       2595       2606       2605       2715       2716       2727       2726  
      2595       2596       2607       2606       2716       2717       2728       2727  
      2597       2598       2609       2608       2718       2719       2730       2729  
      2598       2599       2610       2609       2719       2720       2731       2730  
      2599       2600       2611       2610       2720       2721       2732       2731  
      2600       2601       2612       2611       2721       2722       2733       2732  
      2601       2602       2613       2612       2722       2723       2734       2733  
      2602       2603       2614       2613       2723       2724       2735       2734  
      2603       2604       2615       2614       2724       2725       2736       2735  
      2604       2605       2616       2615       2725       2726       2737       2736  
      2605       2606       2617       2616       2726       2727       2738       2737  
      2606       2607       2618       2617       2727       2728       2739       2738  
      2608       2609       2620       2619       2729       2730       2741       2740  
      2609       2610       2621       2620       2730       2731       2742       2741  
      2610       2611       2622       2621       2731       2732       2743       2742  
      2611       2612       2623       2622       2732       2733       2744       2743  
      2612       2613       2624       2623       2733       2734       2745       2744  
      2613       2614       2625       2624       2734       2735       2746       2745  
      2614       2615       2626       2625       2735       2736       2747       2746  
      2615       2616       2627       2626       2736       2737       2748       2747  
      2616       2617       2628       2627       2737       2738       2749       2748  
      2617       2618       2629       2628       2738       2739       2750       2749  
      2619       2620       2631       2630       2740       2741       2752       2751  
      2620       2621       2632       2631       2741       2742       2753       2752  
      2621       2622       2633       2632       2742       2743       2754       2753  
      2622       2623       2634       2633       2743       2744       2755       2754  
      2623       2624       2635       2634       2744       2745       2756       2755  
      2624       2625       2636       2635       2745       2746       2757       2756  
      2625       2626       2637       2636       2746       2747       2758       2757  
      2626       2627       2638       2637       2747       2748       2759       2758  
      2627       2628       2639       2638       2748       2749       2760       2759  
      2628       2629       2640       2639       2749       2750       2761       2760  
      2630       2631       2642       2641       2751       2752       2763       2762  
      2631       2632       2643       2642       2752       2753       2764       2763  
      2632       2633       2644       2643       2753       2754       2765       2764  
      2633       2634       2645       2644       2754       2755       2766       2765  
      2634       2635       2646       2645       2755       2756       2767       2766  
      2635       2636       2647       2646       2756       2757       2768       2767  
      2636       2637       2648       2647       2757       2758       2769       2768  
      2637       2638       2649       2648       2758       2759       2770       2769  
      2638       2639       2650       2649       2759       2760       2771       2770  
      2639       2640       2651       2650       2760       2761       2772       2771  
      2641       2642       2653       2652       2762       2763       2774       2773  
      2642       2643       2654       2653       2763       2764       2775       2774  
      2643       2644       2655       2654       2764       2765       2776       2775  
      2644       2645       2656       2655       2765       2766       2777       2776  
      2645       2646       2657       2656       2766       2767       2778       2777  
      2646       2647       2658       2657       2767       2768       2779       2778  
      2647       2648       2659       2658       2768       2769       2780       2779  
      2648       2649       2660       2659       2769       2770       2781       2780  
      2649       2650       2661       2660       2770       2771       2782       2781  
      2650       2651       2662       2661       2771       2772       2783       2782  
      2663       2664       2675       2674       2784       2785       2796       2795  
      2664       2665       2676       2675       2785       2786       2797       2796  
      2665       2666       2677       2676       2786       2787       2798       2797  
      2666       2667       2678       2677       2787       2788       2799       2798  
      2667       2668       2679       2678       2788       2789       2800       2799  
      2668       2669       2680       2679       2789       2790       2801       2800  
      2669       2670       2681       2680       2790       2791       2802       2801  
      2670       2671       2682       2681       2791       2792       2803       2802  
      2671       2672       2683       2682       2792       2793       2804       2803  
      2672       2673       2684       2683       2793       2794       2805       2804  
      2674       2675       2686       2685       2795       2796       2807       2806  
      2675       2676       2687       2686       2796       2797       2808       2807  
      2676       2677       2688       2687       2797       2798       2809       2808  
      2677       2678       2689       2688       2798       2799       2810       2809  
      2678       2679       2690       2689       2799       2800       2811       2810  
      2679       2680       2691       2690       2800       2801       2812       2811  
      2680       2681       2692       2691       2801       2802       2813       2812  
      2681       2682       2693       2692       2802       2803       2814       2813  
      2682       2683       2694       2693       2803       2804       2815       2814  
      2683       2684       2695       2694       2804       2805       2816       2815  
      2685       2686       2697       2696       2806       2807       2818       2817  
      2686       2687       2698       2697       2807       2808       2819       2818  
      2687       2688       2699       2698       2808       2809       2820       2819  
      2688       2689       2700       2699       2809       2810       2821       2820  
      2689       2690       2701       2700       2810       2811       2822       2821  
      2690       2691       2702       2701       2811       2812       2823       2822  
      2691       2692       2703       2702       2812       2813       2824       2823  
      2692       2693       2704       2703       2813       2814       2825       2824  
      2693       2694       2705       2704       2814       2815       2826       2825  
      2694       2695       2706       2705       2815       2816       2827       2826  
      2696       2697       2708       2707       2817       2818       2829       2828  
      2697       2698       2709       2708       2818       2819       2830       2829  
      2698       2699       2710       2709       2819       2820       2831       2830  
      2699       2700       2711       2710       2820       2821       2832       2831  
      2700       2701       2712       2711       2821       2822       2833       2832  
      2701       2702       2713       2712       2822       2823       2834       2833  
      2702       2703       2714       2713       2823       2824       2835       2834  
      2703       2704       2715       2714       2824       2825       2836       2835  
      2704       2705       2716       2715       2825       2826       2837       2836  
      2705       2706       2717       2716       2826       2827       2838       2837  
      2707       2708       2719       2718       2828       2829       2840       2839  
      2708       2709       2720       2719       2829       2830       2841       2840  
      2709       2710       2721       2720       2830       2831       2842       2841  
      2710       2711       2722       2721       2831       2832       2843       2842  
      2711       2712       2723       2722       2832       2833       2844       2843  
      2712       2713       2724       2723       2833       2834       2845       2844  
      2713       2714       2725       2724       2834       2835       2846       2845  
      2714       2715       2726       2725       2835       2836       2847       2846  
      2715       2716       2727       2726       2836       2837       2848       2847  
      2716       2717       2728       2727       2837       2838       2849       2848  
      2718       2719       2730       2729       2839       2840       2851       2850  
      2719       2720       2731       2730       2840       2841       2852       2851  
      2720       2721       2732       2731       2841       2842       2853       2852  
      2721       2722       2733       2732       2842       2843       2854       2853  
      2722       2723       2734       2733       2843       2844       2855       2854  
      2723       2724       2735       2734       2844       2845       2856       2855  
      2724       2725       2736       2735       2845       2846       2857       2856  
      2725       2726       2737       2736       2846       2847       2858       2857  
      2726       2727       2738       2737       2847       2848       2859       2858  
      2727       2728       2739       2738       2848       2849       2860       2859  
      2729       2730       2741       2740       2850       2851       2862       2861  
      2730       2731       2742       2741       2851       2852       2863       2862  
      2731       2732       2743       2742       2852       2853       2864       2863  
      2732       2733       2744       2743       2853       2854       2865       2864  
      2733       2734       2745       2744       2854       2855       2866       2865  
      2734       2735       2746       2745       2855       2856       2867       2866  
      2735       2736       2747       2746       2856       2857       2868       2867  
      2736       2737       2748       2747       2857       2858       2869       2868  
      2737       2738       2749       2748       2858       2859       2870       2869  
      2738       2739       2750       2749       2859       2860       2871       2870  
      2740       2741       2752       2751       2861       2862       2873       2872  
      2741       2742       2753       2752       2862       2863       2874       2873  
      2742       2743       2754       2753       2863       2864       2875       2874  
      2743       2744       2755       2754       2864       2865       2876       2875  
      2744       2745       2756       2755       2865       2866       2877       2876  
      2745       2746       2757       2756       2866       2867       2878       2877  
      2746       2747       2758       2757       2867       2868       2879       2878  
      2747       2748       2759       2758       2868       2869       2880       2879  
      2748       2749       2760       2759       2869       2870       2881       2880  
      2749       2750       2761       2760       2870       2871       2882       2881  
      2751       2752       2763       2762       2872       2873       2884       2883  
      2752       2753       2764       2763       2873       2874       2885       2884  
      2753       2754       2765       2764       2874       2875       2886       2885  
      2754       2755       2766       2765       2875       2876       2887       2886  
      2755       2756       2767       2766       2876       2877       2888       2887  
      2756       2757       2768       2767       2877       2878       2889       2888  
      2757       2758       2769       2768       2878       2879       2890       2889  
      2758       2759       2770       2769       2879       2880       2891       2890  
      2759       2760       2771       2770       2880       2881       2892       2891  
      2760       2761       2772       2771       2881       2882       2893       2892  
      2762       2763       2774       2773       2883       2884       2895       2894  
      2763       2764       2775       2774       2884       2885       2896       2895  
      2764       2765       2776       2775       2885       2886       2897       2896  
      2765       2766       2777       2776       2886       2887       2898       2897  
      2766       2767       2778       2777       2887       2888       2899       2898  
      2767       2768       2779       2778       2888       2889       2900       2899  
      2768       2769       2780       2779       2889       2890       2901       2900  
      2769       2770       2781       2780       2890       2891       2902       2901  
      2770       2771       2782       2781       2891       2892       2903       2902  
      2771       2772       2783       2782       2892       2893       2904       2903  
      2784       2785       2796       2795       2905       2906       2917       2916  
      2785       2786       2797       2796       2906       2907       2918       2917  
      2786       2787       2798       2797       2907       2908       2919       2918  
      2787       2788       2799       2798       2908       2909       2920       2919  
      2788       2789       2800       2799       2909       2910       2921       2920  
      2789       2790       2801       2800       2910       2911       2922       2921  
      2790       2791       2802       2801       2911       2912       2923       2922  
      2791       2792       2803       2802       2912       2913       2924       2923  
      2792       2793       2804       2803       2913       2914       2925       2924  
      2793       2794       2805       2804       2914       2915       2926       2925  
      2795       2796       2807       2806       2916       2917       2928       2927  
      2796       2797       2808       2807       2917       2918       2929       2928  
      2797       2798       2809       2808       2918       2919       2930       2929  
      2798       2799       2810       2809       2919       2920       2931       2930  
      2799       2800       2811       2810       2920       2921       2932       2931  
      2800       2801       2812       2811       2921       2922       2933       2932  
      2801       2802       2813       2812       2922       2923       2934       2933  
      2802       2803       2814       2813       2923       2924       2935       2934  
      2803       2804       2815       2814       2924       2925       2936       2935  
      2804       2805       2816       2815       2925       2926       2937       2936  
      2806       2807       2818       2817       2927       2928       2939       2938  
      2807       2808       2819       2818       2928       2929       2940       2939  
      2808       2809       2820       2819       2929       2930       2941       2940  
      2809       2810       2821       2820       2930       2931       2942       2941  
      2810       2811       2822       2821       2931       2932       2943       2942  
      2811       2812       2823       2822       2932       2933       2944       2943  
      2812       2813       2824       2823       2933       2934       2945       2944  
      2813       2814       2825       2824       2934       2935       2946       2945  
      2814       2815       2826       2825       2935       2936       2947       2946  
      2815       2816       2827       2826       2936       2937       2948       2947  
      2817       2818       2829       2828       2938       2939       2950       2949  
      2818       2819       2830       2829       2939       2940       2951       2950  
      2819       2820       2831       2830       2940       2941       2952       2951  
      2820       2821       2832       2831       2941       2942       2953       2952  
      2821       2822       2833       2832       2942       2943       2954       2953  
      2822       2823       2834       2833       2943       2944       2955       2954  
      2823       2824       2835       2834       2944       2945       2956       2955  
      2824       2825       2836       2835       2945       2946       2957       2956  
      2825       2826       2837       2836       2946       2947       2958       2957  
      2826       2827       2838       2837       2947       2948       2959       2958  
      2828       2829       2840       2839       2949       2950       2961       2960  
      2829       2830       2841       2840       2950       2951       2962       2961  
      2830       2831       2842       2841       2951       2952       2963       2962  
      2831       2832       2843       2842       2952       2953       2964       2963  
      2832       2833       2844       2843       2953       2954       2965       2964  
      2833       2834       2845       2844       2954       2955       2966       2965  
      2834       2835       2846       2845       2955       2956       2967       2966  
      2835       2836       2847       2846       2956       2957       2968       2967  
      2836       2837       2848       2847       2957       2958       2969       2968  
      2837       2838       2849       2848       2958       2959       2970       2969  
      2839       2840       2851       2850       2960       2961       2972       2971  
      2840       2841       2852       2851       2961       2962       2973       2972  
      2841       2842       2853       2852       2962       2963       2974       2973  
      2842       2843       2854       2853       2963       2964       2975       2974  
      2843       2844       2855       2854       2964       2965       2976       2975  
      2844       2845       2856       2855       2965       2966       2977       2976  
      2845       2846       2857       2856       2966       2967       2978       2977  
      2846       2847       2858       2857       2967       2968       2979       2978  
      2847       2848       2859       2858       2968       2969       2980       2979  
      2848       2849       2860       2859       2969       2970       2981       2980  
      2850       2851       2862       2861       2971       2972       2983       2982  
      2851       2852       2863       2862       2972       2973       2984       2983  
      2852       2853       2864       2863       2973       2974       2985       2984  
      2853       2854       2865       2864       2974       2975       2986       2985  
      2854       2855       2866       2865       2975       2976       2987       2986  
      2855       2856       2867       2866       2976       2977       2988       2987  
      2856       2857       2868       2867       2977       2978       2989       2988  
      2857       2858       2869       2868       2978       2979       2990       2989  
      2858       2859       2870       2869       2979       2980       2991       2990  
      2859       2860       2871       2870       2980       2981       2992       2991  
      2861       2862       2873       2872       2982       2983       2994       2993  
      2862       2863       2874       2873       2983       2984       2995       2994  
      2863       2864       2875       2874       2984       2985       2996       2995  
      2864       2865       2876       2875       2985       2986       2997       2996  
      2865       2866       2877       2876       2986       2987       2998       2997  
      2866       2867       2878       2877       2987       2988       2999       2998  
      2867       2868       2879       2878       2988       2989       3000       2999  
      2868       2869       2880       2879       2989       2990       3001       3000  
      2869       2870       2881       2880       2990       2991       3002       3001  
      2870       2871       2882       2881       2991       2992       3003       3002  
      2872       2873       2884       2883       2993       2994       3005       3004  
      2873       2874       2885       2884       2994       2995       3006       3005  
      2874       2875       2886       2885       2995       2996       3007       3006  
      2875       2876       2887       2886       2996       2997       3008       3007  
      2876       2877       2888       2887       2997       2998       3009       3008  
      2877       2878       2889       2888       2998       2999       3010       3009  
      2878       2879       2890       2889       2999       3000       3011       3010  
      2879       2880       2891       2890       3000       3001       3012       3011  
      2880       2881       2892       2891       3001       3002       3013       3012  
      2881       2882       2893       2892       3002       3003       3014       3013  
      2883       2884       2895       2894       3004       3005       3016       3015  
      2884       2885       2896       2895       3005       3006       3017       3016  
      2885       2886       2897       2896       3006       3007       3018       3017  
      2886       2887       2898       2897       3007       3008       3019       3018  
      2887       2888       2899       2898       3008       3009       3020       3019  
      2888       2889       2900       2899       3009       3010       3021       3020  
      2889       2890       2901       2900       3010       3011       3022       3021  
      2890       2891       2902       2901       3011       3012       3023       3022  
      2891       2892       2903       2902       3012       3013       3024       3023  
      2892       2893       2904       2903       3013       3014       3025       3024  
      2905       2906       2917       2916       3026       3027       3038       3037  
      2906       2907       2918       2917       3027       3028       3039       3038  
      2907       2908       2919       2918       3028       3029       3040       3039  
      2908       2909       2920       2919       3029       3030       3041       3040  
      2909       2910       2921       2920       3030       3031       3042       3041  
      2910       2911       2922       2921       3031       3032       3043       3042  
      2911       2912       2923       2922       3032       3033       3044       3043  
      2912       2913       2924       2923       3033       3034       3045       3044  
      2913       2914       2925       2924       3034       3035       3046       3045  
      2914       2915       2926       2925       3035       3036       3047       3046  
      2916       2917       2928       2927       3037       3038       3049       3048  
      2917       2918       2929       2928       3038       3039       3050       3049  
      2918       2919       2930       2929       3039       3040       3051       3050  
      2919       2920       2931       2930       3040       3041       3052       3051  
      2920       2921       2932       2931       3041       3042       3053       3052  
      2921       2922       2933       2932       3042       3043       3054       3053  
      2922       2923       2934       2933       3043       3044       3055       3054  
      2923       2924       2935       2934       3044       3045       3056       3055  
      2924       2925       2936       2935       3045       3046       3057       3056  
      2925       2926       2937       2936       3046       3047       3058       3057  
      2927       2928       2939       2938       3048       3049       3060       3059  
      2928       2929       2940       2939       3049       3050       3061       3060  
      2929       2930       2941       2940       3050       3051       3062       3061  
      2930       2931       2942       2941       3051       3052       3063       3062  
      2931       2932       2943       2942       3052       3053       3064       3063  
      2932       2933       2944       2943       3053       3054       3065       3064  
      2933       2934       2945       2944       3054       3055       3066       3065  
      2934       2935       2946       2945       3055       3056       3067       3066  
      2935       2936       2947       2946       3056       3057       3068       3067  
      2936       2937       2948       2947       3057       3058       3069       3068  
      2938       2939       2950       2949       3059       3060       3071       3070  
      2939       2940       2951       2950       3060       3061       3072       3071  
      2940       2941       2952       2951       3061       3062       3073       3072  
      2941       2942       2953       2952       3062       3063       3074       3073  
      2942       2943       2954       2953       3063       3064       3075       3074  
      2943       2944       2955       2954       3064       3065       3076       3075  
      2944       2945       2956       2955       3065       3066       3077       3076  
      2945       2946       2957       2956       3066       3067       3078       3077  
      2946       2947       2958       2957       3067       3068       3079       3078  
      2947       2948       2959       2958       3068       3069       3080       3079  
      2949       2950       2961       2960       3070       3071       3082       3081  
      2950       2951       2962       2961       3071       3072       3083       3082  
      2951       2952       2963       2962       3072       3073       3084       3083  
      2952       2953       2964       2963       3073       3074       3085       3084  
      2953       2954       2965       2964       3074       3075       3086       3085  
      2954       2955       2966       2965       3075       3076       3087       3086  
      2955       2956       2967       2966       3076       3077       3088       3087  
      2956       2957       2968       2967       3077       3078       3089       3088  
      2957       2958       2969       2968       3078       3079       3090       3089  
      2958       2959       2970       2969       3079       3080       3091       3090  
      2960       2961       2972       2971       3081       3082       3093       3092  
      2961       2962       2973       2972       3082       3083       3094       3093  
      2962       2963       2974       2973       3083       3084       3095       3094  
      2963       2964       2975       2974       3084       3085       3096       3095  
      2964       2965       2976       2975       3085       3086       3097       3096  
      2965       2966       2977       2976       3086       3087       3098       3097  
      2966       2967       2978       2977       3087       3088       3099       3098  
      2967       2968       2979       2978       3088       3089       3100       3099  
      2968       2969       2980       2979       3089       3090       3101       3100  
      2969       2970       2981       2980       3090       3091       3102       3101  
      2971       2972       2983       2982       3092       3093       3104       3103  
      2972       2973       2984       2983       3093       3094       3105       3104  
      2973       2974       2985       2984       3094       3095       3106       3105  
      2974       2975       2986       2985       3095       3096       3107       3106  
      2975       2976       2987       2986       3096       3097       3108       3107  
      2976       2977       2988       2987       3097       3098       3109       3108  
      2977       2978       2989       2988       3098       3099       3110       3109  
      2978       2979       2990       2989       3099       3100       3111       3110  
      2979       2980       2991       2990       3100       3101       3112       3111  
      2980       2981       2992       2991       3101       3102       3113       3112  
      2982       2983       2994       2993       3103       3104       3115       3114  
      2983       2984       2995       2994       3104       3105       3116       3115  
      2984       2985       2996       2995       3105       3106       3117       3116  
      2985       2986       2997       2996       3106       3107       3118       3117  
      2986       2987       2998       2997       3107       3108       3119       3118  
      2987       2988       2999       2998       3108       3109       3120       3119  
      2988       2989       3000       2999       3109       3110       3121       3120  
      2989       2990       3001       3000       3110       3111       3122       3121  
      2990       2991       3002       3001       3111       3112       3123       3122  
      2991       2992       3003       3002       3112       3113       3124       3123  
      2993       2994       3005       3004       3114       3115       3126       3125  
      2994       2995       3006       3005       3115       3116       3127       3126  
      2995       2996       3007       3006       3116       3117       3128       3127  
      2996       2997       3008       3007       3117       3118       3129       3128  
      2997       2998       3009       3008       3118       3119       3130       3129  
      2998       2999       3010       3009       3119       3120       3131       3130  
      2999       3000       3011       3010       3120       3121       3132       3131  
      3000       3001       3012       3011       3121       3122       3133       3132  
      3001       3002       3013       3012       3122       3123       3134       3133  
      3002       3003       3014       3013       3123       3124       3135       3134  
      3004       3005       3016       3015       3125       3126       3137       3136  
      3005       3006       3017       3016       3126       3127       3138       3137  
      3006       3007       3018       3017       3127       3128       3139       3138  
      3007       3008       3019       3018       3128       3129       3140       3139  
      3008       3009       3020       3019       3129       3130       3141       3140  
      3009       3010       3021       3020       3130       3131       3142       3141  
      3010       3011       3022       3021       3131       3132       3143       3142  
      3011       3012       3023       3022       3132       3133       3144       3143  
      3012       3013       3024       3023       3133       3134       3145       3144  
      3013       3014       3025       3024       3134       3135       3146       3145  
      3026       3027       3038       3037       3147       3148       3159       3158  
      3027       3028       3039       3038       3148       3149       3160       3159  
      3028       3029       3040       3039       3149       3150       3161       3160  
      3029       3030       3041       3040       3150       3151       3162       3161  
      3030       3031       3042       3041       3151       3152       3163       3162  
      3031       3032       3043       3042       3152       3153       3164       3163  
      3032       3033       3044       3043       3153       3154       3165       3164  
      3033       3034       3045       3044       3154       3155       3166       3165  
      3034       3035       3046       3045       3155       3156       3167       3166  
      3035       3036       3047       3046       3156       3157       3168       3167  
      3037       3038       3049       3048       3158       3159       3170       3169  
      3038       3039       3050       3049       3159       3160       3171       3170  
      3039       3040       3051       3050       3160       3161       3172       3171  
      3040       3041       3052       3051       3161       3162       3173       3172  
      3041       3042       3053       3052       3162       3163       3174       3173  
      3042       3043       3054       3053       3163       3164       3175       3174  
      3043       3044       3055       3054       3164       3165       3176       3175  
      3044       3045       3056       3055       3165       3166       3177       3176  
      3045       3046       3057       3056       3166       3167       3178       3177  
      3046       3047       3058       3057       3167       3168       3179       3178  
      3048       3049       3060       3059       3169       3170       3181       3180  
      3049       3050       3061       3060       3170       3171       3182       3181  
      3050       3051       3062       3061       3171       3172       3183       3182  
      3051       3052       3063       3062       3172       3173       3184       3183  
      3052       3053       3064       3063       3173       3174       3185       3184  
      3053       3054       3065       3064       3174       3175       3186       3185  
      3054       3055       3066       3065       3175       3176       3187       3186  
      3055       3056       3067       3066       3176       3177       3188       3187  
      3056       3057       3068       3067       3177       3178       3189       3188  
      3057       3058       3069       3068       3178       3179       3190       3189  
      3059       3060       3071       3070       3180       3181       3192       3191  
      3060       3061       3072       3071       3181       3182       3193       3192  
      3061       3062       3073       3072       3182       3183       3194       3193  
      3062       3063       3074       3073       3183       3184       3195       3194  
      3063       3064       3075       3074       3184       3185       3196       3195  
      3064       3065       3076       3075       3185       3186       3197       3196  
      3065       3066       3077       3076       3186       3187       3198       3197  
      3066       3067       3078       3077       3187       3188       3199       3198  
      3067       3068       3079       3078       3188       3189       3200       3199  
      3068       3069       3080       3079       3189       3190       3201       3200  
      3070       3071       3082       3081       3191       3192       3203       3202  
      3071       3072       3083       3082       3192       3193       3204       3203  
      3072       3073       3084       3083       3193       3194       3205       3204  
      3073       3074       3085       3084       3194       3195       3206       3205  
      3074       3075       3086       3085       3195       3196       3207       3206  
      3075       3076       3087       3086       3196       3197       3208       3207  
      3076       3077       3088       3087       3197       3198       3209       3208  
      3077       3078       3089       3088       3198       3199       3210       3209  
      3078       3079       3090       3089       3199       3200       3211       3210  
      3079       3080       3091       3090       3200       3201       3212       3211  
      3081       3082       3093       3092       3202       3203       3214       3213  
      3082       3083       3094       3093       3203       3204       3215       3214  
      3083       3084       3095       3094       3204       3205       3216       3215  
      3084       3085       3096       3095       3205       3206       3217       3216  
      3085       3086       3097       3096       3206       3207       3218       3217  
      3086       3087       3098       3097       3207       3208       3219       3218  
      3087       3088       3099       3098       3208       3209       3220       3219  
      3088       3089       3100       3099       3209       3210       3221       3220  
      3089       3090       3101       3100       3210       3211       3222       3221  
      3090       3091       3102       3101       3211       3212       3223       3222  
      3092       3093       3104       3103       3213       3214       3225       3224  
      3093       3094       3105       3104       3214       3215       3226       3225  
      3094       3095       3106       3105       3215       3216       3227       3226  
      3095       3096       3107       3106       3216       3217       3228       3227  
      3096       3097       3108       3107       3217       3218       3229       3228  
      3097       3098       3109       3108       3218       3219       3230       3229  
      3098       3099       3110       3109       3219       3220       3231       3230  
      3099       3100       3111       3110       3220       3221       3232       3231  
      3100       3101       3112       3111       3221       3222       3233       3232  
      3101       3102       3113       3112       3222       3223       3234       3233  
      3103       3104       3115       3114       3224       3225       3236       3235  
      3104       3105       3116       3115       3225       3226       3237       3236  
      3105       3106       3117       3116       3226       3227       3238       3237  
      3106       3107       3118       3117       3227       3228       3239       3238  
      3107       3108       3119       3118       3228       3229       3240       3239  
      3108       3109       3120       3119       3229       3230       3241       3240  
      3109       3110       3121       3120       3230       3231       3242       3241  
      3110       3111       3122       3121       3231       3232       3243       3242  
      3111       3112       3123       3122       3232       3233       3244       3243  
      3112       3113       3124       3123       3233       3234       3245       3244  
      3114       3115       3126       3125       3235       3236       3247       3246  
      3115       3116       3127       3126       3236       3237       3248       3247  
      3116       3117       3128       3127       3237       3238       3249       3248  
      3117       3118       3129       3128       3238       3239       3250       3249  
      3118       3119       3130       3129       3239       3240       3251       3250  
      3119       3120       3131       3130       3240       3241       3252       3251  
      3120       3121       3132       3131       3241       3242       3253       3252  
      3121       3122       3133       3132       3242       3243       3254       3253  
      3122       3123       3134       3133       3243       3244       3255       3254  
      3123       3124       3135       3134       3244       3245       3256       3255  
      3125       3126       3137       3136       3246       3247       3258       3257  
      3126       3127       3138       3137       3247       3248       3259       3258  
      3127       3128       3139       3138       3248       3249       3260       3259  
      3128       3129       3140       3139       3249       3250       3261       3260  
      3129       3130       3141       3140       3250       3251       3262       3261  
      3130       3131       3142       3141       3251       3252       3263       3262  
      3131       3132       3143       3142       3252       3253       3264       3263  
      3132       3133       3144       3143       3253       3254       3265       3264  
      3133       3134       3145       3144       3254       3255       3266       3265  
      3134       3135       3146       3145       3255       3256       3267       3266  
      3147       3148       3159       3158       3268       3269       3280       3279  
      3148       3149       3160       3159       3269       3270       3281       3280  
      3149       3150       3161       3160       3270       3271       3282       3281  
      3150       3151       3162       3161       3271       3272       3283       3282  
      3151       3152       3163       3162       3272       3273       3284       3283  
      3152       3153       3164       3163       3273       3274       3285       3284  
      3153       3154       3165       3164       3274       3275       3286       3285  
      3154       3155       3166       3165       3275       3276       3287       3286  
      3155       3156       3167       3166       3276       3277       3288       3287  
      3156       3157       3168       3167       3277       3278       3289       3288  
      3158       3159       3170       3169       3279       3280       3291       3290  
      3159       3160       3171       3170       3280       3281       3292       3291  
      3160       3161       3172       3171       3281       3282       3293       3292  
      3161       3162       3173       3172       3282       3283       3294       3293  
      3162       3163       3174       3173       3283       3284       3295       3294  
      3163       3164       3175       3174       3284       3285       3296       3295  
      3164       3165       3176       3175       3285       3286       3297       3296  
      3165       3166       3177       3176       3286       3287       3298       3297  
      3166       3167       3178       3177       3287       3288       3299       3298  
      3167       3168       3179       3178       3288       3289       3300       3299  
      3169       3170       3181       3180       3290       3291       3302       3301  
      3170       3171       3182       3181       3291       3292       3303       3302  
      3171       3172       3183       3182       3292       3293       3304       3303  
      3172       3173       3184       3183       3293       3294       3305       3304  
      3173       3174       3185       3184       3294       3295       3306       3305  
      3174       3175       3186       3185       3295       3296       3307       3306  
      3175       3176       3187       3186       3296       3297       3308       3307  
      3176       3177       3188       3187       3297       3298       3309       3308  
      3177       3178       3189       3188       3298       3299       3310       3309  
      3178       3179       3190       3189       3299       3300       3311       3310  
      3180       3181       3192       3191       3301       3302       3313       3312  
      3181       3182       3193       3192       3302       3303       3314       3313  
      3182       3183       3194       3193       3303       3304       3315       3314  
      3183       3184       3195       3194       3304       3305       3316       3315  
      3184       3185       3196       3195       3305       3306       3317       3316  
      3185       3186       3197       3196       3306       3307       3318       3317  
      3186       3187       3198       3197       3307       3308       3319       3318  
      3187       3188       3199       3198       3308       3309       3320       3319  
      3188       3189       3200       3199       3309       3310       3321       3320  
      3189       3190       3201       3200       3310       3311       3322       3321  
      3191       3192       3203       3202       3312       3313       3324       3323  
      3192       3193       3204       3203       3313       3314       3325       3324  
      3193       3194       3205       3204       3314       3315       3326       3325  
      3194       3195       3206       3205       3315       3316       3327       3326  
      3195       3196       3207       3206       3316       3317       3328       3327  
      3196       3197       3208       3207       3317       3318       3329       3328  
      3197       3198       3209       3208       3318       3319       3330       3329  
      3198       3199       3210       3209       3319       3320       3331       3330  
      3199       3200       3211       3210       3320       3321       3332       3331  
      3200       3201       3212       3211       3321       3322       3333       3332  
      3202       3203       3214       3213       3323       3324       3335       3334  
      3203       3204       3215       3214       3324       3325       3336       3335  
      3204       3205       3216       3215       3325       3326       3337       3336  
      3205       3206       3217       3216       3326       3327       3338       3337  
      3206       3207       3218       3217       3327       3328       3339       3338  
      3207       3208       3219       3218       3328       3329       3340       3339  
      3208       3209       3220       3219       3329       3330       3341       3340  
      3209       3210       3221       3220       3330       3331       3342       3341  
      3210       3211       3222       3221       3331       3332       3343       3342  
      3211       3212       3223       3222       3332       3333       3344       3343  
      3213       3214       3225       3224       3334       3335       3346       3345  
      3214       3215       3226       3225       3335       3336       3347       3346  
      3215       3216       3227       3226       3336       3337       3348       3347  
      3216       3217       3228       3227       3337       3338       3349       3348  
      3217       3218       3229       3228       3338       3339       3350       3349  
      3218       3219       3230       3229       3339       3340       3351       3350  
      3219       3220       3231       3230       3340       3341       3352       3351  
      3220       3221       3232       3231       3341       3342       3353       3352  
      3221       3222       3233       3232       3342       3343       3354       3353  
      3222       3223       3234       3233       3343       3344       3355       3354  
      3224       3225       3236       3235       3345       3346       3357       3356  
      3225       3226       3237       3236       3346       3347       3358       3357  
      3226       3227       3238       3237       3347       3348       3359       3358  
      3227       3228       3239       3238       3348       3349       3360       3359  
      3228       3229       3240       3239       3349       3350       3361       3360  
      3229       3230       3241       3240       3350       3351       3362       3361  
      3230       3231       3242       3241       3351       3352       3363       3362  
      3231       3232       3243       3242       3352       3353       3364       3363  
      3232       3233       3244       3243       3353       3354       3365       3364  
      3233       3234       3245       3244       3354       3355       3366       3365  
      3235       3236       3247       3246       3356       3357       3368       3367  
      3236       3237       3248       3247       3357       3358       3369       3368  
      3237       3238       3249       3248       3358       3359       3370       3369  
      3238       3239       3250       3249       3359       3360       3371       3370  
      3239       3240       3251       3250       3360       3361       3372       3371  
      3240       3241       3252       3251       3361       3362       3373       3372  
      3241       3242       3253       3252       3362       3363       3374       3373  
      3242       3243       3254       3253       3363       3364       3375       3374  
      3243       3244       3255       3254       3364       3365       3376       3375  
      3244       3245       3256       3255       3365       3366       3377       3376  
      3246       3247       3258       3257       3367       3368       3379       3378  
      3247       3248       3259       3258       3368       3369       3380       3379  
      3248       3249       3260       3259       3369       3370       3381       3380  
      3249       3250       3261       3260       3370       3371       3382       3381  
      3250       3251       3262       3261       3371       3372       3383       3382  
      3251       3252       3263       3262       3372       3373       3384       3383  
      3252       3253       3264       3263       3373       3374       3385       3384  
      3253       3254       3265       3264       3374       3375       3386       3385  
      3254       3255       3266       3265       3375       3376       3387       3386  
      3255       3256       3267       3266       3376       3377       3388       3387  
      3268       3269       3280       3279       3389       3390       3401       3400  
      3269       3270       3281       3280       3390       3391       3402       3401  
      3270       3271       3282       3281       3391       3392       3403       3402  
      3271       3272       3283       3282       3392       3393       3404       3403  
      3272       3273       3284       3283       3393       3394       3405       3404  
      3273       3274       3285       3284       3394       3395       3406       3405  
      3274       3275       3286       3285       3395       3396       3407       3406  
      3275       3276       3287       3286       3396       3397       3408       3407  
      3276       3277       3288       3287       3397       3398       3409       3408  
      3277       3278       3289       3288       3398       3399       3410       3409  
      3279       3280       3291       3290       3400       3401       3412       3411  
      3280       3281       3292       3291       3401       3402       3413       3412  
      3281       3282       3293       3292       3402       3403       3414       3413  
      3282       3283       3294       3293       3403       3404       3415       3414  
      3283       3284       3295       3294       3404       3405       3416       3415  
      3284       3285       3296       3295       3405       3406       3417       3416  
      3285       3286       3297       3296       3406       3407       3418       3417  
      3286       3287       3298       3297       3407       3408       3419       3418  
      3287       3288       3299       3298       3408       3409       3420       3419  
      3288       3289       3300       3299       3409       3410       3421       3420  
      3290       3291       3302       3301       3411       3412       3423       3422  
      3291       3292       3303       3302       3412       3413       3424       3423  
      3292       3293       3304       3303       3413       3414       3425       3424  
      3293       3294       3305       3304       3414       3415       3426       3425  
      3294       3295       3306       3305       3415       3416       3427       3426  
      3295       3296       3307       3306       3416       3417       3428       3427  
      3296       3297       3308       3307       3417       3418       3429       3428  
      3297       3298       3309       3308       3418       3419       3430       3429  
      3298       3299       3310       3309       3419       3420       3431       3430  
      3299       3300       3311       3310       3420       3421       3432       3431  
      3301       3302       3313       3312       3422       3423       3434       3433  
      3302       3303       3314       3313       3423       3424       3435       3434  
      3303       3304       3315       3314       3424       3425       3436       3435  
      3304       3305       3316       3315       3425       3426       3437       3436  
      3305       3306       3317       3316       3426       3427       3438       3437  
      3306       3307       3318       3317       3427       3428       3439       3438  
      3307       3308       3319       3318       3428       3429       3440       3439  
      3308       3309       3320       3319       3429       3430       3441       3440  
      3309       3310       3321       3320       3430       3431       3442       3441  
      3310       3311       3322       3321       3431       3432       3443       3442  
      3312       3313       3324       3323       3433       3434       3445       3444  
      3313       3314       3325       3324       3434       3435       3446       3445  
      3314       3315       3326       3325       3435       3436       3447       3446  
      3315       3316       3327       3326       3436       3437       3448       3447  
      3316       3317       3328       3327       3437       3438       3449       3448  
      3317       3318       3329       3328       3438       3439       3450       3449  
      3318       3319       3330       3329       3439       3440       3451       3450  
      3319       3320       3331       3330       3440       3441       3452       3451  
      3320       3321       3332       3331       3441       3442       3453       3452  
      3321       3322       3333       3332       3442       3443       3454       3453  
      3323       3324       3335       3334       3444       3445       3456       3455  
      3324       3325       3336       3335       3445       3446       3457       3456  
      3325       3326       3337       3336       3446       3447       3458       3457  
      3326       3327       3338       3337       3447       3448       3459       3458  
      3327       3328       3339       3338       3448       3449       3460       3459  
      3328       3329       3340       3339       3449       3450       3461       3460  
      3329       3330       3341       3340       3450       3451       3462       3461  
      3330       3331       3342       3341       3451       3452       3463       3462  
      3331       3332       3343       3342       3452       3453       3464       3463  
      3332       3333       3344       3343       3453       3454       3465       3464  
      3334       3335       3346       3345       3455       3456       3467       3466  
      3335       3336       3347       3346       3456       3457       3468       3467  
      3336       3337       3348       3347       3457       3458       3469       3468  
      3337       3338       3349       3348       3458       3459       3470       3469  
      3338       3339       3350       3349       3459       3460       3471       3470  
      3339       3340       3351       3350       3460       3461       3472       3471  
      3340       3341       3352       3351       3461       3462       3473       3472  
      3341       3342       3353       3352       3462       3463       3474       3473  
      3342       3343       3354       3353       3463       3464       3475       3474  
      3343       3344       3355       3354       3464       3465       3476       3475  
      3345       3346       3357       3356       3466       3467       3478       3477  
      3346       3347       3358       3357       3467       3468       3479       3478  
      3347       3348       3359       3358       3468       3469       3480       3479  
      3348       3349       3360       3359       3469       3470       3481       3480  
      3349       3350       3361       3360       3470       3471       3482       3481  
      3350       3351       3362       3361       3471       3472       3483       3482  
      3351       3352       3363       3362       3472       3473       3484       3483  
      3352       3353       3364       3363       3473       3474       3485       3484  
      3353       3354       3365       3364       3474       3475       3486       3485  
      3354       3355       3366       3365       3475       3476       3487       3486  
      3356       3357       3368       3367       3477       3478       3489       3488  
      3357       3358       3369       3368       3478       3479       3490       3489  
      3358       3359       3370       3369       3479       3480       3491       3490  
      3359       3360       3371       3370       3480       3481       3492       3491  
      3360       3361       3372       3371       3481       3482       3493       3492  
      3361       3362       3373       3372       3482       3483       3494       3493  
      3362       3363       3374       3373       3483       3484       3495       3494  
      3363       3364       3375       3374       3484       3485       3496       3495  
      3364       3365       3376       3375       3485       3486       3497       3496  
      3365       3366       3377       3376       3486       3487       3498       3497  
      3367       3368       3379       3378       3488       3489       3500       3499  
      3368       3369       3380       3379       3489       3490       3501       3500  
      3369       3370       3381       3380       3490       3491       3502       3501  
      3370       3371       3382       3381       3491       3492       3503       3502  
      3371       3372       3383       3382       3492       3493       3504       3503  
      3372       3373       3384       3383       3493       3494       3505       3504  
      3373       3374       3385       3384       3494       3495       3506       3505  
      3374       3375       3386       3385       3495       3496       3507       3506  
      3375       3376       3387       3386       3496       3497       3508       3507  
      3376       3377       3388       3387       3497       3498       3509       3508  
      3389       3390       3401       3400       3510       3511       3522       3521  
      3390       3391       3402       3401       3511       3512       3523       3522  
      3391       3392       3403       3402       3512       3513       3524       3523  
      3392       3393       3404       3403       3513       3514       3525       3524  
      3393       3394       3405       3404       3514       3515       3526       3525  
      3394       3395       3406       3405       3515       3516       3527       3526  
      3395       3396       3407       3406       3516       3517       3528       3527  
      3396       3397       3408       3407       3517       3518       3529       3528  
      3397       3398       3409       3408       3518       3519       3530       3529  
      3398       3399       3410       3409       3519       3520       3531       3530  
      3400       3401       3412       3411       3521       3522       3533       3532  
      3401       3402       3413       3412       3522       3523       3534       3533  
      3402       3403       3414       3413       3523       3524       3535       3534  
      3403       3404       3415       3414       3524       3525       3536       3535  
      3404       3405       3416       3415       3525       3526       3537       3536  
      3405       3406       3417       3416       3526       3527       3538       3537  
      3406       3407       3418       3417       3527       3528       3539       3538  
      3407       3408       3419       3418       3528       3529       3540       3539  
      3408       3409       3420       3419       3529       3530       3541       3540  
      3409       3410       3421       3420       3530       3531       3542       3541  
      3411       3412       3423       3422       3532       3533       3544       3543  
      3412       3413       3424       3423       3533       3534       3545       3544  
      3413       3414       3425       3424       3534       3535       3546       3545  
      3414       3415       3426       3425       3535       3536       3547       3546  
      3415       3416       3427       3426       3536       3537       3548       3547  
      3416       3417       3428       3427       3537       3538       3549       3548  
      3417       3418       3429       3428       3538       3539       3550       3549  
      3418       3419       3430       3429       3539       3540       3551       3550  
      3419       3420       3431       3430       3540       3541       3552       3551  
      3420       3421       3432       3431       3541       3542       3553       3552  
      3422       3423       3434       3433       3543       3544       3555       3554  
      3423       3424       3435       3434       3544       3545       3556       3555  
      3424       3425       3436       3435       3545       3546       3557       3556  
      3425       3426       3437       3436       3546       3547       3558       3557  
      3426       3427       3438       3437       3547       3548       3559       3558  
      3427       3428       3439       3438       3548       3549       3560       3559  
      3428       3429       3440       3439       3549       3550       3561       3560  
      3429       3430       3441       3440       3550       3551       3562       3561  
      3430       3431       3442       3441       3551       3552       3563       3562  
      3431       3432       3443       3442       3552       3553       3564       3563  
      3433       3434       3445       3444       3554       3555       3566       3565  
      3434       3435       3446       3445       3555       3556       3567       3566  
      3435       3436       3447       3446       3556       3557       3568       3567  
      3436       3437       3448       3447       3557       3558       3569       3568  
      3437       3438       3449       3448       3558       3559       3570       3569  
      3438       3439       3450       3449       3559       3560       3571       3570  
      3439       3440       3451       3450       3560       3561       3572       3571  
      3440       3441       3452       3451       3561       3562       3573       3572  
      3441       3442       3453       3452       3562       3563       3574       3573  
      3442       3443       3454       3453       3563       3564       3575       3574  
      3444       3445       3456       3455       3565       3566       3577       3576  
      3445       3446       3457       3456       3566       3567       3578       3577  
      3446       3447       3458       3457       3567       3568       3579       3578  
      3447       3448       3459       3458       3568       3569       3580       3579  
      3448       3449       3460       3459       3569       3570       3581       3580  
      3449       3450       3461       3460       3570       3571       3582       3581  
      3450       3451       3462       3461       3571       3572       3583       3582  
      3451       3452       3463       3462       3572       3573       3584       3583  
      3452       3453       3464       3463       3573       3574       3585       3584  
      3453       3454       3465       3464       3574       3575       3586       3585  
      3455       3456       3467       3466       3576       3577       3588       3587  
      3456       3457       3468       3467       3577       3578       3589       3588  
      3457       3458       3469       3468       3578       3579       3590       3589  
      3458       3459       3470       3469       3579       3580       3591       3590  
      3459       3460       3471       3470       3580       3581       3592       3591  
      3460       3461       3472       3471       3581       3582       3593       3592  
      3461       3462       3473       3472       3582       3583       3594       3593  
      3462       3463       3474       3473       3583       3584       3595       3594  
      3463       3464       3475       3474       3584       3585       3596       3595  
      3464       3465       3476       3475       3585       3586       3597       3596  
      3466       3467       3478       3477       3587       3588       3599       3598  
      3467       3468       3479       3478       3588       3589       3600       3599  
      3468       3469       3480       3479       3589       3590       3601       3600  
      3469       3470       3481       3480       3590       3591       3602       3601  
      3470       3471       3482       3481       3591       3592       3603       3602  
      3471       3472       3483       3482       3592       3593       3604       3603  
      3472       3473       3484       3483       3593       3594       3605       3604  
      3473       3474       3485       3484       3594       3595       3606       3605  
      3474       3475       3486       3485       3595       3596       3607       3606  
      3475       3476       3487       3486       3596       3597       3608       3607  
      3477       3478       3489       3488       3598       3599       3610       3609  
      3478       3479       3490       3489       3599       3600       3611       3610  
      3479       3480       3491       3490       3600       3601       3612       3611  
      3480       3481       3492       3491       3601       3602       3613       3612  
      3481       3482       3493       3492       3602       3603       3614       3613  
      3482       3483       3494       3493       3603       3604       3615       3614  
      3483       3484       3495       3494       3604       3605       3616       3615  
      3484       3485       3496       3495       3605       3606       3617       3616  
      3485       3486       3497       3496       3606       3607       3618       3617  
      3486       3487       3498       3497       3607       3608       3619       3618  
      3488       3489       3500       3499       3609       3610       3621       3620  
      3489       3490       3501       3500       3610       3611       3622       3621  
      3490       3491       3502       3501       3611       3612       3623       3622  
      3491       3492       3503       3502       3612       3613       3624       3623  
      3492       3493       3504       3503       3613       3614       3625       3624  
      3493       3494       3505       3504       3614       3615       3626       3625  
      3494       3495       3506       3505       3615       3616       3627       3626  
      3495       3496       3507       3506       3616       3617       3628       3627  
      3496       3497       3508       3507       3617       3618       3629       3628  
      3497       3498       3509       3508       3618       3619       3630       3629  
      3510       3511       3522       3521       3631       3632       3643       3642  
      3511       3512       3523       3522       3632       3633       3644       3643  
      3512       3513       3524       3523       3633       3634       3645       3644  
      3513       3514       3525       3524       3634       3635       3646       3645  
      3514       3515       3526       3525       3635       3636       3647       3646  
      3515       3516       3527       3526       3636       3637       3648       3647  
      3516       3517       3528       3527       3637       3638       3649       3648  
      3517       3518       3529       3528       3638       3639       3650       3649  
      3518       3519       3530       3529       3639       3640       3651       3650  
      3519       3520       3531       3530       3640       3641       3652       3651  
      3521       3522       3533       3532       3642       3643       3654       3653  
      3522       3523       3534       3533       3643       3644       3655       3654  
      3523       3524       3535       3534       3644       3645       3656       3655  
      3524       3525       3536       3535       3645       3646       3657       3656  
      3525       3526       3537       3536       3646       3647       3658       3657  
      3526       3527       3538       3537       3647       3648       3659       3658  
      3527       3528       3539       3538       3648       3649       3660       3659  
      3528       3529       3540       3539       3649       3650       3661       3660  
      3529       3530       3541       3540       3650       3651       3662       3661  
      3530       3531       3542       3541       3651       3652       3663       3662  
      3532       3533       3544       3543       3653       3654       3665       3664  
      3533       3534       3545       3544       3654       3655       3666       3665  
      3534       3535       3546       3545       3655       3656       3667       3666  
      3535       3536       3547       3546       3656       3657       3668       3667  
      3536       3537       3548       3547       3657       3658       3669       3668  
      3537       3538       3549       3548       3658       3659       3670       3669  
      3538       3539       3550       3549       3659       3660       3671       3670  
      3539       3540       3551       3550       3660       3661       3672       3671  
      3540       3541       3552       3551       3661       3662       3673       3672  
      3541       3542       3553       3552       3662       3663       3674       3673  
      3543       3544       3555       3554       3664       3665       3676       3675  
      3544       3545       3556       3555       3665       3666       3677       3676  
      3545       3546       3557       3556       3666       3667       3678       3677  
      3546       3547       3558       3557       3667       3668       3679       3678  
      3547       3548       3559       3558       3668       3669       3680       3679  
      3548       3549       3560       3559       3669       3670       3681       3680  
      3549       3550       3561       3560       3670       3671       3682       3681  
      3550       3551       3562       3561       3671       3672       3683       3682  
      3551       3552       3563       3562       3672       3673       3684       3683  
      3552       3553       3564       3563       3673       3674       3685       3684  
      3554       3555       3566       3565       3675       3676       3687       3686  
      3555       3556       3567       3566       3676       3677       3688       3687  
      3556       3557       3568       3567       3677       3678       3689       3688  
      3557       3558       3569       3568       3678       3679       3690       3689  
      3558       3559       3570       3569       3679       3680       3691       3690  
      3559       3560       3571       3570       3680       3681       3692       3691  
      3560       3561       3572       3571       3681       3682       3693       3692  
      3561       3562       3573       3572       3682       3683       3694       3693  
      3562       3563       3574       3573       3683       3684       3695       3694  
      3563       3564       3575       3574       3684       3685       3696       3695  
      3565       3566       3577       3576       3686       3687       3698       3697  
      3566       3567       3578       3577       3687       3688       3699       3698  
      3567       3568       3579       3578       3688       3689       3700       3699  
      3568       3569       3580       3579       3689       3690       3701       3700  
      3569       3570       3581       3580       3690       3691       3702       3701  
      3570       3571       3582       3581       3691       3692       3703       3702  
      3571       3572       3583       3582       3692       3693       3704       3703  
      3572       3573       3584       3583       3693       3694       3705       3704  
      3573       3574       3585       3584       3694       3695       3706       3705  
      3574       3575       3586       3585       3695       3696       3707       3706  
      3576       3577       3588       3587       3697       3698       3709       3708  
      3577       3578       3589       3588       3698       3699       3710       3709  
      3578       3579       3590       3589       3699       3700       3711       3710  
      3579       3580       3591       3590       3700       3701       3712       3711  
      3580       3581       3592       3591       3701       3702       3713       3712  
      3581       3582       3593       3592       3702       3703       3714       3713  
      3582       3583       3594       3593       3703       3704       3715       3714  
      3583       3584       3595       3594       3704       3705       3716       3715  
      3584       3585       3596       3595       3705       3706       3717       3716  
      3585       3586       3597       3596       3706       3707       3718       3717  
      3587       3588       3599       3598       3708       3709       3720       3719  
      3588       3589       3600       3599       3709       3710       3721       3720  
      3589       3590       3601       3600       3710       3711       3722       3721  
      3590       3591       3602       3601       3711       3712       3723       3722  
      3591       3592       3603       3602       3712       3713       3724       3723  
      3592       3593       3604       3603       3713       3714       3725       3724  
      3593       3594       3605       3604       3714       3715       3726       3725  
      3594       3595       3606       3605       3715       3716       3727       3726  
      3595       3596       3607       3606       3716       3717       3728       3727  
      3596       3597       3608       3607       3717       3718       3729       3728  
      3598       3599       3610       3609       3719       3720       3731       3730  
      3599       3600       3611       3610       3720       3721       3732       3731  
      3600       3601       3612       3611       3721       3722       3733       3732  
      3601       3602       3613       3612       3722       3723       3734       3733  
      3602       3603       3614       3613       3723       3724       3735       3734  
      3603       3604       3615       3614       3724       3725       3736       3735  
      3604       3605       3616       3615       3725       3726       3737       3736  
      3605       3606       3617       3616       3726       3727       3738       3737  
      3606       3607       3618       3617       3727       3728       3739       3738  
      3607       3608       3619       3618       3728       3729       3740       3739  
      3609       3610       3621       3620       3730       3731       3742       3741  
      3610       3611       3622       3621       3731       3732       3743       3742  
      3611       3612       3623       3622       3732       3733       3744       3743  
      3612       3613       3624       3623       3733       3734       3745       3744  
      3613       3614       3625       3624       3734       3735       3746       3745  
      3614       3615       3626       3625       3735       3736       3747       3746  
      3615       3616       3627       3626       3736       3737       3748       3747  
      3616       3617       3628       3627       3737       3738       3749       3748  
      3617       3618       3629       3628       3738       3739       3750       3749  
      3618       3619       3630       3629       3739       3740       3751       3750  
      3631       3632       3643       3642       3752       3753       3764       3763  
      3632       3633       3644       3643       3753       3754       3765       3764  
      3633       3634       3645       3644       3754       3755       3766       3765  
      3634       3635       3646       3645       3755       3756       3767       3766  
      3635       3636       3647       3646       3756       3757       3768       3767  
      3636       3637       3648       3647       3757       3758       3769       3768  
      3637       3638       3649       3648       3758       3759       3770       3769  
      3638       3639       3650       3649       3759       3760       3771       3770  
      3639       3640       3651       3650       3760       3761       3772       3771  
      3640       3641       3652       3651       3761       3762       3773       3772  
      3642       3643       3654       3653       3763       3764       3775       3774  
      3643       3644       3655       3654       3764       3765       3776       3775  
      3644       3645       3656       3655       3765       3766       3777       3776  
      3645       3646       3657       3656       3766       3767       3778       3777  
      3646       3647       3658       3657       3767       3768       3779       3778  
      3647       3648       3659       3658       3768       3769       3780       3779  
      3648       3649       3660       3659       3769       3770       3781       3780  
      3649       3650       3661       3660       3770       3771       3782       3781  
      3650       3651       3662       3661       3771       3772       3783       3782  
      3651       3652       3663       3662       3772       3773       3784       3783  
      3653       3654       3665       3664       3774       3775       3786       3785  
      3654       3655       3666       3665       3775       3776       3787       3786  
      3655       3656       3667       3666       3776       3777       3788       3787  
      3656       3657       3668       3667       3777       3778       3789       3788  
      3657       3658       3669       3668       3778       3779       3790       3789  
      3658       3659       3670       3669       3779       3780       3791       3790  
      3659       3660       3671       3670       3780       3781       3792       3791  
      3660       3661       3672       3671       3781       3782       3793       3792  
      3661       3662       3673       3672       3782       3783       3794       3793  
      3662       3663       3674       3673       3783       3784       3795       3794  
      3664       3665       3676       3675       3785       3786       3797       3796  
      3665       3666       3677       3676       3786       3787       3798       3797  
      3666       3667       3678       3677       3787       3788       3799       3798  
      3667       3668       3679       3678       3788       3789       3800       3799  
      3668       3669       3680       3679       3789       3790       3801       3800  
      3669       3670       3681       3680       3790       3791       3802       3801  
      3670       3671       3682       3681       3791       3792       3803       3802  
      3671       3672       3683       3682       3792       3793       3804       3803  
      3672       3673       3684       3683       3793       3794       3805       3804  
      3673       3674       3685       3684       3794       3795       3806       3805  
      3675       3676       3687       3686       3796       3797       3808       3807  
      3676       3677       3688       3687       3797       3798       3809       3808  
      3677       3678       3689       3688       3798       3799       3810       3809  
      3678       3679       3690       3689       3799       3800       3811       3810  
      3679       3680       3691       3690       3800       3801       3812       3811  
      3680       3681       3692       3691       3801       3802       3813       3812  
      3681       3682       3693       3692       3802       3803       3814       3813  
      3682       3683       3694       3693       3803       3804       3815       3814  
      3683       3684       3695       3694       3804       3805       3816       3815  
      3684       3685       3696       3695       3805       3806       3817       3816  
      3686       3687       3698       3697       3807       3808       3819       3818  
      3687       3688       3699       3698       3808       3809       3820       3819  
      3688       3689       3700       3699       3809       3810       3821       3820  
      3689       3690       3701       3700       3810       3811       3822       3821  
      3690       3691       3702       3701       3811       3812       3823       3822  
      3691       3692       3703       3702       3812       3813       3824       3823  
      3692       3693       3704       3703       3813       3814       3825       3824  
      3693       3694       3705       3704       3814       3815       3826       3825  
      3694       3695       3706       3705       3815       3816       3827       3826  
      3695       3696       3707       3706       3816       3817       3828       3827  
      3697       3698       3709       3708       3818       3819       3830       3829  
      3698       3699       3710       3709       3819       3820       3831       3830  
      3699       3700       3711       3710       3820       3821       3832       3831  
      3700       3701       3712       3711       3821       3822       3833       3832  
      3701       3702       3713       3712       3822       3823       3834       3833  
      3702       3703       3714       3713       3823       3824       3835       3834  
      3703       3704       3715       3714       3824       3825       3836       3835  
      3704       3705       3716       3715       3825       3826       3837       3836  
      3705       3706       3717       3716       3826       3827       3838       3837  
      3706       3707       3718       3717       3827       3828       3839       3838  
      3708       3709       3720       3719       3829       3830       3841       3840  
      3709       3710       3721       3720       3830       3831       3842       3841  
      3710       3711       3722       3721       3831       3832       3843       3842  
      3711       3712       3723       3722       3832       3833       3844       3843  
      3712       3713       3724       3723       3833       3834       3845       3844  
      3713       3714       3725       3724       3834       3835       3846       3845  
      3714       3715       3726       3725       3835       3836       3847       3846  
      3715       3716       3727       3726       3836       3837       3848       3847  
      3716       3717       3728       3727       3837       3838       3849       3848  
      3717       3718       3729       3728       3838       3839       3850       3849  
      3719       3720       3731       3730       3840       3841       3852       3851  
      3720       3721       3732       3731       3841       3842       3853       3852  
      3721       3722       3733       3732       3842       3843       3854       3853  
      3722       3723       3734       3733       3843       3844       3855       3854  
      3723       3724       3735       3734       3844       3845       3856       3855  
      3724       3725       3736       3735       3845       3846       3857       3856  
      3725       3726       3737       3736       3846       3847       3858       3857  
      3726       3727       3738       3737       3847       3848       3859       3858  
      3727       3728       3739       3738       3848       3849       3860       3859  
      3728       3729       3740       3739       3849       3850       3861       3860  
      3730       3731       3742       3741       3851       3852       3863       3862  
      3731       3732       3743       3742       3852       3853       3864       3863  
      3732       3733       3744       3743       3853       3854       3865       3864  
      3733       3734       3745       3744       3854       3855       3866       3865  
      3734       3735       3746       3745       3855       3856       3867       3866  
      3735       3736       3747       3746       3856       3857       3868       3867  
      3736       3737       3748       3747       3857       3858       3869       3868  
      3737       3738       3749       3748       3858       3859       3870       3869  
      3738       3739       3750       3749       3859       3860       3871       3870  
      3739       3740       3751       3750       3860       3861       3872       3871  
      3752       3753       3764       3763       3873       3874       3885       3884  
      3753       3754       3765       3764       3874       3875       3886       3885  
      3754       3755       3766       3765       3875       3876       3887       3886  
      3755       3756       3767       3766       3876       3877       3888       3887  
      3756       3757       3768       3767       3877       3878       3889       3888  
      3757       3758       3769       3768       3878       3879       3890       3889  
      3758       3759       3770       3769       3879       3880       3891       3890  
      3759       3760       3771       3770       3880       3881       3892       3891  
      3760       3761       3772       3771       3881       3882       3893       3892  
      3761       3762       3773       3772       3882       3883       3894       3893  
      3763       3764       3775       3774       3884       3885       3896       3895  
      3764       3765       3776       3775       3885       3886       3897       3896  
      3765       3766       3777       3776       3886       3887       3898       3897  
      3766       3767       3778       3777       3887       3888       3899       3898  
      3767       3768       3779       3778       3888       3889       3900       3899  
      3768       3769       3780       3779       3889       3890       3901       3900  
      3769       3770       3781       3780       3890       3891       3902       3901  
      3770       3771       3782       3781       3891       3892       3903       3902  
      3771       3772       3783       3782       3892       3893       3904       3903  
      3772       3773       3784       3783       3893       3894       3905       3904  
      3774       3775       3786       3785       3895       3896       3907       3906  
      3775       3776       3787       3786       3896       3897       3908       3907  
      3776       3777       3788       3787       3897       3898       3909       3908  
      3777       3778       3789       3788       3898       3899       3910       3909  
      3778       3779       3790       3789       3899       3900       3911       3910  
      3779       3780       3791       3790       3900       3901       3912       3911  
      3780       3781       3792       3791       3901       3902       3913       3912  
      3781       3782       3793       3792       3902       3903       3914       3913  
      3782       3783       3794       3793       3903       3904       3915       3914  
      3783       3784       3795       3794       3904       3905       3916       3915  
      3785       3786       3797       3796       3906       3907       3918       3917  
      3786       3787       3798       3797       3907       3908       3919       3918  
      3787       3788       3799       3798       3908       3909       3920       3919  
      3788       3789       3800       3799       3909       3910       3921       3920  
      3789       3790       3801       3800       3910       3911       3922       3921  
      3790       3791       3802       3801       3911       3912       3923       3922  
      3791       3792       3803       3802       3912       3913       3924       3923  
      3792       3793       3804       3803       3913       3914       3925       3924  
      3793       3794       3805       3804       3914       3915       3926       3925  
      3794       3795       3806       3805       3915       3916       3927       3926  
      3796       3797       3808       3807       3917       3918       3929       3928  
      3797       3798       3809       3808       3918       3919       3930       3929  
      3798       3799       3810       3809       3919       3920       3931       3930  
      3799       3800       3811       3810       3920       3921       3932       3931  
      3800       3801       3812       3811       3921       3922       3933       3932  
      3801       3802       3813       3812       3922       3923       3934       3933  
      3802       3803       3814       3813       3923       3924       3935       3934  
      3803       3804       3815       3814       3924       3925       3936       3935  
      3804       3805       3816       3815       3925       3926       3937       3936  
      3805       3806       3817       3816       3926       3927       3938       3937  
      3807       3808       3819       3818       3928       3929       3940       3939  
      3808       3809       3820       3819       3929       3930       3941       3940  
      3809       3810       3821       3820       3930       3931       3942       3941  
      3810       3811       3822       3821       3931       3932       3943       3942  
      3811       3812       3823       3822       3932       3933       3944       3943  
      3812       3813       3824       3823       3933       3934       3945       3944  
      3813       3814       3825       3824       3934       3935       3946       3945  
      3814       3815       3826       3825       3935       3936       3947       3946  
      3815       3816       3827       3826       3936       3937       3948       3947  
      3816       3817       3828       3827       3937       3938       3949       3948  
      3818       3819       3830       3829       3939       3940       3951       3950  
      3819       3820       3831       3830       3940       3941       3952       3951  
      3820       3821       3832       3831       3941       3942       3953       3952  
      3821       3822       3833       3832       3942       3943       3954       3953  
      3822       3823       3834       3833       3943       3944       3955       3954  
      3823       3824       3835       3834       3944       3945       3956       3955  
      3824       3825       3836       3835       3945       3946       3957       3956  
      3825       3826       3837       3836       3946       3947       3958       3957  
      3826       3827       3838       3837       3947       3948       3959       3958  
      3827       3828       3839       3838       3948       3949       3960       3959  
      3829       3830       3841       3840       3950       3951       3962       3961  
      3830       3831       3842       3841       3951       3952       3963       3962  
      3831       3832       3843       3842       3952       3953       3964       3963  
      3832       3833       3844       3843       3953       3954       3965       3964  
      3833       3834       3845       3844       3954       3955       3966       3965  
      3834       3835       3846       3845       3955       3956       3967       3966  
      3835       3836       3847       3846       3956       3957       3968       3967  
      3836       3837       3848       3847       3957       3958       3969       3968  
      3837       3838       3849       3848       3958       3959       3970       3969  
      3838       3839       3850       3849       3959       3960       3971       3970  
      3840       3841       3852       3851       3961       3962       3973       3972  
      3841       3842       3853       3852       3962       3963       3974       3973  
      3842       3843       3854       3853       3963       3964       3975       3974  
      3843       3844       3855       3854       3964       3965       3976       3975  
      3844       3845       3856       3855       3965       3966       3977       3976  
      3845       3846       3857       3856       3966       3967       3978       3977  
      3846       3847       3858       3857       3967       3968       3979       3978  
      3847       3848       3859       3858       3968       3969       3980       3979  
      3848       3849       3860       3859       3969       3970       3981       3980  
      3849       3850       3861       3860       3970       3971       3982       3981  
      3851       3852       3863       3862       3972       3973       3984       3983  
      3852       3853       3864       3863       3973       3974       3985       3984  
      3853       3854       3865       3864       3974       3975       3986       3985  
      3854       3855       3866       3865       3975       3976       3987       3986  
      3855       3856       3867       3866       3976       3977       3988       3987  
      3856       3857       3868       3867       3977       3978       3989       3988  
      3857       3858       3869       3868       3978       3979       3990       3989  
      3858       3859       3870       3869       3979       3980       3991       3990  
      3859       3860       3871       3870       3980       3981       3992       3991  
      3860       3861       3872       3871       3981       3982       3993       3992  
      3873       3874       3885       3884       3994       3995       4006       4005  
      3874       3875       3886       3885       3995       3996       4007       4006  
      3875       3876       3887       3886       3996       3997       4008       4007  
      3876       3877       3888       3887       3997       3998       4009       4008  
      3877       3878       3889       3888       3998       3999       4010       4009  
      3878       3879       3890       3889       3999       4000       4011       4010  
      3879       3880       3891       3890       4000       4001       4012       4011  
      3880       3881       3892       3891       4001       4002       4013       4012  
      3881       3882       3893       3892       4002       4003       4014       4013  
      3882       3883       3894       3893       4003       4004       4015       4014  
      3884       3885       3896       3895       4005       4006       4017       4016  
      3885       3886       3897       3896       4006       4007       4018       4017  
      3886       3887       3898       3897       4007       4008       4019       4018  
      3887       3888       3899       3898       4008       4009       4020       4019  
      3888       3889       3900       3899       4009       4010       4021       4020  
      3889       3890       3901       3900       4010       4011       4022       4021  
      3890       3891       3902       3901       4011       4012       4023       4022  
      3891       3892       3903       3902       4012       4013       4024       4023  
      3892       3893       3904       3903       4013       4014       4025       4024  
      3893       3894       3905       3904       4014       4015       4026       4025  
      3895       3896       3907       3906       4016       4017       4028       4027  
      3896       3897       3908       3907       4017       4018       4029       4028  
      3897       3898       3909       3908       4018       4019       4030       4029  
      3898       3899       3910       3909       4019       4020       4031       4030  
      3899       3900       3911       3910       4020       4021       4032       4031  
      3900       3901       3912       3911       4021       4022       4033       4032  
      3901       3902       3913       3912       4022       4023       4034       4033  
      3902       3903       3914       3913       4023       4024       4035       4034  
      3903       3904       3915       3914       4024       4025       4036       4035  
      3904       3905       3916       3915       4025       4026       4037       4036  
      3906       3907       3918       3917       4027       4028       4039       4038  
      3907       3908       3919       3918       4028       4029       4040       4039  
      3908       3909       3920       3919       4029       4030       4041       4040  
      3909       3910       3921       3920       4030       4031       4042       4041  
      3910       3911       3922       3921       4031       4032       4043       4042  
      3911       3912       3923       3922       4032       4033       4044       4043  
      3912       3913       3924       3923       4033       4034       4045       4044  
      3913       3914       3925       3924       4034       4035       4046       4045  
      3914       3915       3926       3925       4035       4036       4047       4046  
      3915       3916       3927       3926       4036       4037       4048       4047  
      3917       3918       3929       3928       4038       4039       4050       4049  
      3918       3919       3930       3929       4039       4040       4051       4050  
      3919       3920       3931       3930       4040       4041       4052       4051  
      3920       3921       3932       3931       4041       4042       4053       4052  
      3921       3922       3933       3932       4042       4043       4054       4053  
      3922       3923       3934       3933       4043       4044       4055       4054  
      3923       3924       3935       3934       4044       4045       4056       4055  
      3924       3925       3936       3935       4045       4046       4057       4056  
      3925       3926       3937       3936       4046       4047       4058       4057  
      3926       3927       3938       3937       4047       4048       4059       4058  
      3928       3929       3940       3939       4049       4050       4061       4060  
      3929       3930       3941       3940       4050       4051       4062       4061  
      3930       3931       3942       3941       4051       4052       4063       4062  
      3931       3932       3943       3942       4052       4053       4064       4063  
      3932       3933       3944       3943       4053       4054       4065       4064  
      3933       3934       3945       3944       4054       4055       4066       4065  
      3934       3935       3946       3945       4055       4056       4067       4066  
      3935       3936       3947       3946       4056       4057       4068       4067  
      3936       3937       3948       3947       4057       4058       4069       4068  
      3937       3938       3949       3948       4058       4059       4070       4069  
      3939       3940       3951       3950       4060       4061       4072       4071  
      3940       3941       3952       3951       4061       4062       4073       4072  
      3941       3942       3953       3952       4062       4063       4074       4073  
      3942       3943       3954       3953       4063       4064       4075       4074  
      3943       3944       3955       3954       4064       4065       4076       4075  
      3944       3945       3956       3955       4065       4066       4077       4076  
      3945       3946       3957       3956       4066       4067       4078       4077  
      3946       3947       3958       3957       4067       4068       4079       4078  
      3947       3948       3959       3958       4068       4069       4080       4079  
      3948       3949       3960       3959       4069       4070       4081       4080  
      3950       3951       3962       3961       4071       4072       4083       4082  
      3951       3952       3963       3962       4072       4073       4084       4083  
      3952       3953       3964       3963       4073       4074       4085       4084  
      3953       3954       3965       3964       4074       4075       4086       4085  
      3954       3955       3966       3965       4075       4076       4087       4086  
      3955       3956       3967       3966       4076       4077       4088       4087  
      3956       3957       3968       3967       4077       4078       4089       4088  
      3957       3958       3969       3968       4078       4079       4090       4089  
      3958       3959       3970       3969       4079       4080       4091       4090  
      3959       3960       3971       3970       4080       4081       4092       4091  
      3961       3962       3973       3972       4082       4083       4094       4093  
      3962       3963       3974       3973       4083       4084       4095       4094  
      3963       3964       3975       3974       4084       4085       4096       4095  
      3964       3965       3976       3975       4085       4086       4097       4096  
      3965       3966       3977       3976       4086       4087       4098       4097  
      3966       3967       3978       3977       4087       4088       4099       4098  
      3967       3968       3979       3978       4088       4089       4100       4099  
      3968       3969       3980       3979       4089       4090       4101       4100  
      3969       3970       3981       3980       4090       4091       4102       4101  
      3970       3971       3982       3981       4091       4092       4103       4102  
      3972       3973       3984       3983       4093       4094       4105       4104  
      3973       3974       3985       3984       4094       4095       4106       4105  
      3974       3975       3986       3985       4095       4096       4107       4106  
      3975       3976       3987       3986       4096       4097       4108       4107  
      3976       3977       3988       3987       4097       4098       4109       4108  
      3977       3978       3989       3988       4098       4099       4110       4109  
      3978       3979       3990       3989       4099       4100       4111       4110  
      3979       3980       3991       3990       4100       4101       4112       4111  
      3980       3981       3992       3991       4101       4102       4113       4112  
      3981       3982       3993       3992       4102       4103       4114       4113  
      3994       3995       4006       4005       4115       4116       4127       4126  
      3995       3996       4007       4006       4116       4117       4128       4127  
      3996       3997       4008       4007       4117       4118       4129       4128  
      3997       3998       4009       4008       4118       4119       4130       4129  
      3998       3999       4010       4009       4119       4120       4131       4130  
      3999       4000       4011       4010       4120       4121       4132       4131  
      4000       4001       4012       4011       4121       4122       4133       4132  
      4001       4002       4013       4012       4122       4123       4134       4133  
      4002       4003       4014       4013       4123       4124       4135       4134  
      4003       4004       4015       4014       4124       4125       4136       4135  
      4005       4006       4017       4016       4126       4127       4138       4137  
      4006       4007       4018       4017       4127       4128       4139       4138  
      4007       4008       4019       4018       4128       4129       4140       4139  
      4008       4009       4020       4019       4129       4130       4141       4140  
      4009       4010       4021       4020       4130       4131       4142       4141  
      4010       4011       4022       4021       4131       4132       4143       4142  
      4011       4012       4023       4022       4132       4133       4144       4143  
      4012       4013       4024       4023       4133       4134       4145       4144  
      4013       4014       4025       4024       4134       4135       4146       4145  
      4014       4015       4026       4025       4135       4136       4147       4146  
      4016       4017       4028       4027       4137       4138       4149       4148  
      4017       4018       4029       4028       4138       4139       4150       4149  
      4018       4019       4030       4029       4139       4140       4151       4150  
      4019       4020       4031       4030       4140       4141       4152       4151  
      4020       4021       4032       4031       4141       4142       4153       4152  
      4021       4022       4033       4032       4142       4143       4154       4153  
      4022       4023       4034       4033       4143       4144       4155       4154  
      4023       4024       4035       4034       4144       4145       4156       4155  
      4024       4025       4036       4035       4145       4146       4157       4156  
      4025       4026       4037       4036       4146       4147       4158       4157  
      4027       4028       4039       4038       4148       4149       4160       4159  
      4028       4029       4040       4039       4149       4150       4161       4160  
      4029       4030       4041       4040       4150       4151       4162       4161  
      4030       4031       4042       4041       4151       4152       4163       4162  
      4031       4032       4043       4042       4152       4153       4164       4163  
      4032       4033       4044       4043       4153       4154       4165       4164  
      4033       4034       4045       4044       4154       4155       4166       4165  
      4034       4035       4046       4045       4155       4156       4167       4166  
      4035       4036       4047       4046       4156       4157       4168       4167  
      4036       4037       4048       4047       4157       4158       4169       4168  
      4038       4039       4050       4049       4159       4160       4171       4170  
      4039       4040       4051       4050       4160       4161       4172       4171  
      4040       4041       4052       4051       4161       4162       4173       4172  
      4041       4042       4053       4052       4162       4163       4174       4173  
      4042       4043       4054       4053       4163       4164       4175       4174  
      4043       4044       4055       4054       4164       4165       4176       4175  
      4044       4045       4056       4055       4165       4166       4177       4176  
      4045       4046       4057       4056       4166       4167       4178       4177  
      4046       4047       4058       4057       4167       4168       4179       4178  
      4047       4048       4059       4058       4168       4169       4180       4179  
      4049       4050       4061       4060       4170       4171       4182       4181  
      4050       4051       4062       4061       4171       4172       4183       4182  
      4051       4052       4063       4062       4172       4173       4184       4183  
      4052       4053       4064       4063       4173       4174       4185       4184  
      4053       4054       4065       4064       4174       4175       4186       4185  
      4054       4055       4066       4065       4175       4176       4187       4186  
      4055       4056       4067       4066       4176       4177       4188       4187  
      4056       4057       4068       4067       4177       4178       4189       4188  
      4057       4058       4069       4068       4178       4179       4190       4189  
      4058       4059       4070       4069       4179       4180       4191       4190  
      4060       4061       4072       4071       4181       4182       4193       4192  
      4061       4062       4073       4072       4182       4183       4194       4193  
      4062       4063       4074       4073       4183       4184       4195       4194  
      4063       4064       4075       4074       4184       4185       4196       4195  
      4064       4065       4076       4075       4185       4186       4197       4196  
      4065       4066       4077       4076       4186       4187       4198       4197  
      4066       4067       4078       4077       4187       4188       4199       4198  
      4067       4068       4079       4078       4188       4189       4200       4199  
      4068       4069       4080       4079       4189       4190       4201       4200  
      4069       4070       4081       4080       4190       4191       4202       4201  
      4071       4072       4083       4082       4192       4193       4204       4203  
      4072       4073       4084       4083       4193       4194       4205       4204  
      4073       4074       4085       4084       4194       4195       4206       4205  
      4074       4075       4086       4085       4195       4196       4207       4206  
      4075       4076       4087       4086       4196       4197       4208       4207  
      4076       4077       4088       4087       4197       4198       4209       4208  
      4077       4078       4089       4088       4198       4199       4210       4209  
      4078       4079       4090       4089       4199       4200       4211       4210  
      4079       4080       4091       4090       4200       4201       4212       4211  
      4080       4081       4092       4091       4201       4202       4213       4212  
      4082       4083       4094       4093       4203       4204       4215       4214  
      4083       4084       4095       4094       4204       4205       4216       4215  
      4084       4085       4096       4095       4205       4206       4217       4216  
      4085       4086       4097       4096       4206       4207       4218       4217  
      4086       4087       4098       4097       4207       4208       4219       4218  
      4087       4088       4099       4098       4208       4209       4220       4219  
      4088       4089       4100       4099       4209       4210       4221       4220  
      4089       4090       4101       4100       4210       4211       4222       4221  
      4090       4091       4102       4101       4211       4212       4223       4222  
      4091       4092       4103       4102       4212       4213       4224       4223  
      4093       4094       4105       4104       4214       4215       4226       4225  
      4094       4095       4106       4105       4215       4216       4227       4226  
      4095       4096       4107       4106       4216       4217       4228       4227  
      4096       4097       4108       4107       4217       4218       4229       4228  
      4097       4098       4109       4108       4218       4219       4230       4229  
      4098       4099       4110       4109       4219       4220       4231       4230  
      4099       4100       4111       4110       4220       4221       4232       4231  
      4100       4101       4112       4111       4221       4222       4233       4232  
      4101       4102       4113       4112       4222       4223       4234       4233  
      4102       4103       4114       4113       4223       4224       4235       4234  
      4115       4116       4127       4126       4236       4237       4248       4247  
      4116       4117       4128       4127       4237       4238       4249       4248  
      4117       4118       4129       4128       4238       4239       4250       4249  
      4118       4119       4130       4129       4239       4240       4251       4250  
      4119       4120       4131       4130       4240       4241       4252       4251  
      4120       4121       4132       4131       4241       4242       4253       4252  
      4121       4122       4133       4132       4242       4243       4254       4253  
      4122       4123       4134       4133       4243       4244       4255       4254  
      4123       4124       4135       4134       4244       4245       4256       4255  
      4124       4125       4136       4135       4245       4246       4257       4256  
      4126       4127       4138       4137       4247       4248       4259       4258  
      4127       4128       4139       4138       4248       4249       4260       4259  
      4128       4129       4140       4139       4249       4250       4261       4260  
      4129       4130       4141       4140       4250       4251       4262       4261  
      4130       4131       4142       4141       4251       4252       4263       4262  
      4131       4132       4143       4142       4252       4253       4264       4263  
      4132       4133       4144       4143       4253       4254       4265       4264  
      4133       4134       4145       4144       4254       4255       4266       4265  
      4134       4135       4146       4145       4255       4256       4267       4266  
      4135       4136       4147       4146       4256       4257       4268       4267  
      4137       4138       4149       4148       4258       4259       4270       4269  
      4138       4139       4150       4149       4259       4260       4271       4270  
      4139       4140       4151       4150       4260       4261       4272       4271  
      4140       4141       4152       4151       4261       4262       4273       4272  
      4141       4142       4153       4152       4262       4263       4274       4273  
      4142       4143       4154       4153       4263       4264       4275       4274  
      4143       4144       4155       4154       4264       4265       4276       4275  
      4144       4145       4156       4155       4265       4266       4277       4276  
      4145       4146       4157       4156       4266       4267       4278       4277  
      4146       4147       4158       4157       4267       4268       4279       4278  
      4148       4149       4160       4159       4269       4270       4281       4280  
      4149       4150       4161       4160       4270       4271       4282       4281  
      4150       4151       4162       4161       4271       4272       4283       4282  
      4151       4152       4163       4162       4272       4273       4284       4283  
      4152       4153       4164       4163       4273       4274       4285       4284  
      4153       4154       4165       4164       4274       4275       4286       4285  
      4154       4155       4166       4165       4275       4276       4287       4286  
      4155       4156       4167       4166       4276       4277       4288       4287  
      4156       4157       4168       4167       4277       4278       4289       4288  
      4157       4158       4169       4168       4278       4279       4290       4289  
      4159       4160       4171       4170       4280       4281       4292       4291  
      4160       4161       4172       4171       4281       4282       4293       4292  
      4161       4162       4173       4172       4282       4283       4294       4293  
      4162       4163       4174       4173       4283       4284       4295       4294  
      4163       4164       4175       4174       4284       4285       4296       4295  
      4164       4165       4176       4175       4285       4286       4297       4296  
      4165       4166       4177       4176       4286       4287       4298       4297  
      4166       4167       4178       4177       4287       4288       4299       4298  
      4167       4168       4179       4178       4288       4289       4300       4299  
      4168       4169       4180       4179       4289       4290       4301       4300  
      4170       4171       4182       4181       4291       4292       4303       4302  
      4171       4172       4183       4182       4292       4293       4304       4303  
      4172       4173       4184       4183       4293       4294       4305       4304  
      4173       4174       4185       4184       4294       4295       4306       4305  
      4174       4175       4186       4185       4295       4296       4307       4306  
      4175       4176       4187       4186       4296       4297       4308       4307  
      4176       4177       4188       4187       4297       4298       4309       4308  
      4177       4178       4189       4188       4298       4299       4310       4309  
      4178       4179       4190       4189       4299       4300       4311       4310  
      4179       4180       4191       4190       4300       4301       4312       4311  
      4181       4182       4193       4192       4302       4303       4314       4313  
      4182       4183       4194       4193       4303       4304       4315       4314  
      4183       4184       4195       4194       4304       4305       4316       4315  
      4184       4185       4196       4195       4305       4306       4317       4316  
      4185       4186       4197       4196       4306       4307       4318       4317  
      4186       4187       4198       4197       4307       4308       4319       4318  
      4187       4188       4199       4198       4308       4309       4320       4319  
      4188       4189       4200       4199       4309       4310       4321       4320  
      4189       4190       4201       4200       4310       4311       4322       4321  
      4190       4191       4202       4201       4311       4312       4323       4322  
      4192       4193       4204       4203       4313       4314       4325       4324  
      4193       4194       4205       4204       4314       4315       4326       4325  
      4194       4195       4206       4205       4315       4316       4327       4326  
      4195       4196       4207       4206       4316       4317       4328       4327  
      4196       4197       4208       4207       4317       4318       4329       4328  
      4197       4198       4209       4208       4318       4319       4330       4329  
      4198       4199       4210       4209       4319       4320       4331       4330  
      4199       4200       4211       4210       4320       4321       4332       4331  
      4200       4201       4212       4211       4321       4322       4333       4332  
      4201       4202       4213       4212       4322       4323       4334       4333  
      4203       4204       4215       4214       4324       4325       4336       4335  
      4204       4205       4216       4215       4325       4326       4337       4336  
      4205       4206       4217       4216       4326       4327       4338       4337  
      4206       4207       4218       4217       4327       4328       4339       4338  
      4207       4208       4219       4218       4328       4329       4340       4339  
      4208       4209       4220       4219       4329       4330       4341       4340  
      4209       4210       4221       4220       4330       4331       4342       4341  
      4210       4211       4222       4221       4331       4332       4343       4342  
      4211       4212       4223       4222       4332       4333       4344       4343  
      4212       4213       4224       4223       4333       4334       4345       4344  
      4214       4215       4226       4225       4335       4336       4347       4346  
      4215       4216       4227       4226       4336       4337       4348       4347  
      4216       4217       4228       4227       4337       4338       4349       4348  
      4217       4218       4229       4228       4338       4339       4350       4349  
      4218       4219       4230       4229       4339       4340       4351       4350  
      4219       4220       4231       4230       4340       4341       4352       4351  
      4220       4221       4232       4231       4341       4342       4353       4352  
      4221       4222       4233       4232       4342       4343       4354       4353  
      4222       4223       4234       4233       4343       4344       4355       4354  
      4223       4224       4235       4234       4344       4345       4356       4355  
      4236       4237       4248       4247       4357       4358       4369       4368  
      4237       4238       4249       4248       4358       4359       4370       4369  
      4238       4239       4250       4249       4359       4360       4371       4370  
      4239       4240       4251       4250       4360       4361       4372       4371  
      4240       4241       4252       4251       4361       4362       4373       4372  
      4241       4242       4253       4252       4362       4363       4374       4373  
      4242       4243       4254       4253       4363       4364       4375       4374  
      4243       4244       4255       4254       4364       4365       4376       4375  
      4244       4245       4256       4255       4365       4366       4377       4376  
      4245       4246       4257       4256       4366       4367       4378       4377  
      4247       4248       4259       4258       4368       4369       4380       4379  
      4248       4249       4260       4259       4369       4370       4381       4380  
      4249       4250       4261       4260       4370       4371       4382       4381  
      4250       4251       4262       4261       4371       4372       4383       4382  
      4251       4252       4263       4262       4372       4373       4384       4383  
      4252       4253       4264       4263       4373       4374       4385       4384  
      4253       4254       4265       4264       4374       4375       4386       4385  
      4254       4255       4266       4265       4375       4376       4387       4386  
      4255       4256       4267       4266       4376       4377       4388       4387  
      4256       4257       4268       4267       4377       4378       4389       4388  
      4258       4259       4270       4269       4379       4380       4391       4390  
      4259       4260       4271       4270       4380       4381       4392       4391  
      4260       4261       4272       4271       4381       4382       4393       4392  
      4261       4262       4273       4272       4382       4383       4394       4393  
      4262       4263       4274       4273       4383       4384       4395       4394  
      4263       4264       4275       4274       4384       4385       4396       4395  
      4264       4265       4276       4275       4385       4386       4397       4396  
      4265       4266       4277       4276       4386       4387       4398       4397  
      4266       4267       4278       4277       4387       4388       4399       4398  
      4267       4268       4279       4278       4388       4389       4400       4399  
      4269       4270       4281       4280       4390       4391       4402       4401  
      4270       4271       4282       4281       4391       4392       4403       4402  
      4271       4272       4283       4282       4392       4393       4404       4403  
      4272       4273       4284       4283       4393       4394       4405       4404  
      4273       4274       4285       4284       4394       4395       4406       4405  
      4274       4275       4286       4285       4395       4396       4407       4406  
      4275       4276       4287       4286       4396       4397       4408       4407  
      4276       4277       4288       4287       4397       4398       4409       4408  
      4277       4278       4289       4288       4398       4399       4410       4409  
      4278       4279       4290       4289       4399       4400       4411       4410  
      4280       4281       4292       4291       4401       4402       4413       4412  
      4281       4282       4293       4292       4402       4403       4414       4413  
      4282       4283       4294       4293       4403       4404       4415       4414  
      4283       4284       4295       4294       4404       4405       4416       4415  
      4284       4285       4296       4295       4405       4406       4417       4416  
      4285       4286       4297       4296       4406       4407       4418       4417  
      4286       4287       4298       4297       4407       4408       4419       4418  
      4287       4288       4299       4298       4408       4409       4420       4419  
      4288       4289       4300       4299       4409       4410       4421       4420  
      4289       4290       4301       4300       4410       4411       4422       4421  
      4291       4292       4303       4302       4412       4413       4424       4423  
      4292       4293       4304       4303       4413       4414       4425       4424  
      4293       4294       4305       4304       4414       4415       4426       4425  
      4294       4295       4306       4305       4415       4416       4427       4426  
      4295       4296       4307       4306       4416       4417       4428       4427  
      4296       4297       4308       4307       4417       4418       4429       4428  
      4297       4298       4309       4308       4418       4419       4430       4429  
      4298       4299       4310       4309       4419       4420       4431       4430  
      4299       4300       4311       4310       4420       4421       4432       4431  
      4300       4301       4312       4311       4421       4422       4433       4432  
      4302       4303       4314       4313       4423       4424       4435       4434  
      4303       4304       4315       4314       4424       4425       4436       4435  
      4304       4305       4316       4315       4425       4426       4437       4436  
      4305       4306       4317       4316       4426       4427       4438       4437  
      4306       4307       4318       4317       4427       4428       4439       4438  
      4307       4308       4319       4318       4428       4429       4440       4439  
      4308       4309       4320       4319       4429       4430       4441       4440  
      4309       4310       4321       4320       4430       4431       4442       4441  
      4310       4311       4322       4321       4431       4432       4443       4442  
      4311       4312       4323       4322       4432       4433       4444       4443  
      4313       4314       4325       4324       4434       4435       4446       4445  
      4314       4315       4326       4325       4435       4436       4447       4446  
      4315       4316       4327       4326       4436       4437       4448       4447  
      4316       4317       4328       4327       4437       4438       4449       4448  
      4317       4318       4329       4328       4438       4439       4450       4449  
      4318       4319       4330       4329       4439       4440       4451       4450  
      4319       4320       4331       4330       4440       4441       4452       4451  
      4320       4321       4332       4331       4441       4442       4453       4452  
      4321       4322       4333       4332       4442       4443       4454       4453  
      4322       4323       4334       4333       4443       4444       4455       4454  
      4324       4325       4336       4335       4445       4446       4457       4456  
      4325       4326       4337       4336       4446       4447       4458       4457  
      4326       4327       4338       4337       4447       4448       4459       4458  
      4327       4328       4339       4338       4448       4449       4460       4459  
      4328       4329       4340       4339       4449       4450       4461       4460  
      4329       4330       4341       4340       4450       4451       4462       4461  
      4330       4331       4342       4341       4451       4452       4463       4462  
      4331       4332       4343       4342       4452       4453       4464       4463  
      4332       4333       4344       4343       4453       4454       4465       4464  
      4333       4334       4345       4344       4454       4455       4466       4465  
      4335       4336       4347       4346       4456       4457       4468       4467  
      4336       4337       4348       4347       4457       4458       4469       4468  
      4337       4338       4349       4348       4458       4459       4470       4469  
      4338       4339       4350       4349       4459       4460       4471       4470  
      4339       4340       4351       4350       4460       4461       4472       4471  
      4340       4341       4352       4351       4461       4462       4473       4472  
      4341       4342       4353       4352       4462       4463       4474       4473  
      4342       4343       4354       4353       4463       4464       4475       4474  
      4343       4344       4355       4354       4464       4465       4476       4475  
      4344       4345       4356       4355       4465       4466       4477       4476  
      4357       4358       4369       4368       4478       4479       4490       4489  
      4358       4359       4370       4369       4479       4480       4491       4490  
      4359       4360       4371       4370       4480       4481       4492       4491  
      4360       4361       4372       4371       4481       4482       4493       4492  
      4361       4362       4373       4372       4482       4483       4494       4493  
      4362       4363       4374       4373       4483       4484       4495       4494  
      4363       4364       4375       4374       4484       4485       4496       4495  
      4364       4365       4376       4375       4485       4486       4497       4496  
      4365       4366       4377       4376       4486       4487       4498       4497  
      4366       4367       4378       4377       4487       4488       4499       4498  
      4368       4369       4380       4379       4489       4490       4501       4500  
      4369       4370       4381       4380       4490       4491       4502       4501  
      4370       4371       4382       4381       4491       4492       4503       4502  
      4371       4372       4383       4382       4492       4493       4504       4503  
      4372       4373       4384       4383       4493       4494       4505       4504  
      4373       4374       4385       4384       4494       4495       4506       4505  
      4374       4375       4386       4385       4495       4496       4507       4506  
      4375       4376       4387       4386       4496       4497       4508       4507  
      4376       4377       4388       4387       4497       4498       4509       4508  
      4377       4378       4389       4388       4498       4499       4510       4509  
      4379       4380       4391       4390       4500       4501       4512       4511  
      4380       4381       4392       4391       4501       4502       4513       4512  
      4381       4382       4393       4392       4502       4503       4514       4513  
      4382       4383       4394       4393       4503       4504       4515       4514  
      4383       4384       4395       4394       4504       4505       4516       4515  
      4384       4385       4396       4395       4505       4506       4517       4516  
      4385       4386       4397       4396       4506       4507       4518       4517  
      4386       4387       4398       4397       4507       4508       4519       4518  
      4387       4388       4399       4398       4508       4509       4520       4519  
      4388       4389       4400       4399       4509       4510       4521       4520  
      4390       4391       4402       4401       4511       4512       4523       4522  
      4391       4392       4403       4402       4512       4513       4524       4523  
      4392       4393       4404       4403       4513       4514       4525       4524  
      4393       4394       4405       4404       4514       4515       4526       4525  
      4394       4395       4406       4405       4515       4516       4527       4526  
      4395       4396       4407       4406       4516       4517       4528       4527  
      4396       4397       4408       4407       4517       4518       4529       4528  
      4397       4398       4409       4408       4518       4519       4530       4529  
      4398       4399       4410       4409       4519       4520       4531       4530  
      4399       4400       4411       4410       4520       4521       4532       4531  
      4401       4402       4413       4412       4522       4523       4534       4533  
      4402       4403       4414       4413       4523       4524       4535       4534  
      4403       4404       4415       4414       4524       4525       4536       4535  
      4404       4405       4416       4415       4525       4526       4537       4536  
      4405       4406       4417       4416       4526       4527       4538       4537  
      4406       4407       4418       4417       4527       4528       4539       4538  
      4407       4408       4419       4418       4528       4529       4540       4539  
      4408       4409       4420       4419       4529       4530       4541       4540  
      4409       4410       4421       4420       4530       4531       4542       4541  
      4410       4411       4422       4421       4531       4532       4543       4542  
      4412       4413       4424       4423       4533       4534       4545       4544  
      4413       4414       4425       4424       4534       4535       4546       4545  
      4414       4415       4426       4425       4535       4536       4547       4546  
      4415       4416       4427       4426       4536       4537       4548       4547  
      4416       4417       4428       4427       4537       4538       4549       4548  
      4417       4418       4429       4428       4538       4539       4550       4549  
      4418       4419       4430       4429       4539       4540       4551       4550  
      4419       4420       4431       4430       4540       4541       4552       4551  
      4420       4421       4432       4431       4541       4542       4553       4552  
      4421       4422       4433       4432       4542       4543       4554       4553  
      4423       4424       4435       4434       4544       4545       4556       4555  
      4424       4425       4436       4435       4545       4546       4557       4556  
      4425       4426       4437       4436       4546       4547       4558       4557  
      4426       4427       4438       4437       4547       4548       4559       4558  
      4427       4428       4439       4438       4548       4549       4560       4559  
      4428       4429       4440       4439       4549       4550       4561       4560  
      4429       4430       4441       4440       4550       4551       4562       4561  
      4430       4431       4442       4441       4551       4552       4563       4562  
      4431       4432       4443       4442       4552       4553       4564       4563  
      4432       4433       4444       4443       4553       4554       4565       4564  
      4434       4435       4446       4445       4555       4556       4567       4566  
      4435       4436       4447       4446       4556       4557       4568       4567  
      4436       4437       4448       4447       4557       4558       4569       4568  
      4437       4438       4449       4448       4558       4559       4570       4569  
      4438       4439       4450       4449       4559       4560       4571       4570  
      4439       4440       4451       4450       4560       4561       4572       4571  
      4440       4441       4452       4451       4561       4562       4573       4572  
      4441       4442       4453       4452       4562       4563       4574       4573  
      4442       4443       4454       4453       4563       4564       4575       4574  
      4443       4444       4455       4454       4564       4565       4576       4575  
      4445       4446       4457       4456       4566       4567       4578       4577  
      4446       4447       4458       4457       4567       4568       4579       4578  
      4447       4448       4459       4458       4568       4569       4580       4579  
      4448       4449       4460       4459       4569       4570       4581       4580  
      4449       4450       4461       4460       4570       4571       4582       4581  
      4450       4451       4462       4461       4571       4572       4583       4582  
      4451       4452       4463       4462       4572       4573       4584       4583  
      4452       4453       4464       4463       4573       4574       4585       4584  
      4453       4454       4465       4464       4574       4575       4586       4585  
      4454       4455       4466       4465       4575       4576       4587       4586  
      4456       4457       4468       4467       4577       4578       4589       4588  
      4457       4458       4469       4468       4578       4579       4590       4589  
      4458       4459       4470       4469       4579       4580       4591       4590  
      4459       4460       4471       4470       4580       4581       4592       4591  
      4460       4461       4472       4471       4581       4582       4593       4592  
      4461       4462       4473       4472       4582       4583       4594       4593  
      4462       4463       4474       4473       4583       4584       4595       4594  
      4463       4464       4475       4474       4584       4585       4596       4595  
      4464       4465       4476       4475       4585       4586       4597       4596  
      4465       4466       4477       4476       4586       4587       4598       4597  
      4478       4479       4490       4489       4599       4600       4611       4610  
      4479       4480       4491       4490       4600       4601       4612       4611  
      4480       4481       4492       4491       4601       4602       4613       4612  
      4481       4482       4493       4492       4602       4603       4614       4613  
      4482       4483       4494       4493       4603       4604       4615       4614  
      4483       4484       4495       4494       4604       4605       4616       4615  
      4484       4485       4496       4495       4605       4606       4617       4616  
      4485       4486       4497       4496       4606       4607       4618       4617  
      4486       4487       4498       4497       4607       4608       4619       4618  
      4487       4488       4499       4498       4608       4609       4620       4619  
      4489       4490       4501       4500       4610       4611       4622       4621  
      4490       4491       4502       4501       4611       4612       4623       4622  
      4491       4492       4503       4502       4612       4613       4624       4623  
      4492       4493       4504       4503       4613       4614       4625       4624  
      4493       4494       4505       4504       4614       4615       4626       4625  
      4494       4495       4506       4505       4615       4616       4627       4626  
      4495       4496       4507       4506       4616       4617       4628       4627  
      4496       4497       4508       4507       4617       4618       4629       4628  
      4497       4498       4509       4508       4618       4619       4630       4629  
      4498       4499       4510       4509       4619       4620       4631       4630  
      4500       4501       4512       4511       4621       4622       4633       4632  
      4501       4502       4513       4512       4622       4623       4634       4633  
      4502       4503       4514       4513       4623       4624       4635       4634  
      4503       4504       4515       4514       4624       4625       4636       4635  
      4504       4505       4516       4515       4625       4626       4637       4636  
      4505       4506       4517       4516       4626       4627       4638       4637  
      4506       4507       4518       4517       4627       4628       4639       4638  
      4507       4508       4519       4518       4628       4629       4640       4639  
      4508       4509       4520       4519       4629       4630       4641       4640  
      4509       4510       4521       4520       4630       4631       4642       4641  
      4511       4512       4523       4522       4632       4633       4644       4643  
      4512       4513       4524       4523       4633       4634       4645       4644  
      4513       4514       4525       4524       4634       4635       4646       4645  
      4514       4515       4526       4525       4635       4636       4647       4646  
      4515       4516       4527       4526       4636       4637       4648       4647  
      4516       4517       4528       4527       4637       4638       4649       4648  
      4517       4518       4529       4528       4638       4639       4650       4649  
      4518       4519       4530       4529       4639       4640       4651       4650  
      4519       4520       4531       4530       4640       4641       4652       4651  
      4520       4521       4532       4531       4641       4642       4653       4652  
      4522       4523       4534       4533       4643       4644       4655       4654  
      4523       4524       4535       4534       4644       4645       4656       4655  
      4524       4525       4536       4535       4645       4646       4657       4656  
      4525       4526       4537       4536       4646       4647       4658       4657  
      4526       4527       4538       4537       4647       4648       4659       4658  
      4527       4528       4539       4538       4648       4649       4660       4659  
      4528       4529       4540       4539       4649       4650       4661       4660  
      4529       4530       4541       4540       4650       4651       4662       4661  
      4530       4531       4542       4541       4651       4652       4663       4662  
      4531       4532       4543       4542       4652       4653       4664       4663  
      4533       4534       4545       4544       4654       4655       4666       4665  
      4534       4535       4546       4545       4655       4656       4667       4666  
      4535       4536       4547       4546       4656       4657       4668       4667  
      4536       4537       4548       4547       4657       4658       4669       4668  
      4537       4538       4549       4548       4658       4659       4670       4669  
      4538       4539       4550       4549       4659       4660       4671       4670  
      4539       4540       4551       4550       4660       4661       4672       4671  
      4540       4541       4552       4551       4661       4662       4673       4672  
      4541       4542       4553       4552       4662       4663       4674       4673  
      4542       4543       4554       4553       4663       4664       4675       4674  
      4544       4545       4556       4555       4665       4666       4677       4676  
      4545       4546       4557       4556       4666       4667       4678       4677  
      4546       4547       4558       4557       4667       4668       4679       4678  
      4547       4548       4559       4558       4668       4669       4680       4679  
      4548       4549       4560       4559       4669       4670       4681       4680  
      4549       4550       4561       4560       4670       4671       4682       4681  
      4550       4551       4562       4561       4671       4672       4683       4682  
      4551       4552       4563       4562       4672       4673       4684       4683  
      4552       4553       4564       4563       4673       4674       4685       4684  
      4553       4554       4565       4564       4674       4675       4686       4685  
      4555       4556       4567       4566       4676       4677       4688       4687  
      4556       4557       4568       4567       4677       4678       4689       4688  
      4557       4558       4569       4568       4678       4679       4690       4689  
      4558       4559       4570       4569       4679       4680       4691       4690  
      4559       4560       4571       4570       4680       4681       4692       4691  
      4560       4561       4572       4571       4681       4682       4693       4692  
      4561       4562       4573       4572       4682       4683       4694       4693  
      4562       4563       4574       4573       4683       4684       4695       4694  
      4563       4564       4575       4574       4684       4685       4696       4695  
      4564       4565       4576       4575       4685       4686       4697       4696  
      4566       4567       4578       4577       4687       4688       4699       4698  
      4567       4568       4579       4578       4688       4689       4700       4699  
      4568       4569       4580       4579       4689       4690       4701       4700  
      4569       4570       4581       4580       4690       4691       4702       4701  
      4570       4571       4582       4581       4691       4692       4703       4702  
      4571       4572       4583       4582       4692       4693       4704       4703  
      4572       4573       4584       4583       4693       4694       4705       4704  
      4573       4574       4585       4584       4694       4695       4706       4705  
      4574       4575       4586       4585       4695       4696       4707       4706  
      4575       4576       4587       4586       4696       4697       4708       4707  
      4577       4578       4589       4588       4698       4699       4710       4709  
      4578       4579       4590       4589       4699       4700       4711       4710  
      4579       4580       4591       4590       4700       4701       4712       4711  
      4580       4581       4592       4591       4701       4702       4713       4712  
      4581       4582       4593       4592       4702       4703       4714       4713  
      4582       4583       4594       4593       4703       4704       4715       4714  
      4583       4584       4595       4594       4704       4705       4716       4715  
      4584       4585       4596       4595       4705       4706       4717       4716  
      4585       4586       4597       4596       4706       4707       4718       4717  
      4586       4587       4598       4597       4707       4708       4719       4718  
      4599       4600       4611       4610       4720       4721       4732       4731  
      4600       4601       4612       4611       4721       4722       4733       4732  
      4601       4602       4613       4612       4722       4723       4734       4733  
      4602       4603       4614       4613       4723       4724       4735       4734  
      4603       4604       4615       4614       4724       4725       4736       4735  
      4604       4605       4616       4615       4725       4726       4737       4736  
      4605       4606       4617       4616       4726       4727       4738       4737  
      4606       4607       4618       4617       4727       4728       4739       4738  
      4607       4608       4619       4618       4728       4729       4740       4739  
      4608       4609       4620       4619       4729       4730       4741       4740  
      4610       4611       4622       4621       4731       4732       4743       4742  
      4611       4612       4623       4622       4732       4733       4744       4743  
      4612       4613       4624       4623       4733       4734       4745       4744  
      4613       4614       4625       4624       4734       4735       4746       4745  
      4614       4615       4626       4625       4735       4736       4747       4746  
      4615       4616       4627       4626       4736       4737       4748       4747  
      4616       4617       4628       4627       4737       4738       4749       4748  
      4617       4618       4629       4628       4738       4739       4750       4749  
      4618       4619       4630       4629       4739       4740       4751       4750  
      4619       4620       4631       4630       4740       4741       4752       4751  
      4621       4622       4633       4632       4742       4743       4754       4753  
      4622       4623       4634       4633       4743       4744       4755       4754  
      4623       4624       4635       4634       4744       4745       4756       4755  
      4624       4625       4636       4635       4745       4746       4757       4756  
      4625       4626       4637       4636       4746       4747       4758       4757  
      4626       4627       4638       4637       4747       4748       4759       4758  
      4627       4628       4639       4638       4748       4749       4760       4759  
      4628       4629       4640       4639       4749       4750       4761       4760  
      4629       4630       4641       4640       4750       4751       4762       4761  
      4630       4631       4642       4641       4751       4752       4763       4762  
      4632       4633       4644       4643       4753       4754       4765       4764  
      4633       4634       4645       4644       4754       4755       4766       4765  
      4634       4635       4646       4645       4755       4756       4767       4766  
      4635       4636       4647       4646       4756       4757       4768       4767  
      4636       4637       4648       4647       4757       4758       4769       4768  
      4637       4638       4649       4648       4758       4759       4770       4769  
      4638       4639       4650       4649       4759       4760       4771       4770  
      4639       4640       4651       4650       4760       4761       4772       4771  
      4640       4641       4652       4651       4761       4762       4773       4772  
      4641       4642       4653       4652       4762       4763       4774       4773  
      4643       4644       4655       4654       4764       4765       4776       4775  
      4644       4645       4656       4655       4765       4766       4777       4776  
      4645       4646       4657       4656       4766       4767       4778       4777  
      4646       4647       4658       4657       4767       4768       4779       4778  
      4647       4648       4659       4658       4768       4769       4780       4779  
      4648       4649       4660       4659       4769       4770       4781       4780  
      4649       4650       4661       4660       4770       4771       4782       4781  
      4650       4651       4662       4661       4771       4772       4783       4782  
      4651       4652       4663       4662       4772       4773       4784       4783  
      4652       4653       4664       4663       4773       4774       4785       4784  
      4654       4655       4666       4665       4775       4776       4787       4786  
      4655       4656       4667       4666       4776       4777       4788       4787  
      4656       4657       4668       4667       4777       4778       4789       4788  
      4657       4658       4669       4668       4778       4779       4790       4789  
      4658       4659       4670       4669       4779       4780       4791       4790  
      4659       4660       4671       4670       4780       4781       4792       4791  
      4660       4661       4672       4671       4781       4782       4793       4792  
      4661       4662       4673       4672       4782       4783       4794       4793  
      4662       4663       4674       4673       4783       4784       4795       4794  
      4663       4664       4675       4674       4784       4785       4796       4795  
      4665       4666       4677       4676       4786       4787       4798       4797  
      4666       4667       4678       4677       4787       4788       4799       4798  
      4667       4668       4679       4678       4788       4789       4800       4799  
      4668       4669       4680       4679       4789       4790       4801       4800  
      4669       4670       4681       4680       4790       4791       4802       4801  
      4670       4671       4682       4681       4791       4792       4803       4802  
      4671       4672       4683       4682       4792       4793       4804       4803  
      4672       4673       4684       4683       4793       4794       4805       4804  
      4673       4674       4685       4684       4794       4795       4806       4805  
      4674       4675       4686       4685       4795       4796       4807       4806  
      4676       4677       4688       4687       4797       4798       4809       4808  
      4677       4678       4689       4688       4798       4799       4810       4809  
      4678       4679       4690       4689       4799       4800       4811       4810  
      4679       4680       4691       4690       4800       4801       4812       4811  
      4680       4681       4692       4691       4801       4802       4813       4812  
      4681       4682       4693       4692       4802       4803       4814       4813  
      4682       4683       4694       4693       4803       4804       4815       4814  
      4683       4684       4695       4694       4804       4805       4816       4815  
      4684       4685       4696       4695       4805       4806       4817       4816  
      4685       4686       4697       4696       4806       4807       4818       4817  
      4687       4688       4699       4698       4808       4809       4820       4819  
      4688       4689       4700       4699       4809       4810       4821       4820  
      4689       4690       4701       4700       4810       4811       4822       4821  
      4690       4691       4702       4701       4811       4812       4823       4822  
      4691       4692       4703       4702       4812       4813       4824       4823  
      4692       4693       4704       4703       4813       4814       4825       4824  
      4693       4694       4705       4704       4814       4815       4826       4825  
      4694       4695       4706       4705       4815       4816       4827       4826  
      4695       4696       4707       4706       4816       4817       4828       4827  
      4696       4697       4708       4707       4817       4818       4829       4828  
      4698       4699       4710       4709       4819       4820       4831       4830  
      4699       4700       4711       4710       4820       4821       4832       4831  
      4700       4701       4712       4711       4821       4822       4833       4832  
      4701       4702       4713       4712       4822       4823       4834       4833  
      4702       4703       4714       4713       4823       4824       4835       4834  
      4703       4704       4715       4714       4824       4825       4836       4835  
      4704       4705       4716       4715       4825       4826       4837       4836  
      4705       4706       4717       4716       4826       4827       4838       4837  
      4706       4707       4718       4717       4827       4828       4839       4838  
      4707       4708       4719       4718       4828       4829       4840       4839  
      4720       4721       4732       4731       4841       4842       4853       4852  
      4721       4722       4733       4732       4842       4843       4854       4853  
      4722       4723       4734       4733       4843       4844       4855       4854  
      4723       4724       4735       4734       4844       4845       4856       4855  
      4724       4725       4736       4735       4845       4846       4857       4856  
      4725       4726       4737       4736       4846       4847       4858       4857  
      4726       4727       4738       4737       4847       4848       4859       4858  
      4727       4728       4739       4738       4848       4849       4860       4859  
      4728       4729       4740       4739       4849       4850       4861       4860  
      4729       4730       4741       4740       4850       4851       4862       4861  
      4731       4732       4743       4742       4852       4853       4864       4863  
      4732       4733       4744       4743       4853       4854       4865       4864  
      4733       4734       4745       4744       4854       4855       4866       4865  
      4734       4735       4746       4745       4855       4856       4867       4866  
      4735       4736       4747       4746       4856       4857       4868       4867  
      4736       4737       4748       4747       4857       4858       4869       4868  
      4737       4738       4749       4748       4858       4859       4870       4869  
      4738       4739       4750       4749       4859       4860       4871       4870  
      4739       4740       4751       4750       4860       4861       4872       4871  
      4740       4741       4752       4751       4861       4862       4873       4872  
      4742       4743       4754       4753       4863       4864       4875       4874  
      4743       4744       4755       4754       4864       4865       4876       4875  
      4744       4745       4756       4755       4865       4866       4877       4876  
      4745       4746       4757       4756       4866       4867       4878       4877  
      4746       4747       4758       4757       4867       4868       4879       4878  
      4747       4748       4759       4758       4868       4869       4880       4879  
      4748       4749       4760       4759       4869       4870       4881       4880  
      4749       4750       4761       4760       4870       4871       4882       4881  
      4750       4751       4762       4761       4871       4872       4883       4882  
      4751       4752       4763       4762       4872       4873       4884       4883  
      4753       4754       4765       4764       4874       4875       4886       4885  
      4754       4755       4766       4765       4875       4876       4887       4886  
      4755       4756       4767       4766       4876       4877       4888       4887  
      4756       4757       4768       4767       4877       4878       4889       4888  
      4757       4758       4769       4768       4878       4879       4890       4889  
      4758       4759       4770       4769       4879       4880       4891       4890  
      4759       4760       4771       4770       4880       4881       4892       4891  
      4760       4761       4772       4771       4881       4882       4893       4892  
      4761       4762       4773       4772       4882       4883       4894       4893  
      4762       4763       4774       4773       4883       4884       4895       4894  
      4764       4765       4776       4775       4885       4886       4897       4896  
      4765       4766       4777       4776       4886       4887       4898       4897  
      4766       4767       4778       4777       4887       4888       4899       4898  
      4767       4768       4779       4778       4888       4889       4900       4899  
      4768       4769       4780       4779       4889       4890       4901       4900  
      4769       4770       4781       4780       4890       4891       4902       4901  
      4770       4771       4782       4781       4891       4892       4903       4902  
      4771       4772       4783       4782       4892       4893       4904       4903  
      4772       4773       4784       4783       4893       4894       4905       4904  
      4773       4774       4785       4784       4894       4895       4906       4905  
      4775       4776       4787       4786       4896       4897       4908       4907  
      4776       4777       4788       4787       4897       4898       4909       4908  
      4777       4778       4789       4788       4898       4899       4910       4909  
      4778       4779       4790       4789       4899       4900       4911       4910  
      4779       4780       4791       4790       4900       4901       4912       4911  
      4780       4781       4792       4791       4901       4902       4913       4912  
      4781       4782       4793       4792       4902       4903       4914       4913  
      4782       4783       4794       4793       4903       4904       4915       4914  
      4783       4784       4795       4794       4904       4905       4916       4915  
      4784       4785       4796       4795       4905       4906       4917       4916  
      4786       4787       4798       4797       4907       4908       4919       4918  
      4787       4788       4799       4798       4908       4909       4920       4919  
      4788       4789       4800       4799       4909       4910       4921       4920  
      4789       4790       4801       4800       4910       4911       4922       4921  
      4790       4791       4802       4801       4911       4912       4923       4922  
      4791       4792       4803       4802       4912       4913       4924       4923  
      4792       4793       4804       4803       4913       4914       4925       4924  
      4793       4794       4805       4804       4914       4915       4926       4925  
      4794       4795       4806       4805       4915       4916       4927       4926  
      4795       4796       4807       4806       4916       4917       4928       4927  
      4797       4798       4809       4808       4918       4919       4930       4929  
      4798       4799       4810       4809       4919       4920       4931       4930  
      4799       4800       4811       4810       4920       4921       4932       4931  
      4800       4801       4812       4811       4921       4922       4933       4932  
      4801       4802       4813       4812       4922       4923       4934       4933  
      4802       4803       4814       4813       4923       4924       4935       4934  
      4803       4804       4815       4814       4924       4925       4936       4935  
      4804       4805       4816       4815       4925       4926       4937       4936  
      4805       4806       4817       4816       4926       4927       4938       4937  
      4806       4807       4818       4817       4927       4928       4939       4938  
      4808       4809       4820       4819       4929       4930       4941       4940  
      4809       4810       4821       4820       4930       4931       4942       4941  
      4810       4811       4822       4821       4931       4932       4943       4942  
      4811       4812       4823       4822       4932       4933       4944       4943  
      4812       4813       4824       4823       4933       4934       4945       4944  
      4813       4814       4825       4824       4934       4935       4946       4945  
      4814       4815       4826       4825       4935       4936       4947       4946  
      4815       4816       4827       4826       4936       4937       4948       4947  
      4816       4817       4828       4827       4937       4938       4949       4948  
      4817       4818       4829       4828       4938       4939       4950       4949  
      4819       4820       4831       4830       4940       4941       4952       4951  
      4820       4821       4832       4831       4941       4942       4953       4952  
      4821       4822       4833       4832       4942       4943       4954       4953  
      4822       4823       4834       4833       4943       4944       4955       4954  
      4823       4824       4835       4834       4944       4945       4956       4955  
      4824       4825       4836       4835       4945       4946       4957       4956  
      4825       4826       4837       4836       4946       4947       4958       4957  
      4826       4827       4838       4837       4947       4948       4959       4958  
      4827       4828       4839       4838       4948       4949       4960       4959  
      4828       4829       4840       4839       4949       4950       4961       4960  
      4841       4842       4853       4852       4962       4963       4974       4973  
      4842       4843       4854       4853       4963       4964       4975       4974  
      4843       4844       4855       4854       4964       4965       4976       4975  
      4844       4845       4856       4855       4965       4966       4977       4976  
      4845       4846       4857       4856       4966       4967       4978       4977  
      4846       4847       4858       4857       4967       4968       4979       4978  
      4847       4848       4859       4858       4968       4969       4980       4979  
      4848       4849       4860       4859       4969       4970       4981       4980  
      4849       4850       4861       4860       4970       4971       4982       4981  
      4850       4851       4862       4861       4971       4972       4983       4982  
      4852       4853       4864       4863       4973       4974       4985       4984  
      4853       4854       4865       4864       4974       4975       4986       4985  
      4854       4855       4866       4865       4975       4976       4987       4986  
      4855       4856       4867       4866       4976       4977       4988       4987  
      4856       4857       4868       4867       4977       4978       4989       4988  
      4857       4858       4869       4868       4978       4979       4990       4989  
      4858       4859       4870       4869       4979       4980       4991       4990  
      4859       4860       4871       4870       4980       4981       4992       4991  
      4860       4861       4872       4871       4981       4982       4993       4992  
      4861       4862       4873       4872       4982       4983       4994       4993  
      4863       4864       4875       4874       4984       4985       4996       4995  
      4864       4865       4876       4875       4985       4986       4997       4996  
      4865       4866       4877       4876       4986       4987       4998       4997  
      4866       4867       4878       4877       4987       4988       4999       4998  
      4867       4868       4879       4878       4988       4989       5000       4999  
      4868       4869       4880       4879       4989       4990       5001       5000  
      4869       4870       4881       4880       4990       4991       5002       5001  
      4870       4871       4882       4881       4991       4992       5003       5002  
      4871       4872       4883       4882       4992       4993       5004       5003  
      4872       4873       4884       4883       4993       4994       5005       5004  
      4874       4875       4886       4885       4995       4996       5007       5006  
      4875       4876       4887       4886       4996       4997       5008       5007  
      4876       4877       4888       4887       4997       4998       5009       5008  
      4877       4878       4889       4888       4998       4999       5010       5009  
      4878       4879       4890       4889       4999       5000       5011       5010  
      4879       4880       4891       4890       5000       5001       5012       5011  
      4880       4881       4892       4891       5001       5002       5013       5012  
      4881       4882       4893       4892       5002       5003       5014       5013  
      4882       4883       4894       4893       5003       5004       5015       5014  
      4883       4884       4895       4894       5004       5005       5016       5015  
      4885       4886       4897       4896       5006       5007       5018       5017  
      4886       4887       4898       4897       5007       5008       5019       5018  
      4887       4888       4899       4898       5008       5009       5020       5019  
      4888       4889       4900       4899       5009       5010       5021       5020  
      4889       4890       4901       4900       5010       5011       5022       5021  
      4890       4891       4902       4901       5011       5012       5023       5022  
      4891       4892       4903       4902       5012       5013       5024       5023  
      4892       4893       4904       4903       5013       5014       5025       5024  
      4893       4894       4905       4904       5014       5015       5026       5025  
      4894       4895       4906       4905       5015       5016       5027       5026  
      4896       4897       4908       4907       5017       5018       5029       5028  
      4897       4898       4909       4908       5018       5019       5030       5029  
      4898       4899       4910       4909       5019       5020       5031       5030  
      4899       4900       4911       4910       5020       5021       5032       5031  
      4900       4901       4912       4911       5021       5022       5033       5032  
      4901       4902       4913       4912       5022       5023       5034       5033  
      4902       4903       4914       4913       5023       5024       5035       5034  
      4903       4904       4915       4914       5024       5025       5036       5035  
      4904       4905       4916       4915       5025       5026       5037       5036  
      4905       4906       4917       4916       5026       5027       5038       5037  
      4907       4908       4919       4918       5028       5029       5040       5039  
      4908       4909       4920       4919       5029       5030       5041       5040  
      4909       4910       4921       4920       5030       5031       5042       5041  
      4910       4911       4922       4921       5031       5032       5043       5042  
      4911       4912       4923       4922       5032       5033       5044       5043  
      4912       4913       4924       4923       5033       5034       5045       5044  
      4913       4914       4925       4924       5034       5035       5046       5045  
      4914       4915       4926       4925       5035       5036       5047       5046  
      4915       4916       4927       4926       5036       5037       5048       5047  
      4916       4917       4928       4927       5037       5038       5049       5048  
      4918       4919       4930       4929       5039       5040       5051       5050  
      4919       4920       4931       4930       5040       5041       5052       5051  
      4920       4921       4932       4931       5041       5042       5053       5052  
      4921       4922       4933       4932       5042       5043       5054       5053  
      4922       4923       4934       4933       5043       5044       5055       5054  
      4923       4924       4935       4934       5044       5045       5056       5055  
      4924       4925       4936       4935       5045       5046       5057       5056  
      4925       4926       4937       4936       5046       5047       5058       5057  
      4926       4927       4938       4937       5047       5048       5059       5058  
      4927       4928       4939       4938       5048       5049       5060       5059  
      4929       4930       4941       4940       5050       5051       5062       5061  
      4930       4931       4942       4941       5051       5052       5063       5062  
      4931       4932       4943       4942       5052       5053       5064       5063  
      4932       4933       4944       4943       5053       5054       5065       5064  
      4933       4934       4945       4944       5054       5055       5066       5065  
      4934       4935       4946       4945       5055       5056       5067       5066  
      4935       4936       4947       4946       5056       5057       5068       5067  
      4936       4937       4948       4947       5057       5058       5069       5068  
      4937       4938       4949       4948       5058       5059       5070       5069  
      4938       4939       4950       4949       5059       5060       5071       5070  
      4940       4941       4952       4951       5061       5062       5073       5072  
      4941       4942       4953       4952       5062       5063       5074       5073  
      4942       4943       4954       4953       5063       5064       5075       5074  
      4943       4944       4955       4954       5064       5065       5076       5075  
      4944       4945       4956       4955       5065       5066       5077       5076  
      4945       4946       4957       4956       5066       5067       5078       5077  
      4946       4947       4958       4957       5067       5068       5079       5078  
      4947       4948       4959       4958       5068       5069       5080       5079  
      4948       4949       4960       4959       5069       5070       5081       5080  
      4949       4950       4961       4960       5070       5071       5082       5081  
      4962       4963       4974       4973       5083       5084       5095       5094  
      4963       4964       4975       4974       5084       5085       5096       5095  
      4964       4965       4976       4975       5085       5086       5097       5096  
      4965       4966       4977       4976       5086       5087       5098       5097  
      4966       4967       4978       4977       5087       5088       5099       5098  
      4967       4968       4979       4978       5088       5089       5100       5099  
      4968       4969       4980       4979       5089       5090       5101       5100  
      4969       4970       4981       4980       5090       5091       5102       5101  
      4970       4971       4982       4981       5091       5092       5103       5102  
      4971       4972       4983       4982       5092       5093       5104       5103  
      4973       4974       4985       4984       5094       5095       5106       5105  
      4974       4975       4986       4985       5095       5096       5107       5106  
      4975       4976       4987       4986       5096       5097       5108       5107  
      4976       4977       4988       4987       5097       5098       5109       5108  
      4977       4978       4989       4988       5098       5099       5110       5109  
      4978       4979       4990       4989       5099       5100       5111       5110  
      4979       4980       4991       4990       5100       5101       5112       5111  
      4980       4981       4992       4991       5101       5102       5113       5112  
      4981       4982       4993       4992       5102       5103       5114       5113  
      4982       4983       4994       4993       5103       5104       5115       5114  
      4984       4985       4996       4995       5105       5106       5117       5116  
      4985       4986       4997       4996       5106       5107       5118       5117  
      4986       4987       4998       4997       5107       5108       5119       5118  
      4987       4988       4999       4998       5108       5109       5120       5119  
      4988       4989       5000       4999       5109       5110       5121       5120  
      4989       4990       5001       5000       5110       5111       5122       5121  
      4990       4991       5002       5001       5111       5112       5123       5122  
      4991       4992       5003       5002       5112       5113       5124       5123  
      4992       4993       5004       5003       5113       5114       5125       5124  
      4993       4994       5005       5004       5114       5115       5126       5125  
      4995       4996       5007       5006       5116       5117       5128       5127  
      4996       4997       5008       5007       5117       5118       5129       5128  
      4997       4998       5009       5008       5118       5119       5130       5129  
      4998       4999       5010       5009       5119       5120       5131       5130  
      4999       5000       5011       5010       5120       5121       5132       5131  
      5000       5001       5012       5011       5121       5122       5133       5132  
      5001       5002       5013       5012       5122       5123       5134       5133  
      5002       5003       5014       5013       5123       5124       5135       5134  
      5003       5004       5015       5014       5124       5125       5136       5135  
      5004       5005       5016       5015       5125       5126       5137       5136  
      5006       5007       5018       5017       5127       5128       5139       5138  
      5007       5008       5019       5018       5128       5129       5140       5139  
      5008       5009       5020       5019       5129       5130       5141       5140  
      5009       5010       5021       5020       5130       5131       5142       5141  
      5010       5011       5022       5021       5131       5132       5143       5142  
      5011       5012       5023       5022       5132       5133       5144       5143  
      5012       5013       5024       5023       5133       5134       5145       5144  
      5013       5014       5025       5024       5134       5135       5146       5145  
      5014       5015       5026       5025       5135       5136       5147       5146  
      5015       5016       5027       5026       5136       5137       5148       5147  
      5017       5018       5029       5028       5138       5139       5150       5149  
      5018       5019       5030       5029       5139       5140       5151       5150  
      5019       5020       5031       5030       5140       5141       5152       5151  
      5020       5021       5032       5031       5141       5142       5153       5152  
      5021       5022       5033       5032       5142       5143       5154       5153  
      5022       5023       5034       5033       5143       5144       5155       5154  
      5023       5024       5035       5034       5144       5145       5156       5155  
      5024       5025       5036       5035       5145       5146       5157       5156  
      5025       5026       5037       5036       5146       5147       5158       5157  
      5026       5027       5038       5037       5147       5148       5159       5158  
      5028       5029       5040       5039       5149       5150       5161       5160  
      5029       5030       5041       5040       5150       5151       5162       5161  
      5030       5031       5042       5041       5151       5152       5163       5162  
      5031       5032       5043       5042       5152       5153       5164       5163  
      5032       5033       5044       5043       5153       5154       5165       5164  
      5033       5034       5045       5044       5154       5155       5166       5165  
      5034       5035       5046       5045       5155       5156       5167       5166  
      5035       5036       5047       5046       5156       5157       5168       5167  
      5036       5037       5048       5047       5157       5158       5169       5168  
      5037       5038       5049       5048       5158       5159       5170       5169  
      5039       5040       5051       5050       5160       5161       5172       5171  
      5040       5041       5052       5051       5161       5162       5173       5172  
      5041       5042       5053       5052       5162       5163       5174       5173  
      5042       5043       5054       5053       5163       5164       5175       5174  
      5043       5044       5055       5054       5164       5165       5176       5175  
      5044       5045       5056       5055       5165       5166       5177       5176  
      5045       5046       5057       5056       5166       5167       5178       5177  
      5046       5047       5058       5057       5167       5168       5179       5178  
      5047       5048       5059       5058       5168       5169       5180       5179  
      5048       5049       5060       5059       5169       5170       5181       5180  
      5050       5051       5062       5061       5171       5172       5183       5182  
      5051       5052       5063       5062       5172       5173       5184       5183  
      5052       5053       5064       5063       5173       5174       5185       5184  
      5053       5054       5065       5064       5174       5175       5186       5185  
      5054       5055       5066       5065       5175       5176       5187       5186  
      5055       5056       5067       5066       5176       5177       5188       5187  
      5056       5057       5068       5067       5177       5178       5189       5188  
      5057       5058       5069       5068       5178       5179       5190       5189  
      5058       5059       5070       5069       5179       5180       5191       5190  
      5059       5060       5071       5070       5180       5181       5192       5191  
      5061       5062       5073       5072       5182       5183       5194       5193  
      5062       5063       5074       5073       5183       5184       5195       5194  
      5063       5064       5075       5074       5184       5185       5196       5195  
      5064       5065       5076       5075       5185       5186       5197       5196  
      5065       5066       5077       5076       5186       5187       5198       5197  
      5066       5067       5078       5077       5187       5188       5199       5198  
      5067       5068       5079       5078       5188       5189       5200       5199  
      5068       5069       5080       5079       5189       5190       5201       5200  
      5069       5070       5081       5080       5190       5191       5202       5201  
      5070       5071       5082       5081       5191       5192       5203       5202  
      5083       5084       5095       5094       5204       5205       5216       5215  
      5084       5085       5096       5095       5205       5206       5217       5216  
      5085       5086       5097       5096       5206       5207       5218       5217  
      5086       5087       5098       5097       5207       5208       5219       5218  
      5087       5088       5099       5098       5208       5209       5220       5219  
      5088       5089       5100       5099       5209       5210       5221       5220  
      5089       5090       5101       5100       5210       5211       5222       5221  
      5090       5091       5102       5101       5211       5212       5223       5222  
      5091       5092       5103       5102       5212       5213       5224       5223  
      5092       5093       5104       5103       5213       5214       5225       5224  
      5094       5095       5106       5105       5215       5216       5227       5226  
      5095       5096       5107       5106       5216       5217       5228       5227  
      5096       5097       5108       5107       5217       5218       5229       5228  
      5097       5098       5109       5108       5218       5219       5230       5229  
      5098       5099       5110       5109       5219       5220       5231       5230  
      5099       5100       5111       5110       5220       5221       5232       5231  
      5100       5101       5112       5111       5221       5222       5233       5232  
      5101       5102       5113       5112       5222       5223       5234       5233  
      5102       5103       5114       5113       5223       5224       5235       5234  
      5103       5104       5115       5114       5224       5225       5236       5235  
      5105       5106       5117       5116       5226       5227       5238       5237  
      5106       5107       5118       5117       5227       5228       5239       5238  
      5107       5108       5119       5118       5228       5229       5240       5239  
      5108       5109       5120       5119       5229       5230       5241       5240  
      5109       5110       5121       5120       5230       5231       5242       5241  
      5110       5111       5122       5121       5231       5232       5243       5242  
      5111       5112       5123       5122       5232       5233       5244       5243  
      5112       5113       5124       5123       5233       5234       5245       5244  
      5113       5114       5125       5124       5234       5235       5246       5245  
      5114       5115       5126       5125       5235       5236       5247       5246  
      5116       5117       5128       5127       5237       5238       5249       5248  
      5117       5118       5129       5128       5238       5239       5250       5249  
      5118       5119       5130       5129       5239       5240       5251       5250  
      5119       5120       5131       5130       5240       5241       5252       5251  
      5120       5121       5132       5131       5241       5242       5253       5252  
      5121       5122       5133       5132       5242       5243       5254       5253  
      5122       5123       5134       5133       5243       5244       5255       5254  
      5123       5124       5135       5134       5244       5245       5256       5255  
      5124       5125       5136       5135       5245       5246       5257       5256  
      5125       5126       5137       5136       5246       5247       5258       5257  
      5127       5128       5139       5138       5248       5249       5260       5259  
      5128       5129       5140       5139       5249       5250       5261       5260  
      5129       5130       5141       5140       5250       5251       5262       5261  
      5130       5131       5142       5141       5251       5252       5263       5262  
      5131       5132       5143       5142       5252       5253       5264       5263  
      5132       5133       5144       5143       5253       5254       5265       5264  
      5133       5134       5145       5144       5254       5255       5266       5265  
      5134       5135       5146       5145       5255       5256       5267       5266  
      5135       5136       5147       5146       5256       5257       5268       5267  
      5136       5137       5148       5147       5257       5258       5269       5268  
      5138       5139       5150       5149       5259       5260       5271       5270  
      5139       5140       5151       5150       5260       5261       5272       5271  
      5140       5141       5152       5151       5261       5262       5273       5272  
      5141       5142       5153       5152       5262       5263       5274       5273  
      5142       5143       5154       5153       5263       5264       5275       5274  
      5143       5144       5155       5154       5264       5265       5276       5275  
      5144       5145       5156       5155       5265       5266       5277       5276  
      5145       5146       5157       5156       5266       5267       5278       5277  
      5146       5147       5158       5157       5267       5268       5279       5278  
      5147       5148       5159       5158       5268       5269       5280       5279  
      5149       5150       5161       5160       5270       5271       5282       5281  
      5150       5151       5162       5161       5271       5272       5283       5282  
      5151       5152       5163       5162       5272       5273       5284       5283  
      5152       5153       5164       5163       5273       5274       5285       5284  
      5153       5154       5165       5164       5274       5275       5286       5285  
      5154       5155       5166       5165       5275       5276       5287       5286  
      5155       5156       5167       5166       5276       5277       5288       5287  
      5156       5157       5168       5167       5277       5278       5289       5288  
      5157       5158       5169       5168       5278       5279       5290       5289  
      5158       5159       5170       5169       5279       5280       5291       5290  
      5160       5161       5172       5171       5281       5282       5293       5292  
      5161       5162       5173       5172       5282       5283       5294       5293  
      5162       5163       5174       5173       5283       5284       5295       5294  
      5163       5164       5175       5174       5284       5285       5296       5295  
      5164       5165       5176       5175       5285       5286       5297       5296  
      5165       5166       5177       5176       5286       5287       5298       5297  
      5166       5167       5178       5177       5287       5288       5299       5298  
      5167       5168       5179       5178       5288       5289       5300       5299  
      5168       5169       5180       5179       5289       5290       5301       5300  
      5169       5170       5181       5180       5290       5291       5302       5301  
      5171       5172       5183       5182       5292       5293       5304       5303  
      5172       5173       5184       5183       5293       5294       5305       5304  
      5173       5174       5185       5184       5294       5295       5306       5305  
      5174       5175       5186       5185       5295       5296       5307       5306  
      5175       5176       5187       5186       5296       5297       5308       5307  
      5176       5177       5188       5187       5297       5298       5309       5308  
      5177       5178       5189       5188       5298       5299       5310       5309  
      5178       5179       5190       5189       5299       5300       5311       5310  
      5179       5180       5191       5190       5300       5301       5312       5311  
      5180       5181       5192       5191       5301       5302       5313       5312  
      5182       5183       5194       5193       5303       5304       5315       5314  
      5183       5184       5195       5194       5304       5305       5316       5315  
      5184       5185       5196       5195       5305       5306       5317       5316  
      5185       5186       5197       5196       5306       5307       5318       5317  
      5186       5187       5198       5197       5307       5308       5319       5318  
      5187       5188       5199       5198       5308       5309       5320       5319  
      5188       5189       5200       5199       5309       5310       5321       5320  
      5189       5190       5201       5200       5310       5311       5322       5321  
      5190       5191       5202       5201       5311       5312       5323       5322  
      5191       5192       5203       5202       5312       5313       5324       5323  
      5204       5205       5216       5215       5325       5326       5337       5336  
      5205       5206       5217       5216       5326       5327       5338       5337  
      5206       5207       5218       5217       5327       5328       5339       5338  
      5207       5208       5219       5218       5328       5329       5340       5339  
      5208       5209       5220       5219       5329       5330       5341       5340  
      5209       5210       5221       5220       5330       5331       5342       5341  
      5210       5211       5222       5221       5331       5332       5343       5342  
      5211       5212       5223       5222       5332       5333       5344       5343  
      5212       5213       5224       5223       5333       5334       5345       5344  
      5213       5214       5225       5224       5334       5335       5346       5345  
      5215       5216       5227       5226       5336       5337       5348       5347  
      5216       5217       5228       5227       5337       5338       5349       5348  
      5217       5218       5229       5228       5338       5339       5350       5349  
      5218       5219       5230       5229       5339       5340       5351       5350  
      5219       5220       5231       5230       5340       5341       5352       5351  
      5220       5221       5232       5231       5341       5342       5353       5352  
      5221       5222       5233       5232       5342       5343       5354       5353  
      5222       5223       5234       5233       5343       5344       5355       5354  
      5223       5224       5235       5234       5344       5345       5356       5355  
      5224       5225       5236       5235       5345       5346       5357       5356  
      5226       5227       5238       5237       5347       5348       5359       5358  
      5227       5228       5239       5238       5348       5349       5360       5359  
      5228       5229       5240       5239       5349       5350       5361       5360  
      5229       5230       5241       5240       5350       5351       5362       5361  
      5230       5231       5242       5241       5351       5352       5363       5362  
      5231       5232       5243       5242       5352       5353       5364       5363  
      5232       5233       5244       5243       5353       5354       5365       5364  
      5233       5234       5245       5244       5354       5355       5366       5365  
      5234       5235       5246       5245       5355       5356       5367       5366  
      5235       5236       5247       5246       5356       5357       5368       5367  
      5237       5238       5249       5248       5358       5359       5370       5369  
      5238       5239       5250       5249       5359       5360       5371       5370  
      5239       5240       5251       5250       5360       5361       5372       5371  
      5240       5241       5252       5251       5361       5362       5373       5372  
      5241       5242       5253       5252       5362       5363       5374       5373  
      5242       5243       5254       5253       5363       5364       5375       5374  
      5243       5244       5255       5254       5364       5365       5376       5375  
      5244       5245       5256       5255       5365       5366       5377       5376  
      5245       5246       5257       5256       5366       5367       5378       5377  
      5246       5247       5258       5257       5367       5368       5379       5378  
      5248       5249       5260       5259       5369       5370       5381       5380  
      5249       5250       5261       5260       5370       5371       5382       5381  
      5250       5251       5262       5261       5371       5372       5383       5382  
      5251       5252       5263       5262       5372       5373       5384       5383  
      5252       5253       5264       5263       5373       5374       5385       5384  
      5253       5254       5265       5264       5374       5375       5386       5385  
      5254       5255       5266       5265       5375       5376       5387       5386  
      5255       5256       5267       5266       5376       5377       5388       5387  
      5256       5257       5268       5267       5377       5378       5389       5388  
      5257       5258       5269       5268       5378       5379       5390       5389  
      5259       5260       5271       5270       5380       5381       5392       5391  
      5260       5261       5272       5271       5381       5382       5393       5392  
      5261       5262       5273       5272       5382       5383       5394       5393  
      5262       5263       5274       5273       5383       5384       5395       5394  
      5263       5264       5275       5274       5384       5385       5396       5395  
      5264       5265       5276       5275       5385       5386       5397       5396  
      5265       5266       5277       5276       5386       5387       5398       5397  
      5266       5267       5278       5277       5387       5388       5399       5398  
      5267       5268       5279       5278       5388       5389       5400       5399  
      5268       5269       5280       5279       5389       5390       5401       5400  
      5270       5271       5282       5281       5391       5392       5403       5402  
      5271       5272       5283       5282       5392       5393       5404       5403  
      5272       5273       5284       5283       5393       5394       5405       5404  
      5273       5274       5285       5284       5394       5395       5406       5405  
      5274       5275       5286       5285       5395       5396       5407       5406  
      5275       5276       5287       5286       5396       5397       5408       5407  
      5276       5277       5288       5287       5397       5398       5409       5408  
      5277       5278       5289       5288       5398       5399       5410       5409  
      5278       5279       5290       5289       5399       5400       5411       5410  
      5279       5280       5291       5290       5400       5401       5412       5411  
      5281       5282       5293       5292       5402       5403       5414       5413  
      5282       5283       5294       5293       5403       5404       5415       5414  
      5283       5284       5295       5294       5404       5405       5416       5415  
      5284       5285       5296       5295       5405       5406       5417       5416  
      5285       5286       5297       5296       5406       5407       5418       5417  
      5286       5287       5298       5297       5407       5408       5419       5418  
      5287       5288       5299       5298       5408       5409       5420       5419  
      5288       5289       5300       5299       5409       5410       5421       5420  
      5289       5290       5301       5300       5410       5411       5422       5421  
      5290       5291       5302       5301       5411       5412       5423       5422  
      5292       5293       5304       5303       5413       5414       5425       5424  
      5293       5294       5305       5304       5414       5415       5426       5425  
      5294       5295       5306       5305       5415       5416       5427       5426  
      5295       5296       5307       5306       5416       5417       5428       5427  
      5296       5297       5308       5307       5417       5418       5429       5428  
      5297       5298       5309       5308       5418       5419       5430       5429  
      5298       5299       5310       5309       5419       5420       5431       5430  
      5299       5300       5311       5310       5420       5421       5432       5431  
      5300       5301       5312       5311       5421       5422       5433       5432  
      5301       5302       5313       5312       5422       5423       5434       5433  
      5303       5304       5315       5314       5424       5425       5436       5435  
      5304       5305       5316       5315       5425       5426       5437       5436  
      5305       5306       5317       5316       5426       5427       5438       5437  
      5306       5307       5318       5317       5427       5428       5439       5438  
      5307       5308       5319       5318       5428       5429       5440       5439  
      5308       5309       5320       5319       5429       5430       5441       5440  
      5309       5310       5321       5320       5430       5431       5442       5441  
      5310       5311       5322       5321       5431       5432       5443       5442  
      5311       5312       5323       5322       5432       5433       5444       5443  
      5312       5313       5324       5323       5433       5434       5445       5444  
      5325       5326       5337       5336       5446       5447       5458       5457  
      5326       5327       5338       5337       5447       5448       5459       5458  
      5327       5328       5339       5338       5448       5449       5460       5459  
      5328       5329       5340       5339       5449       5450       5461       5460  
      5329       5330       5341       5340       5450       5451       5462       5461  
      5330       5331       5342       5341       5451       5452       5463       5462  
      5331       5332       5343       5342       5452       5453       5464       5463  
      5332       5333       5344       5343       5453       5454       5465       5464  
      5333       5334       5345       5344       5454       5455       5466       5465  
      5334       5335       5346       5345       5455       5456       5467       5466  
      5336       5337       5348       5347       5457       5458       5469       5468  
      5337       5338       5349       5348       5458       5459       5470       5469  
      5338       5339       5350       5349       5459       5460       5471       5470  
      5339       5340       5351       5350       5460       5461       5472       5471  
      5340       5341       5352       5351       5461       5462       5473       5472  
      5341       5342       5353       5352       5462       5463       5474       5473  
      5342       5343       5354       5353       5463       5464       5475       5474  
      5343       5344       5355       5354       5464       5465       5476       5475  
      5344       5345       5356       5355       5465       5466       5477       5476  
      5345       5346       5357       5356       5466       5467       5478       5477  
      5347       5348       5359       5358       5468       5469       5480       5479  
      5348       5349       5360       5359       5469       5470       5481       5480  
      5349       5350       5361       5360       5470       5471       5482       5481  
      5350       5351       5362       5361       5471       5472       5483       5482  
      5351       5352       5363       5362       5472       5473       5484       5483  
      5352       5353       5364       5363       5473       5474       5485       5484  
      5353       5354       5365       5364       5474       5475       5486       5485  
      5354       5355       5366       5365       5475       5476       5487       5486  
      5355       5356       5367       5366       5476       5477       5488       5487  
      5356       5357       5368       5367       5477       5478       5489       5488  
      5358       5359       5370       5369       5479       5480       5491       5490  
      5359       5360       5371       5370       5480       5481       5492       5491  
      5360       5361       5372       5371       5481       5482       5493       5492  
      5361       5362       5373       5372       5482       5483       5494       5493  
      5362       5363       5374       5373       5483       5484       5495       5494  
      5363       5364       5375       5374       5484       5485       5496       5495  
      5364       5365       5376       5375       5485       5486       5497       5496  
      5365       5366       5377       5376       5486       5487       5498       5497  
      5366       5367       5378       5377       5487       5488       5499       5498  
      5367       5368       5379       5378       5488       5489       5500       5499  
      5369       5370       5381       5380       5490       5491       5502       5501  
      5370       5371       5382       5381       5491       5492       5503       5502  
      5371       5372       5383       5382       5492       5493       5504       5503  
      5372       5373       5384       5383       5493       5494       5505       5504  
      5373       5374       5385       5384       5494       5495       5506       5505  
      5374       5375       5386       5385       5495       5496       5507       5506  
      5375       5376       5387       5386       5496       5497       5508       5507  
      5376       5377       5388       5387       5497       5498       5509       5508  
      5377       5378       5389       5388       5498       5499       5510       5509  
      5378       5379       5390       5389       5499       5500       5511       5510  
      5380       5381       5392       5391       5501       5502       5513       5512  
      5381       5382       5393       5392       5502       5503       5514       5513  
      5382       5383       5394       5393       5503       5504       5515       5514  
      5383       5384       5395       5394       5504       5505       5516       5515  
      5384       5385       5396       5395       5505       5506       5517       5516  
      5385       5386       5397       5396       5506       5507       5518       5517  
      5386       5387       5398       5397       5507       5508       5519       5518  
      5387       5388       5399       5398       5508       5509       5520       5519  
      5388       5389       5400       5399       5509       5510       5521       5520  
      5389       5390       5401       5400       5510       5511       5522       5521  
      5391       5392       5403       5402       5512       5513       5524       5523  
      5392       5393       5404       5403       5513       5514       5525       5524  
      5393       5394       5405       5404       5514       5515       5526       5525  
      5394       5395       5406       5405       5515       5516       5527       5526  
      5395       5396       5407       5406       5516       5517       5528       5527  
      5396       5397       5408       5407       5517       5518       5529       5528  
      5397       5398       5409       5408       5518       5519       5530       5529  
      5398       5399       5410       5409       5519       5520       5531       5530  
      5399       5400       5411       5410       5520       5521       5532       5531  
      5400       5401       5412       5411       5521       5522       5533       5532  
      5402       5403       5414       5413       5523       5524       5535       5534  
      5403       5404       5415       5414       5524       5525       5536       5535  
      5404       5405       5416       5415       5525       5526       5537       5536  
      5405       5406       5417       5416       5526       5527       5538       5537  
      5406       5407       5418       5417       5527       5528       5539       5538  
      5407       5408       5419       5418       5528       5529       5540       5539  
      5408       5409       5420       5419       5529       5530       5541       5540  
      5409       5410       5421       5420       5530       5531       5542       5541  
      5410       5411       5422       5421       5531       5532       5543       5542  
      5411       5412       5423       5422       5532       5533       5544       5543  
      5413       5414       5425       5424       5534       5535       5546       5545  
      5414       5415       5426       5425       5535       5536       5547       5546  
      5415       5416       5427       5426       5536       5537       5548       5547  
      5416       5417       5428       5427       5537       5538       5549       5548  
      5417       5418       5429       5428       5538       5539       5550       5549  
      5418       5419       5430       5429       5539       5540       5551       5550  
      5419       5420       5431       5430       5540       5541       5552       5551  
      5420       5421       5432       5431       5541       5542       5553       5552  
      5421       5422       5433       5432       5542       5543       5554       5553  
      5422       5423       5434       5433       5543       5544       5555       5554  
      5424       5425       5436       5435       5545       5546       5557       5556  
      5425       5426       5437       5436       5546       5547       5558       5557  
      5426       5427       5438       5437       5547       5548       5559       5558  
      5427       5428       5439       5438       5548       5549       5560       5559  
      5428       5429       5440       5439       5549       5550       5561       5560  
      5429       5430       5441       5440       5550       5551       5562       5561  
      5430       5431       5442       5441       5551       5552       5563       5562  
      5431       5432       5443       5442       5552       5553       5564       5563  
      5432       5433       5444       5443       5553       5554       5565       5564  
      5433       5434       5445       5444       5554       5555       5566       5565  
      5446       5447       5458       5457       5567       5568       5579       5578  
      5447       5448       5459       5458       5568       5569       5580       5579  
      5448       5449       5460       5459       5569       5570       5581       5580  
      5449       5450       5461       5460       5570       5571       5582       5581  
      5450       5451       5462       5461       5571       5572       5583       5582  
      5451       5452       5463       5462       5572       5573       5584       5583  
      5452       5453       5464       5463       5573       5574       5585       5584  
      5453       5454       5465       5464       5574       5575       5586       5585  
      5454       5455       5466       5465       5575       5576       5587       5586  
      5455       5456       5467       5466       5576       5577       5588       5587  
      5457       5458       5469       5468       5578       5579       5590       5589  
      5458       5459       5470       5469       5579       5580       5591       5590  
      5459       5460       5471       5470       5580       5581       5592       5591  
      5460       5461       5472       5471       5581       5582       5593       5592  
      5461       5462       5473       5472       5582       5583       5594       5593  
      5462       5463       5474       5473       5583       5584       5595       5594  
      5463       5464       5475       5474       5584       5585       5596       5595  
      5464       5465       5476       5475       5585       5586       5597       5596  
      5465       5466       5477       5476       5586       5587       5598       5597  
      5466       5467       5478       5477       5587       5588       5599       5598  
      5468       5469       5480       5479       5589       5590       5601       5600  
      5469       5470       5481       5480       5590       5591       5602       5601  
      5470       5471       5482       5481       5591       5592       5603       5602  
      5471       5472       5483       5482       5592       5593       5604       5603  
      5472       5473       5484       5483       5593       5594       5605       5604  
      5473       5474       5485       5484       5594       5595       5606       5605  
      5474       5475       5486       5485       5595       5596       5607       5606  
      5475       5476       5487       5486       5596       5597       5608       5607  
      5476       5477       5488       5487       5597       5598       5609       5608  
      5477       5478       5489       5488       5598       5599       5610       5609  
      5479       5480       5491       5490       5600       5601       5612       5611  
      5480       5481       5492       5491       5601       5602       5613       5612  
      5481       5482       5493       5492       5602       5603       5614       5613  
      5482       5483       5494       5493       5603       5604       5615       5614  
      5483       5484       5495       5494       5604       5605       5616       5615  
      5484       5485       5496       5495       5605       5606       5617       5616  
      5485       5486       5497       5496       5606       5607       5618       5617  
      5486       5487       5498       5497       5607       5608       5619       5618  
      5487       5488       5499       5498       5608       5609       5620       5619  
      5488       5489       5500       5499       5609       5610       5621       5620  
      5490       5491       5502       5501       5611       5612       5623       5622  
      5491       5492       5503       5502       5612       5613       5624       5623  
      5492       5493       5504       5503       5613       5614       5625       5624  
      5493       5494       5505       5504       5614       5615       5626       5625  
      5494       5495       5506       5505       5615       5616       5627       5626  
      5495       5496       5507       5506       5616       5617       5628       5627  
      5496       5497       5508       5507       5617       5618       5629       5628  
      5497       5498       5509       5508       5618       5619       5630       5629  
      5498       5499       5510       5509       5619       5620       5631       5630  
      5499       5500       5511       5510       5620       5621       5632       5631  
      5501       5502       5513       5512       5622       5623       5634       5633  
      5502       5503       5514       5513       5623       5624       5635       5634  
      5503       5504       5515       5514       5624       5625       5636       5635  
      5504       5505       5516       5515       5625       5626       5637       5636  
      5505       5506       5517       5516       5626       5627       5638       5637  
      5506       5507       5518       5517       5627       5628       5639       5638  
      5507       5508       5519       5518       5628       5629       5640       5639  
      5508       5509       5520       5519       5629       5630       5641       5640  
      5509       5510       5521       5520       5630       5631       5642       5641  
      5510       5511       5522       5521       5631       5632       5643       5642  
      5512       5513       5524       5523       5633       5634       5645       5644  
      5513       5514       5525       5524       5634       5635       5646       5645  
      5514       5515       5526       5525       5635       5636       5647       5646  
      5515       5516       5527       5526       5636       5637       5648       5647  
      5516       5517       5528       5527       5637       5638       5649       5648  
      5517       5518       5529       5528       5638       5639       5650       5649  
      5518       5519       5530       5529       5639       5640       5651       5650  
      5519       5520       5531       5530       5640       5641       5652       5651  
      5520       5521       5532       5531       5641       5642       5653       5652  
      5521       5522       5533       5532       5642       5643       5654       5653  
      5523       5524       5535       5534       5644       5645       5656       5655  
      5524       5525       5536       5535       5645       5646       5657       5656  
      5525       5526       5537       5536       5646       5647       5658       5657  
      5526       5527       5538       5537       5647       5648       5659       5658  
      5527       5528       5539       5538       5648       5649       5660       5659  
      5528       5529       5540       5539       5649       5650       5661       5660  
      5529       5530       5541       5540       5650       5651       5662       5661  
      5530       5531       5542       5541       5651       5652       5663       5662  
      5531       5532       5543       5542       5652       5653       5664       5663  
      5532       5533       5544       5543       5653       5654       5665       5664  
      5534       5535       5546       5545       5655       5656       5667       5666  
      5535       5536       5547       5546       5656       5657       5668       5667  
      5536       5537       5548       5547       5657       5658       5669       5668  
      5537       5538       5549       5548       5658       5659       5670       5669  
      5538       5539       5550       5549       5659       5660       5671       5670  
      5539       5540       5551       5550       5660       5661       5672       5671  
      5540       5541       5552       5551       5661       5662       5673       5672  
      5541       5542       5553       5552       5662       5663       5674       5673  
      5542       5543       5554       5553       5663       5664       5675       5674  
      5543       5544       5555       5554       5664       5665       5676       5675  
      5545       5546       5557       5556       5666       5667       5678       5677  
      5546       5547       5558       5557       5667       5668       5679       5678  
      5547       5548       5559       5558       5668       5669       5680       5679  
      5548       5549       5560       5559       5669       5670       5681       5680  
      5549       5550       5561       5560       5670       5671       5682       5681  
      5550       5551       5562       5561       5671       5672       5683       5682  
      5551       5552       5563       5562       5672       5673       5684       5683  
      5552       5553       5564       5563       5673       5674       5685       5684  
      5553       5554       5565       5564       5674       5675       5686       5685  
      5554       5555       5566       5565       5675       5676       5687       5686  
      5567       5568       5579       5578       5688       5689       5700       5699  
      5568       5569       5580       5579       5689       5690       5701       5700  
      5569       5570       5581       5580       5690       5691       5702       5701  
      5570       5571       5582       5581       5691       5692       5703       5702  
      5571       5572       5583       5582       5692       5693       5704       5703  
      5572       5573       5584       5583       5693       5694       5705       5704  
      5573       5574       5585       5584       5694       5695       5706       5705  
      5574       5575       5586       5585       5695       5696       5707       5706  
      5575       5576       5587       5586       5696       5697       5708       5707  
      5576       5577       5588       5587       5697       5698       5709       5708  
      5578       5579       5590       5589       5699       5700       5711       5710  
      5579       5580       5591       5590       5700       5701       5712       5711  
      5580       5581       5592       5591       5701       5702       5713       5712  
      5581       5582       5593       5592       5702       5703       5714       5713  
      5582       5583       5594       5593       5703       5704       5715       5714  
      5583       5584       5595       5594       5704       5705       5716       5715  
      5584       5585       5596       5595       5705       5706       5717       5716  
      5585       5586       5597       5596       5706       5707       5718       5717  
      5586       5587       5598       5597       5707       5708       5719       5718  
      5587       5588       5599       5598       5708       5709       5720       5719  
      5589       5590       5601       5600       5710       5711       5722       5721  
      5590       5591       5602       5601       5711       5712       5723       5722  
      5591       5592       5603       5602       5712       5713       5724       5723  
      5592       5593       5604       5603       5713       5714       5725       5724  
      5593       5594       5605       5604       5714       5715       5726       5725  
      5594       5595       5606       5605       5715       5716       5727       5726  
      5595       5596       5607       5606       5716       5717       5728       5727  
      5596       5597       5608       5607       5717       5718       5729       5728  
      5597       5598       5609       5608       5718       5719       5730       5729  
      5598       5599       5610       5609       5719       5720       5731       5730  
      5600       5601       5612       5611       5721       5722       5733       5732  
      5601       5602       5613       5612       5722       5723       5734       5733  
      5602       5603       5614       5613       5723       5724       5735       5734  
      5603       5604       5615       5614       5724       5725       5736       5735  
      5604       5605       5616       5615       5725       5726       5737       5736  
      5605       5606       5617       5616       5726       5727       5738       5737  
      5606       5607       5618       5617       5727       5728       5739       5738  
      5607       5608       5619       5618       5728       5729       5740       5739  
      5608       5609       5620       5619       5729       5730       5741       5740  
      5609       5610       5621       5620       5730       5731       5742       5741  
      5611       5612       5623       5622       5732       5733       5744       5743  
      5612       5613       5624       5623       5733       5734       5745       5744  
      5613       5614       5625       5624       5734       5735       5746       5745  
      5614       5615       5626       5625       5735       5736       5747       5746  
      5615       5616       5627       5626       5736       5737       5748       5747  
      5616       5617       5628       5627       5737       5738       5749       5748  
      5617       5618       5629       5628       5738       5739       5750       5749  
      5618       5619       5630       5629       5739       5740       5751       5750  
      5619       5620       5631       5630       5740       5741       5752       5751  
      5620       5621       5632       5631       5741       5742       5753       5752  
      5622       5623       5634       5633       5743       5744       5755       5754  
      5623       5624       5635       5634       5744       5745       5756       5755  
      5624       5625       5636       5635       5745       5746       5757       5756  
      5625       5626       5637       5636       5746       5747       5758       5757  
      5626       5627       5638       5637       5747       5748       5759       5758  
      5627       5628       5639       5638       5748       5749       5760       5759  
      5628       5629       5640       5639       5749       5750       5761       5760  
      5629       5630       5641       5640       5750       5751       5762       5761  
      5630       5631       5642       5641       5751       5752       5763       5762  
      5631       5632       5643       5642       5752       5753       5764       5763  
      5633       5634       5645       5644       5754       5755       5766       5765  
      5634       5635       5646       5645       5755       5756       5767       5766  
      5635       5636       5647       5646       5756       5757       5768       5767  
      5636       5637       5648       5647       5757       5758       5769       5768  
      5637       5638       5649       5648       5758       5759       5770       5769  
      5638       5639       5650       5649       5759       5760       5771       5770  
      5639       5640       5651       5650       5760       5761       5772       5771  
      5640       5641       5652       5651       5761       5762       5773       5772  
      5641       5642       5653       5652       5762       5763       5774       5773  
      5642       5643       5654       5653       5763       5764       5775       5774  
      5644       5645       5656       5655       5765       5766       5777       5776  
      5645       5646       5657       5656       5766       5767       5778       5777  
      5646       5647       5658       5657       5767       5768       5779       5778  
      5647       5648       5659       5658       5768       5769       5780       5779  
      5648       5649       5660       5659       5769       5770       5781       5780  
      5649       5650       5661       5660       5770       5771       5782       5781  
      5650       5651       5662       5661       5771       5772       5783       5782  
      5651       5652       5663       5662       5772       5773       5784       5783  
      5652       5653       5664       5663       5773       5774       5785       5784  
      5653       5654       5665       5664       5774       5775       5786       5785  
      5655       5656       5667       5666       5776       5777       5788       5787  
      5656       5657       5668       5667       5777       5778       5789       5788  
      5657       5658       5669       5668       5778       5779       5790       5789  
      5658       5659       5670       5669       5779       5780       5791       5790  
      5659       5660       5671       5670       5780       5781       5792       5791  
      5660       5661       5672       5671       5781       5782       5793       5792  
      5661       5662       5673       5672       5782       5783       5794       5793  
      5662       5663       5674       5673       5783       5784       5795       5794  
      5663       5664       5675       5674       5784       5785       5796       5795  
      5664       5665       5676       5675       5785       5786       5797       5796  
      5666       5667       5678       5677       5787       5788       5799       5798  
      5667       5668       5679       5678       5788       5789       5800       5799  
      5668       5669       5680       5679       5789       5790       5801       5800  
      5669       5670       5681       5680       5790       5791       5802       5801  
      5670       5671       5682       5681       5791       5792       5803       5802  
      5671       5672       5683       5682       5792       5793       5804       5803  
      5672       5673       5684       5683       5793       5794       5805       5804  
      5673       5674       5685       5684       5794       5795       5806       5805  
      5674       5675       5686       5685       5795       5796       5807       5806  
      5675       5676       5687       5686       5796       5797       5808       5807  
      5688       5689       5700       5699       5809       5810       5821       5820  
      5689       5690       5701       5700       5810       5811       5822       5821  
      5690       5691       5702       5701       5811       5812       5823       5822  
      5691       5692       5703       5702       5812       5813       5824       5823  
      5692       5693       5704       5703       5813       5814       5825       5824  
      5693       5694       5705       5704       5814       5815       5826       5825  
      5694       5695       5706       5705       5815       5816       5827       5826  
      5695       5696       5707       5706       5816       5817       5828       5827  
      5696       5697       5708       5707       5817       5818       5829       5828  
      5697       5698       5709       5708       5818       5819       5830       5829  
      5699       5700       5711       5710       5820       5821       5832       5831  
      5700       5701       5712       5711       5821       5822       5833       5832  
      5701       5702       5713       5712       5822       5823       5834       5833  
      5702       5703       5714       5713       5823       5824       5835       5834  
      5703       5704       5715       5714       5824       5825       5836       5835  
      5704       5705       5716       5715       5825       5826       5837       5836  
      5705       5706       5717       5716       5826       5827       5838       5837  
      5706       5707       5718       5717       5827       5828       5839       5838  
      5707       5708       5719       5718       5828       5829       5840       5839  
      5708       5709       5720       5719       5829       5830       5841       5840  
      5710       5711       5722       5721       5831       5832       5843       5842  
      5711       5712       5723       5722       5832       5833       5844       5843  
      5712       5713       5724       5723       5833       5834       5845       5844  
      5713       5714       5725       5724       5834       5835       5846       5845  
      5714       5715       5726       5725       5835       5836       5847       5846  
      5715       5716       5727       5726       5836       5837       5848       5847  
      5716       5717       5728       5727       5837       5838       5849       5848  
      5717       5718       5729       5728       5838       5839       5850       5849  
      5718       5719       5730       5729       5839       5840       5851       5850  
      5719       5720       5731       5730       5840       5841       5852       5851  
      5721       5722       5733       5732       5842       5843       5854       5853  
      5722       5723       5734       5733       5843       5844       5855       5854  
      5723       5724       5735       5734       5844       5845       5856       5855  
      5724       5725       5736       5735       5845       5846       5857       5856  
      5725       5726       5737       5736       5846       5847       5858       5857  
      5726       5727       5738       5737       5847       5848       5859       5858  
      5727       5728       5739       5738       5848       5849       5860       5859  
      5728       5729       5740       5739       5849       5850       5861       5860  
      5729       5730       5741       5740       5850       5851       5862       5861  
      5730       5731       5742       5741       5851       5852       5863       5862  
      5732       5733       5744       5743       5853       5854       5865       5864  
      5733       5734       5745       5744       5854       5855       5866       5865  
      5734       5735       5746       5745       5855       5856       5867       5866  
      5735       5736       5747       5746       5856       5857       5868       5867  
      5736       5737       5748       5747       5857       5858       5869       5868  
      5737       5738       5749       5748       5858       5859       5870       5869  
      5738       5739       5750       5749       5859       5860       5871       5870  
      5739       5740       5751       5750       5860       5861       5872       5871  
      5740       5741       5752       5751       5861       5862       5873       5872  
      5741       5742       5753       5752       5862       5863       5874       5873  
      5743       5744       5755       5754       5864       5865       5876       5875  
      5744       5745       5756       5755       5865       5866       5877       5876  
      5745       5746       5757       5756       5866       5867       5878       5877  
      5746       5747       5758       5757       5867       5868       5879       5878  
      5747       5748       5759       5758       5868       5869       5880       5879  
      5748       5749       5760       5759       5869       5870       5881       5880  
      5749       5750       5761       5760       5870       5871       5882       5881  
      5750       5751       5762       5761       5871       5872       5883       5882  
      5751       5752       5763       5762       5872       5873       5884       5883  
      5752       5753       5764       5763       5873       5874       5885       5884  
      5754       5755       5766       5765       5875       5876       5887       5886  
      5755       5756       5767       5766       5876       5877       5888       5887  
      5756       5757       5768       5767       5877       5878       5889       5888  
      5757       5758       5769       5768       5878       5879       5890       5889  
      5758       5759       5770       5769       5879       5880       5891       5890  
      5759       5760       5771       5770       5880       5881       5892       5891  
      5760       5761       5772       5771       5881       5882       5893       5892  
      5761       5762       5773       5772       5882       5883       5894       5893  
      5762       5763       5774       5773       5883       5884       5895       5894  
      5763       5764       5775       5774       5884       5885       5896       5895  
      5765       5766       5777       5776       5886       5887       5898       5897  
      5766       5767       5778       5777       5887       5888       5899       5898  
      5767       5768       5779       5778       5888       5889       5900       5899  
      5768       5769       5780       5779       5889       5890       5901       5900  
      5769       5770       5781       5780       5890       5891       5902       5901  
      5770       5771       5782       5781       5891       5892       5903       5902  
      5771       5772       5783       5782       5892       5893       5904       5903  
      5772       5773       5784       5783       5893       5894       5905       5904  
      5773       5774       5785       5784       5894       5895       5906       5905  
      5774       5775       5786       5785       5895       5896       5907       5906  
      5776       5777       5788       5787       5897       5898       5909       5908  
      5777       5778       5789       5788       5898       5899       5910       5909  
      5778       5779       5790       5789       5899       5900       5911       5910  
      5779       5780       5791       5790       5900       5901       5912       5911  
      5780       5781       5792       5791       5901       5902       5913       5912  
      5781       5782       5793       5792       5902       5903       5914       5913  
      5782       5783       5794       5793       5903       5904       5915       5914  
      5783       5784       5795       5794       5904       5905       5916       5915  
      5784       5785       5796       5795       5905       5906       5917       5916  
      5785       5786       5797       5796       5906       5907       5918       5917  
      5787       5788       5799       5798       5908       5909       5920       5919  
      5788       5789       5800       5799       5909       5910       5921       5920  
      5789       5790       5801       5800       5910       5911       5922       5921  
      5790       5791       5802       5801       5911       5912       5923       5922  
      5791       5792       5803       5802       5912       5913       5924       5923  
      5792       5793       5804       5803       5913       5914       5925       5924  
      5793       5794       5805       5804       5914       5915       5926       5925  
      5794       5795       5806       5805       5915       5916       5927       5926  
      5795       5796       5807       5806       5916       5917       5928       5927  
      5796       5797       5808       5807       5917       5918       5929       5928  
      5809       5810       5821       5820       5930       5931       5942       5941  
      5810       5811       5822       5821       5931       5932       5943       5942  
      5811       5812       5823       5822       5932       5933       5944       5943  
      5812       5813       5824       5823       5933       5934       5945       5944  
      5813       5814       5825       5824       5934       5935       5946       5945  
      5814       5815       5826       5825       5935       5936       5947       5946  
      5815       5816       5827       5826       5936       5937       5948       5947  
      5816       5817       5828       5827       5937       5938       5949       5948  
      5817       5818       5829       5828       5938       5939       5950       5949  
      5818       5819       5830       5829       5939       5940       5951       5950  
      5820       5821       5832       5831       5941       5942       5953       5952  
      5821       5822       5833       5832       5942       5943       5954       5953  
      5822       5823       5834       5833       5943       5944       5955       5954  
      5823       5824       5835       5834       5944       5945       5956       5955  
      5824       5825       5836       5835       5945       5946       5957       5956  
      5825       5826       5837       5836       5946       5947       5958       5957  
      5826       5827       5838       5837       5947       5948       5959       5958  
      5827       5828       5839       5838       5948       5949       5960       5959  
      5828       5829       5840       5839       5949       5950       5961       5960  
      5829       5830       5841       5840       5950       5951       5962       5961  
      5831       5832       5843       5842       5952       5953       5964       5963  
      5832       5833       5844       5843       5953       5954       5965       5964  
      5833       5834       5845       5844       5954       5955       5966       5965  
      5834       5835       5846       5845       5955       5956       5967       5966  
      5835       5836       5847       5846       5956       5957       5968       5967  
      5836       5837       5848       5847       5957       5958       5969       5968  
      5837       5838       5849       5848       5958       5959       5970       5969  
      5838       5839       5850       5849       5959       5960       5971       5970  
      5839       5840       5851       5850       5960       5961       5972       5971  
      5840       5841       5852       5851       5961       5962       5973       5972  
      5842       5843       5854       5853       5963       5964       5975       5974  
      5843       5844       5855       5854       5964       5965       5976       5975  
      5844       5845       5856       5855       5965       5966       5977       5976  
      5845       5846       5857       5856       5966       5967       5978       5977  
      5846       5847       5858       5857       5967       5968       5979       5978  
      5847       5848       5859       5858       5968       5969       5980       5979  
      5848       5849       5860       5859       5969       5970       5981       5980  
      5849       5850       5861       5860       5970       5971       5982       5981  
      5850       5851       5862       5861       5971       5972       5983       5982  
      5851       5852       5863       5862       5972       5973       5984       5983  
      5853       5854       5865       5864       5974       5975       5986       5985  
      5854       5855       5866       5865       5975       5976       5987       5986  
      5855       5856       5867       5866       5976       5977       5988       5987  
      5856       5857       5868       5867       5977       5978       5989       5988  
      5857       5858       5869       5868       5978       5979       5990       5989  
      5858       5859       5870       5869       5979       5980       5991       5990  
      5859       5860       5871       5870       5980       5981       5992       5991  
      5860       5861       5872       5871       5981       5982       5993       5992  
      5861       5862       5873       5872       5982       5983       5994       5993  
      5862       5863       5874       5873       5983       5984       5995       5994  
      5864       5865       5876       5875       5985       5986       5997       5996  
      5865       5866       5877       5876       5986       5987       5998       5997  
      5866       5867       5878       5877       5987       5988       5999       5998  
      5867       5868       5879       5878       5988       5989       6000       5999  
      5868       5869       5880       5879       5989       5990       6001       6000  
      5869       5870       5881       5880       5990       5991       6002       6001  
      5870       5871       5882       5881       5991       5992       6003       6002  
      5871       5872       5883       5882       5992       5993       6004       6003  
      5872       5873       5884       5883       5993       5994       6005       6004  
      5873       5874       5885       5884       5994       5995       6006       6005  
      5875       5876       5887       5886       5996       5997       6008       6007  
      5876       5877       5888       5887       5997       5998       6009       6008  
      5877       5878       5889       5888       5998       5999       6010       6009  
      5878       5879       5890       5889       5999       6000       6011       6010  
      5879       5880       5891       5890       6000       6001       6012       6011  
      5880       5881       5892       5891       6001       6002       6013       6012  
      5881       5882       5893       5892       6002       6003       6014       6013  
      5882       5883       5894       5893       6003       6004       6015       6014  
      5883       5884       5895       5894       6004       6005       6016       6015  
      5884       5885       5896       5895       6005       6006       6017       6016  
      5886       5887       5898       5897       6007       6008       6019       6018  
      5887       5888       5899       5898       6008       6009       6020       6019  
      5888       5889       5900       5899       6009       6010       6021       6020  
      5889       5890       5901       5900       6010       6011       6022       6021  
      5890       5891       5902       5901       6011       6012       6023       6022  
      5891       5892       5903       5902       6012       6013       6024       6023  
      5892       5893       5904       5903       6013       6014       6025       6024  
      5893       5894       5905       5904       6014       6015       6026       6025  
      5894       5895       5906       5905       6015       6016       6027       6026  
      5895       5896       5907       5906       6016       6017       6028       6027  
      5897       5898       5909       5908       6018       6019       6030       6029  
      5898       5899       5910       5909       6019       6020       6031       6030  
      5899       5900       5911       5910       6020       6021       6032       6031  
      5900       5901       5912       5911       6021       6022       6033       6032  
      5901       5902       5913       5912       6022       6023       6034       6033  
      5902       5903       5914       5913       6023       6024       6035       6034  
      5903       5904       5915       5914       6024       6025       6036       6035  
      5904       5905       5916       5915       6025       6026       6037       6036  
      5905       5906       5917       5916       6026       6027       6038       6037  
      5906       5907       5918       5917       6027       6028       6039       6038  
      5908       5909       5920       5919       6029       6030       6041       6040  
      5909       5910       5921       5920       6030       6031       6042       6041  
      5910       5911       5922       5921       6031       6032       6043       6042  
      5911       5912       5923       5922       6032       6033       6044       6043  
      5912       5913       5924       5923       6033       6034       6045       6044  
      5913       5914       5925       5924       6034       6035       6046       6045  
      5914       5915       5926       5925       6035       6036       6047       6046  
      5915       5916       5927       5926       6036       6037       6048       6047  
      5916       5917       5928       5927       6037       6038       6049       6048  
      5917       5918       5929       5928       6038       6039       6050       6049  
      5930       5931       5942       5941       6051       6052       6063       6062  
      5931       5932       5943       5942       6052       6053       6064       6063  
      5932       5933       5944       5943       6053       6054       6065       6064  
      5933       5934       5945       5944       6054       6055       6066       6065  
      5934       5935       5946       5945       6055       6056       6067       6066  
      5935       5936       5947       5946       6056       6057       6068       6067  
      5936       5937       5948       5947       6057       6058       6069       6068  
      5937       5938       5949       5948       6058       6059       6070       6069  
      5938       5939       5950       5949       6059       6060       6071       6070  
      5939       5940       5951       5950       6060       6061       6072       6071  
      5941       5942       5953       5952       6062       6063       6074       6073  
      5942       5943       5954       5953       6063       6064       6075       6074  
      5943       5944       5955       5954       6064       6065       6076       6075  
      5944       5945       5956       5955       6065       6066       6077       6076  
      5945       5946       5957       5956       6066       6067       6078       6077  
      5946       5947       5958       5957       6067       6068       6079       6078  
      5947       5948       5959       5958       6068       6069       6080       6079  
      5948       5949       5960       5959       6069       6070       6081       6080  
      5949       5950       5961       5960       6070       6071       6082       6081  
      5950       5951       5962       5961       6071       6072       6083       6082  
      5952       5953       5964       5963       6073       6074       6085       6084  
      5953       5954       5965       5964       6074       6075       6086       6085  
      5954       5955       5966       5965       6075       6076       6087       6086  
      5955       5956       5967       5966       6076       6077       6088       6087  
      5956       5957       5968       5967       6077       6078       6089       6088  
      5957       5958       5969       5968       6078       6079       6090       6089  
      5958       5959       5970       5969       6079       6080       6091       6090  
      5959       5960       5971       5970       6080       6081       6092       6091  
      5960       5961       5972       5971       6081       6082       6093       6092  
      5961       5962       5973       5972       6082       6083       6094       6093  
      5963       5964       5975       5974       6084       6085       6096       6095  
      5964       5965       5976       5975       6085       6086       6097       6096  
      5965       5966       5977       5976       6086       6087       6098       6097  
      5966       5967       5978       5977       6087       6088       6099       6098  
      5967       5968       5979       5978       6088       6089       6100       6099  
      5968       5969       5980       5979       6089       6090       6101       6100  
      5969       5970       5981       5980       6090       6091       6102       6101  
      5970       5971       5982       5981       6091       6092       6103       6102  
      5971       5972       5983       5982       6092       6093       6104       6103  
      5972       5973       5984       5983       6093       6094       6105       6104  
      5974       5975       5986       5985       6095       6096       6107       6106  
      5975       5976       5987       5986       6096       6097       6108       6107  
      5976       5977       5988       5987       6097       6098       6109       6108  
      5977       5978       5989       5988       6098       6099       6110       6109  
      5978       5979       5990       5989       6099       6100       6111       6110  
      5979       5980       5991       5990       6100       6101       6112       6111  
      5980       5981       5992       5991       6101       6102       6113       6112  
      5981       5982       5993       5992       6102       6103       6114       6113  
      5982       5983       5994       5993       6103       6104       6115       6114  
      5983       5984       5995       5994       6104       6105       6116       6115  
      5985       5986       5997       5996       6106       6107       6118       6117  
      5986       5987       5998       5997       6107       6108       6119       6118  
      5987       5988       5999       5998       6108       6109       6120       6119  
      5988       5989       6000       5999       6109       6110       6121       6120  
      5989       5990       6001       6000       6110       6111       6122       6121  
      5990       5991       6002       6001       6111       6112       6123       6122  
      5991       5992       6003       6002       6112       6113       6124       6123  
      5992       5993       6004       6003       6113       6114       6125       6124  
      5993       5994       6005       6004       6114       6115       6126       6125  
      5994       5995       6006       6005       6115       6116       6127       6126  
      5996       5997       6008       6007       6117       6118       6129       6128  
      5997       5998       6009       6008       6118       6119       6130       6129  
      5998       5999       6010       6009       6119       6120       6131       6130  
      5999       6000       6011       6010       6120       6121       6132       6131  
      6000       6001       6012       6011       6121       6122       6133       6132  
      6001       6002       6013       6012       6122       6123       6134       6133  
      6002       6003       6014       6013       6123       6124       6135       6134  
      6003       6004       6015       6014       6124       6125       6136       6135  
      6004       6005       6016       6015       6125       6126       6137       6136  
      6005       6006       6017       6016       6126       6127       6138       6137  
      6007       6008       6019       6018       6128       6129       6140       6139  
      6008       6009       6020       6019       6129       6130       6141       6140  
      6009       6010       6021       6020       6130       6131       6142       6141  
      6010       6011       6022       6021       6131       6132       6143       6142  
      6011       6012       6023       6022       6132       6133       6144       6143  
      6012       6013       6024       6023       6133       6134       6145       6144  
      6013       6014       6025       6024       6134       6135       6146       6145  
      6014       6015       6026       6025       6135       6136       6147       6146  
      6015       6016       6027       6026       6136       6137       6148       6147  
      6016       6017       6028       6027       6137       6138       6149       6148  
      6018       6019       6030       6029       6139       6140       6151       6150  
      6019       6020       6031       6030       6140       6141       6152       6151  
      6020       6021       6032       6031       6141       6142       6153       6152  
      6021       6022       6033       6032       6142       6143       6154       6153  
      6022       6023       6034       6033       6143       6144       6155       6154  
      6023       6024       6035       6034       6144       6145       6156       6155  
      6024       6025       6036       6035       6145       6146       6157       6156  
      6025       6026       6037       6036       6146       6147       6158       6157  
      6026       6027       6038       6037       6147       6148       6159       6158  
      6027       6028       6039       6038       6148       6149       6160       6159  
      6029       6030       6041       6040       6150       6151       6162       6161  
      6030       6031       6042       6041       6151       6152       6163       6162  
      6031       6032       6043       6042       6152       6153       6164       6163  
      6032       6033       6044       6043       6153       6154       6165       6164  
      6033       6034       6045       6044       6154       6155       6166       6165  
      6034       6035       6046       6045       6155       6156       6167       6166  
      6035       6036       6047       6046       6156       6157       6168       6167  
      6036       6037       6048       6047       6157       6158       6169       6168  
      6037       6038       6049       6048       6158       6159       6170       6169  
      6038       6039       6050       6049       6159       6160       6171       6170  
      6051       6052       6063       6062       6172       6173       6184       6183  
      6052       6053       6064       6063       6173       6174       6185       6184  
      6053       6054       6065       6064       6174       6175       6186       6185  
      6054       6055       6066       6065       6175       6176       6187       6186  
      6055       6056       6067       6066       6176       6177       6188       6187  
      6056       6057       6068       6067       6177       6178       6189       6188  
      6057       6058       6069       6068       6178       6179       6190       6189  
      6058       6059       6070       6069       6179       6180       6191       6190  
      6059       6060       6071       6070       6180       6181       6192       6191  
      6060       6061       6072       6071       6181       6182       6193       6192  
      6062       6063       6074       6073       6183       6184       6195       6194  
      6063       6064       6075       6074       6184       6185       6196       6195  
      6064       6065       6076       6075       6185       6186       6197       6196  
      6065       6066       6077       6076       6186       6187       6198       6197  
      6066       6067       6078       6077       6187       6188       6199       6198  
      6067       6068       6079       6078       6188       6189       6200       6199  
      6068       6069       6080       6079       6189       6190       6201       6200  
      6069       6070       6081       6080       6190       6191       6202       6201  
      6070       6071       6082       6081       6191       6192       6203       6202  
      6071       6072       6083       6082       6192       6193       6204       6203  
      6073       6074       6085       6084       6194       6195       6206       6205  
      6074       6075       6086       6085       6195       6196       6207       6206  
      6075       6076       6087       6086       6196       6197       6208       6207  
      6076       6077       6088       6087       6197       6198       6209       6208  
      6077       6078       6089       6088       6198       6199       6210       6209  
      6078       6079       6090       6089       6199       6200       6211       6210  
      6079       6080       6091       6090       6200       6201       6212       6211  
      6080       6081       6092       6091       6201       6202       6213       6212  
      6081       6082       6093       6092       6202       6203       6214       6213  
      6082       6083       6094       6093       6203       6204       6215       6214  
      6084       6085       6096       6095       6205       6206       6217       6216  
      6085       6086       6097       6096       6206       6207       6218       6217  
      6086       6087       6098       6097       6207       6208       6219       6218  
      6087       6088       6099       6098       6208       6209       6220       6219  
      6088       6089       6100       6099       6209       6210       6221       6220  
      6089       6090       6101       6100       6210       6211       6222       6221  
      6090       6091       6102       6101       6211       6212       6223       6222  
      6091       6092       6103       6102       6212       6213       6224       6223  
      6092       6093       6104       6103       6213       6214       6225       6224  
      6093       6094       6105       6104       6214       6215       6226       6225  
      6095       6096       6107       6106       6216       6217       6228       6227  
      6096       6097       6108       6107       6217       6218       6229       6228  
      6097       6098       6109       6108       6218       6219       6230       6229  
      6098       6099       6110       6109       6219       6220       6231       6230  
      6099       6100       6111       6110       6220       6221       6232       6231  
      6100       6101       6112       6111       6221       6222       6233       6232  
      6101       6102       6113       6112       6222       6223       6234       6233  
      6102       6103       6114       6113       6223       6224       6235       6234  
      6103       6104       6115       6114       6224       6225       6236       6235  
      6104       6105       6116       6115       6225       6226       6237       6236  
      6106       6107       6118       6117       6227       6228       6239       6238  
      6107       6108       6119       6118       6228       6229       6240       6239  
      6108       6109       6120       6119       6229       6230       6241       6240  
      6109       6110       6121       6120       6230       6231       6242       6241  
      6110       6111       6122       6121       6231       6232       6243       6242  
      6111       6112       6123       6122       6232       6233       6244       6243  
      6112       6113       6124       6123       6233       6234       6245       6244  
      6113       6114       6125       6124       6234       6235       6246       6245  
      6114       6115       6126       6125       6235       6236       6247       6246  
      6115       6116       6127       6126       6236       6237       6248       6247  
      6117       6118       6129       6128       6238       6239       6250       6249  
      6118       6119       6130       6129       6239       6240       6251       6250  
      6119       6120       6131       6130       6240       6241       6252       6251  
      6120       6121       6132       6131       6241       6242       6253       6252  
      6121       6122       6133       6132       6242       6243       6254       6253  
      6122       6123       6134       6133       6243       6244       6255       6254  
      6123       6124       6135       6134       6244       6245       6256       6255  
      6124       6125       6136       6135       6245       6246       6257       6256  
      6125       6126       6137       6136       6246       6247       6258       6257  
      6126       6127       6138       6137       6247       6248       6259       6258  
      6128       6129       6140       6139       6249       6250       6261       6260  
      6129       6130       6141       6140       6250       6251       6262       6261  
      6130       6131       6142       6141       6251       6252       6263       6262  
      6131       6132       6143       6142       6252       6253       6264       6263  
      6132       6133       6144       6143       6253       6254       6265       6264  
      6133       6134       6145       6144       6254       6255       6266       6265  
      6134       6135       6146       6145       6255       6256       6267       6266  
      6135       6136       6147       6146       6256       6257       6268       6267  
      6136       6137       6148       6147       6257       6258       6269       6268  
      6137       6138       6149       6148       6258       6259       6270       6269  
      6139       6140       6151       6150       6260       6261       6272       6271  
      6140       6141       6152       6151       6261       6262       6273       6272  
      6141       6142       6153       6152       6262       6263       6274       6273  
      6142       6143       6154       6153       6263       6264       6275       6274  
      6143       6144       6155       6154       6264       6265       6276       6275  
      6144       6145       6156       6155       6265       6266       6277       6276  
      6145       6146       6157       6156       6266       6267       6278       6277  
      6146       6147       6158       6157       6267       6268       6279       6278  
      6147       6148       6159       6158       6268       6269       6280       6279  
      6148       6149       6160       6159       6269       6270       6281       6280  
      6150       6151       6162       6161       6271       6272       6283       6282  
      6151       6152       6163       6162       6272       6273       6284       6283  
      6152       6153       6164       6163       6273       6274       6285       6284  
      6153       6154       6165       6164       6274       6275       6286       6285  
      6154       6155       6166       6165       6275       6276       6287       6286  
      6155       6156       6167       6166       6276       6277       6288       6287  
      6156       6157       6168       6167       6277       6278       6289       6288  
      6157       6158       6169       6168       6278       6279       6290       6289  
      6158       6159       6170       6169       6279       6280       6291       6290  
      6159       6160       6171       6170       6280       6281       6292       6291  
      6172       6173       6184       6183       6293       6294       6305       6304  
      6173       6174       6185       6184       6294       6295       6306       6305  
      6174       6175       6186       6185       6295       6296       6307       6306  
      6175       6176       6187       6186       6296       6297       6308       6307  
      6176       6177       6188       6187       6297       6298       6309       6308  
      6177       6178       6189       6188       6298       6299       6310       6309  
      6178       6179       6190       6189       6299       6300       6311       6310  
      6179       6180       6191       6190       6300       6301       6312       6311  
      6180       6181       6192       6191       6301       6302       6313       6312  
      6181       6182       6193       6192       6302       6303       6314       6313  
      6183       6184       6195       6194       6304       6305       6316       6315  
      6184       6185       6196       6195       6305       6306       6317       6316  
      6185       6186       6197       6196       6306       6307       6318       6317  
      6186       6187       6198       6197       6307       6308       6319       6318  
      6187       6188       6199       6198       6308       6309       6320       6319  
      6188       6189       6200       6199       6309       6310       6321       6320  
      6189       6190       6201       6200       6310       6311       6322       6321  
      6190       6191       6202       6201       6311       6312       6323       6322  
      6191       6192       6203       6202       6312       6313       6324       6323  
      6192       6193       6204       6203       6313       6314       6325       6324  
      6194       6195       6206       6205       6315       6316       6327       6326  
      6195       6196       6207       6206       6316       6317       6328       6327  
      6196       6197       6208       6207       6317       6318       6329       6328  
      6197       6198       6209       6208       6318       6319       6330       6329  
      6198       6199       6210       6209       6319       6320       6331       6330  
      6199       6200       6211       6210       6320       6321       6332       6331  
      6200       6201       6212       6211       6321       6322       6333       6332  
      6201       6202       6213       6212       6322       6323       6334       6333  
      6202       6203       6214       6213       6323       6324       6335       6334  
      6203       6204       6215       6214       6324       6325       6336       6335  
      6205       6206       6217       6216       6326       6327       6338       6337  
      6206       6207       6218       6217       6327       6328       6339       6338  
      6207       6208       6219       6218       6328       6329       6340       6339  
      6208       6209       6220       6219       6329       6330       6341       6340  
      6209       6210       6221       6220       6330       6331       6342       6341  
      6210       6211       6222       6221       6331       6332       6343       6342  
      6211       6212       6223       6222       6332       6333       6344       6343  
      6212       6213       6224       6223       6333       6334       6345       6344  
      6213       6214       6225       6224       6334       6335       6346       6345  
      6214       6215       6226       6225       6335       6336       6347       6346  
      6216       6217       6228       6227       6337       6338       6349       6348  
      6217       6218       6229       6228       6338       6339       6350       6349  
      6218       6219       6230       6229       6339       6340       6351       6350  
      6219       6220       6231       6230       6340       6341       6352       6351  
      6220       6221       6232       6231       6341       6342       6353       6352  
      6221       6222       6233       6232       6342       6343       6354       6353  
      6222       6223       6234       6233       6343       6344       6355       6354  
      6223       6224       6235       6234       6344       6345       6356       6355  
      6224       6225       6236       6235       6345       6346       6357       6356  
      6225       6226       6237       6236       6346       6347       6358       6357  
      6227       6228       6239       6238       6348       6349       6360       6359  
      6228       6229       6240       6239       6349       6350       6361       6360  
      6229       6230       6241       6240       6350       6351       6362       6361  
      6230       6231       6242       6241       6351       6352       6363       6362  
      6231       6232       6243       6242       6352       6353       6364       6363  
      6232       6233       6244       6243       6353       6354       6365       6364  
      6233       6234       6245       6244       6354       6355       6366       6365  
      6234       6235       6246       6245       6355       6356       6367       6366  
      6235       6236       6247       6246       6356       6357       6368       6367  
      6236       6237       6248       6247       6357       6358       6369       6368  
      6238       6239       6250       6249       6359       6360       6371       6370  
      6239       6240       6251       6250       6360       6361       6372       6371  
      6240       6241       6252       6251       6361       6362       6373       6372  
      6241       6242       6253       6252       6362       6363       6374       6373  
      6242       6243       6254       6253       6363       6364       6375       6374  
      6243       6244       6255       6254       6364       6365       6376       6375  
      6244       6245       6256       6255       6365       6366       6377       6376  
      6245       6246       6257       6256       6366       6367       6378       6377  
      6246       6247       6258       6257       6367       6368       6379       6378  
      6247       6248       6259       6258       6368       6369       6380       6379  
      6249       6250       6261       6260       6370       6371       6382       6381  
      6250       6251       6262       6261       6371       6372       6383       6382  
      6251       6252       6263       6262       6372       6373       6384       6383  
      6252       6253       6264       6263       6373       6374       6385       6384  
      6253       6254       6265       6264       6374       6375       6386       6385  
      6254       6255       6266       6265       6375       6376       6387       6386  
      6255       6256       6267       6266       6376       6377       6388       6387  
      6256       6257       6268       6267       6377       6378       6389       6388  
      6257       6258       6269       6268       6378       6379       6390       6389  
      6258       6259       6270       6269       6379       6380       6391       6390  
      6260       6261       6272       6271       6381       6382       6393       6392  
      6261       6262       6273       6272       6382       6383       6394       6393  
      6262       6263       6274       6273       6383       6384       6395       6394  
      6263       6264       6275       6274       6384       6385       6396       6395  
      6264       6265       6276       6275       6385       6386       6397       6396  
      6265       6266       6277       6276       6386       6387       6398       6397  
      6266       6267       6278       6277       6387       6388       6399       6398  
      6267       6268       6279       6278       6388       6389       6400       6399  
      6268       6269       6280       6279       6389       6390       6401       6400  
      6269       6270       6281       6280       6390       6391       6402       6401  
      6271       6272       6283       6282       6392       6393       6404       6403  
      6272       6273       6284       6283       6393       6394       6405       6404  
      6273       6274       6285       6284       6394       6395       6406       6405  
      6274       6275       6286       6285       6395       6396       6407       6406  
      6275       6276       6287       6286       6396       6397       6408       6407  
      6276       6277       6288       6287       6397       6398       6409       6408  
      6277       6278       6289       6288       6398       6399       6410       6409  
      6278       6279       6290       6289       6399       6400       6411       6410  
      6279       6280       6291       6290       6400       6401       6412       6411  
      6280       6281       6292       6291       6401       6402       6413       6412  
      6293       6294       6305       6304       6414       6415       6426       6425  
      6294       6295       6306       6305       6415       6416       6427       6426  
      6295       6296       6307       6306       6416       6417       6428       6427  
      6296       6297       6308       6307       6417       6418       6429       6428  
      6297       6298       6309       6308       6418       6419       6430       6429  
      6298       6299       6310       6309       6419       6420       6431       6430  
      6299       6300       6311       6310       6420       6421       6432       6431  
      6300       6301       6312       6311       6421       6422       6433       6432  
      6301       6302       6313       6312       6422       6423       6434       6433  
      6302       6303       6314       6313       6423       6424       6435       6434  
      6304       6305       6316       6315       6425       6426       6437       6436  
      6305       6306       6317       6316       6426       6427       6438       6437  
      6306       6307       6318       6317       6427       6428       6439       6438  
      6307       6308       6319       6318       6428       6429       6440       6439  
      6308       6309       6320       6319       6429       6430       6441       6440  
      6309       6310       6321       6320       6430       6431       6442       6441  
      6310       6311       6322       6321       6431       6432       6443       6442  
      6311       6312       6323       6322       6432       6433       6444       6443  
      6312       6313       6324       6323       6433       6434       6445       6444  
      6313       6314       6325       6324       6434       6435       6446       6445  
      6315       6316       6327       6326       6436       6437       6448       6447  
      6316       6317       6328       6327       6437       6438       6449       6448  
      6317       6318       6329       6328       6438       6439       6450       6449  
      6318       6319       6330       6329       6439       6440       6451       6450  
      6319       6320       6331       6330       6440       6441       6452       6451  
      6320       6321       6332       6331       6441       6442       6453       6452  
      6321       6322       6333       6332       6442       6443       6454       6453  
      6322       6323       6334       6333       6443       6444       6455       6454  
      6323       6324       6335       6334       6444       6445       6456       6455  
      6324       6325       6336       6335       6445       6446       6457       6456  
      6326       6327       6338       6337       6447       6448       6459       6458  
      6327       6328       6339       6338       6448       6449       6460       6459  
      6328       6329       6340       6339       6449       6450       6461       6460  
      6329       6330       6341       6340       6450       6451       6462       6461  
      6330       6331       6342       6341       6451       6452       6463       6462  
      6331       6332       6343       6342       6452       6453       6464       6463  
      6332       6333       6344       6343       6453       6454       6465       6464  
      6333       6334       6345       6344       6454       6455       6466       6465  
      6334       6335       6346       6345       6455       6456       6467       6466  
      6335       6336       6347       6346       6456       6457       6468       6467  
      6337       6338       6349       6348       6458       6459       6470       6469  
      6338       6339       6350       6349       6459       6460       6471       6470  
      6339       6340       6351       6350       6460       6461       6472       6471  
      6340       6341       6352       6351       6461       6462       6473       6472  
      6341       6342       6353       6352       6462       6463       6474       6473  
      6342       6343       6354       6353       6463       6464       6475       6474  
      6343       6344       6355       6354       6464       6465       6476       6475  
      6344       6345       6356       6355       6465       6466       6477       6476  
      6345       6346       6357       6356       6466       6467       6478       6477  
      6346       6347       6358       6357       6467       6468       6479       6478  
      6348       6349       6360       6359       6469       6470       6481       6480  
      6349       6350       6361       6360       6470       6471       6482       6481  
      6350       6351       6362       6361       6471       6472       6483       6482  
      6351       6352       6363       6362       6472       6473       6484       6483  
      6352       6353       6364       6363       6473       6474       6485       6484  
      6353       6354       6365       6364       6474       6475       6486       6485  
      6354       6355       6366       6365       6475       6476       6487       6486  
      6355       6356       6367       6366       6476       6477       6488       6487  
      6356       6357       6368       6367       6477       6478       6489       6488  
      6357       6358       6369       6368       6478       6479       6490       6489  
      6359       6360       6371       6370       6480       6481       6492       6491  
      6360       6361       6372       6371       6481       6482       6493       6492  
      6361       6362       6373       6372       6482       6483       6494       6493  
      6362       6363       6374       6373       6483       6484       6495       6494  
      6363       6364       6375       6374       6484       6485       6496       6495  
      6364       6365       6376       6375       6485       6486       6497       6496  
      6365       6366       6377       6376       6486       6487       6498       6497  
      6366       6367       6378       6377       6487       6488       6499       6498  
      6367       6368       6379       6378       6488       6489       6500       6499  
      6368       6369       6380       6379       6489       6490       6501       6500  
      6370       6371       6382       6381       6491       6492       6503       6502  
      6371       6372       6383       6382       6492       6493       6504       6503  
      6372       6373       6384       6383       6493       6494       6505       6504  
      6373       6374       6385       6384       6494       6495       6506       6505  
      6374       6375       6386       6385       6495       6496       6507       6506  
      6375       6376       6387       6386       6496       6497       6508       6507  
      6376       6377       6388       6387       6497       6498       6509       6508  
      6377       6378       6389       6388       6498       6499       6510       6509  
      6378       6379       6390       6389       6499       6500       6511       6510  
      6379       6380       6391       6390       6500       6501       6512       6511  
      6381       6382       6393       6392       6502       6503       6514       6513  
      6382       6383       6394       6393       6503       6504       6515       6514  
      6383       6384       6395       6394       6504       6505       6516       6515  
      6384       6385       6396       6395       6505       6506       6517       6516  
      6385       6386       6397       6396       6506       6507       6518       6517  
      6386       6387       6398       6397       6507       6508       6519       6518  
      6387       6388       6399       6398       6508       6509       6520       6519  
      6388       6389       6400       6399       6509       6510       6521       6520  
      6389       6390       6401       6400       6510       6511       6522       6521  
      6390       6391       6402       6401       6511       6512       6523       6522  
      6392       6393       6404       6403       6513       6514       6525       6524  
      6393       6394       6405       6404       6514       6515       6526       6525  
      6394       6395       6406       6405       6515       6516       6527       6526  
      6395       6396       6407       6406       6516       6517       6528       6527  
      6396       6397       6408       6407       6517       6518       6529       6528  
      6397       6398       6409       6408       6518       6519       6530       6529  
      6398       6399       6410       6409       6519       6520       6531       6530  
      6399       6400       6411       6410       6520       6521       6532       6531  
      6400       6401       6412       6411       6521       6522       6533       6532  
      6401       6402       6413       6412       6522       6523       6534       6533  
      6414       6415       6426       6425       6535       6536       6547       6546  
      6415       6416       6427       6426       6536       6537       6548       6547  
      6416       6417       6428       6427       6537       6538       6549       6548  
      6417       6418       6429       6428       6538       6539       6550       6549  
      6418       6419       6430       6429       6539       6540       6551       6550  
      6419       6420       6431       6430       6540       6541       6552       6551  
      6420       6421       6432       6431       6541       6542       6553       6552  
      6421       6422       6433       6432       6542       6543       6554       6553  
      6422       6423       6434       6433       6543       6544       6555       6554  
      6423       6424       6435       6434       6544       6545       6556       6555  
      6425       6426       6437       6436       6546       6547       6558       6557  
      6426       6427       6438       6437       6547       6548       6559       6558  
      6427       6428       6439       6438       6548       6549       6560       6559  
      6428       6429       6440       6439       6549       6550       6561       6560  
      6429       6430       6441       6440       6550       6551       6562       6561  
      6430       6431       6442       6441       6551       6552       6563       6562  
      6431       6432       6443       6442       6552       6553       6564       6563  
      6432       6433       6444       6443       6553       6554       6565       6564  
      6433       6434       6445       6444       6554       6555       6566       6565  
      6434       6435       6446       6445       6555       6556       6567       6566  
      6436       6437       6448       6447       6557       6558       6569       6568  
      6437       6438       6449       6448       6558       6559       6570       6569  
      6438       6439       6450       6449       6559       6560       6571       6570  
      6439       6440       6451       6450       6560       6561       6572       6571  
      6440       6441       6452       6451       6561       6562       6573       6572  
      6441       6442       6453       6452       6562       6563       6574       6573  
      6442       6443       6454       6453       6563       6564       6575       6574  
      6443       6444       6455       6454       6564       6565       6576       6575  
      6444       6445       6456       6455       6565       6566       6577       6576  
      6445       6446       6457       6456       6566       6567       6578       6577  
      6447       6448       6459       6458       6568       6569       6580       6579  
      6448       6449       6460       6459       6569       6570       6581       6580  
      6449       6450       6461       6460       6570       6571       6582       6581  
      6450       6451       6462       6461       6571       6572       6583       6582  
      6451       6452       6463       6462       6572       6573       6584       6583  
      6452       6453       6464       6463       6573       6574       6585       6584  
      6453       6454       6465       6464       6574       6575       6586       6585  
      6454       6455       6466       6465       6575       6576       6587       6586  
      6455       6456       6467       6466       6576       6577       6588       6587  
      6456       6457       6468       6467       6577       6578       6589       6588  
      6458       6459       6470       6469       6579       6580       6591       6590  
      6459       6460       6471       6470       6580       6581       6592       6591  
      6460       6461       6472       6471       6581       6582       6593       6592  
      6461       6462       6473       6472       6582       6583       6594       6593  
      6462       6463       6474       6473       6583       6584       6595       6594  
      6463       6464       6475       6474       6584       6585       6596       6595  
      6464       6465       6476       6475       6585       6586       6597       6596  
      6465       6466       6477       6476       6586       6587       6598       6597  
      6466       6467       6478       6477       6587       6588       6599       6598  
      6467       6468       6479       6478       6588       6589       6600       6599  
      6469       6470       6481       6480       6590       6591       6602       6601  
      6470       6471       6482       6481       6591       6592       6603       6602  
      6471       6472       6483       6482       6592       6593       6604       6603  
      6472       6473       6484       6483       6593       6594       6605       6604  
      6473       6474       6485       6484       6594       6595       6606       6605  
      6474       6475       6486       6485       6595       6596       6607       6606  
      6475       6476       6487       6486       6596       6597       6608       6607  
      6476       6477       6488       6487       6597       6598       6609       6608  
      6477       6478       6489       6488       6598       6599       6610       6609  
      6478       6479       6490       6489       6599       6600       6611       6610  
      6480       6481       6492       6491       6601       6602       6613       6612  
      6481       6482       6493       6492       6602       6603       6614       6613  
      6482       6483       6494       6493       6603       6604       6615       6614  
      6483       6484       6495       6494       6604       6605       6616       6615  
      6484       6485       6496       6495       6605       6606       6617       6616  
      6485       6486       6497       6496       6606       6607       6618       6617  
      6486       6487       6498       6497       6607       6608       6619       6618  
      6487       6488       6499       6498       6608       6609       6620       6619  
      6488       6489       6500       6499       6609       6610       6621       6620  
      6489       6490       6501       6500       6610       6611       6622       6621  
      6491       6492       6503       6502       6612       6613       6624       6623  
      6492       6493       6504       6503       6613       6614       6625       6624  
      6493       6494       6505       6504       6614       6615       6626       6625  
      6494       6495       6506       6505       6615       6616       6627       6626  
      6495       6496       6507       6506       6616       6617       6628       6627  
      6496       6497       6508       6507       6617       6618       6629       6628  
      6497       6498       6509       6508       6618       6619       6630       6629  
      6498       6499       6510       6509       6619       6620       6631       6630  
      6499       6500       6511       6510       6620       6621       6632       6631  
      6500       6501       6512       6511       6621       6622       6633       6632  
      6502       6503       6514       6513       6623       6624       6635       6634  
      6503       6504       6515       6514       6624       6625       6636       6635  
      6504       6505       6516       6515       6625       6626       6637       6636  
      6505       6506       6517       6516       6626       6627       6638       6637  
      6506       6507       6518       6517       6627       6628       6639       6638  
      6507       6508       6519       6518       6628       6629       6640       6639  
      6508       6509       6520       6519       6629       6630       6641       6640  
      6509       6510       6521       6520       6630       6631       6642       6641  
      6510       6511       6522       6521       6631       6632       6643       6642  
      6511       6512       6523       6522       6632       6633       6644       6643  
      6513       6514       6525       6524       6634       6635       6646       6645  
      6514       6515       6526       6525       6635       6636       6647       6646  
      6515       6516       6527       6526       6636       6637       6648       6647  
      6516       6517       6528       6527       6637       6638       6649       6648  
      6517       6518       6529       6528       6638       6639       6650       6649  
      6518       6519       6530       6529       6639       6640       6651       6650  
      6519       6520       6531       6530       6640       6641       6652       6651  
      6520       6521       6532       6531       6641       6642       6653       6652  
      6521       6522       6533       6532       6642       6643       6654       6653  
      6522       6523       6534       6533       6643       6644       6655       6654  
      6535       6536       6547       6546       6656       6657       6668       6667  
      6536       6537       6548       6547       6657       6658       6669       6668  
      6537       6538       6549       6548       6658       6659       6670       6669  
      6538       6539       6550       6549       6659       6660       6671       6670  
      6539       6540       6551       6550       6660       6661       6672       6671  
      6540       6541       6552       6551       6661       6662       6673       6672  
      6541       6542       6553       6552       6662       6663       6674       6673  
      6542       6543       6554       6553       6663       6664       6675       6674  
      6543       6544       6555       6554       6664       6665       6676       6675  
      6544       6545       6556       6555       6665       6666       6677       6676  
      6546       6547       6558       6557       6667       6668       6679       6678  
      6547       6548       6559       6558       6668       6669       6680       6679  
      6548       6549       6560       6559       6669       6670       6681       6680  
      6549       6550       6561       6560       6670       6671       6682       6681  
      6550       6551       6562       6561       6671       6672       6683       6682  
      6551       6552       6563       6562       6672       6673       6684       6683  
      6552       6553       6564       6563       6673       6674       6685       6684  
      6553       6554       6565       6564       6674       6675       6686       6685  
      6554       6555       6566       6565       6675       6676       6687       6686  
      6555       6556       6567       6566       6676       6677       6688       6687  
      6557       6558       6569       6568       6678       6679       6690       6689  
      6558       6559       6570       6569       6679       6680       6691       6690  
      6559       6560       6571       6570       6680       6681       6692       6691  
      6560       6561       6572       6571       6681       6682       6693       6692  
      6561       6562       6573       6572       6682       6683       6694       6693  
      6562       6563       6574       6573       6683       6684       6695       6694  
      6563       6564       6575       6574       6684       6685       6696       6695  
      6564       6565       6576       6575       6685       6686       6697       6696  
      6565       6566       6577       6576       6686       6687       6698       6697  
      6566       6567       6578       6577       6687       6688       6699       6698  
      6568       6569       6580       6579       6689       6690       6701       6700  
      6569       6570       6581       6580       6690       6691       6702       6701  
      6570       6571       6582       6581       6691       6692       6703       6702  
      6571       6572       6583       6582       6692       6693       6704       6703  
      6572       6573       6584       6583       6693       6694       6705       6704  
      6573       6574       6585       6584       6694       6695       6706       6705  
      6574       6575       6586       6585       6695       6696       6707       6706  
      6575       6576       6587       6586       6696       6697       6708       6707  
      6576       6577       6588       6587       6697       6698       6709       6708  
      6577       6578       6589       6588       6698       6699       6710       6709  
      6579       6580       6591       6590       6700       6701       6712       6711  
      6580       6581       6592       6591       6701       6702       6713       6712  
      6581       6582       6593       6592       6702       6703       6714       6713  
      6582       6583       6594       6593       6703       6704       6715       6714  
      6583       6584       6595       6594       6704       6705       6716       6715  
      6584       6585       6596       6595       6705       6706       6717       6716  
      6585       6586       6597       6596       6706       6707       6718       6717  
      6586       6587       6598       6597       6707       6708       6719       6718  
      6587       6588       6599       6598       6708       6709       6720       6719  
      6588       6589       6600       6599       6709       6710       6721       6720  
      6590       6591       6602       6601       6711       6712       6723       6722  
      6591       6592       6603       6602       6712       6713       6724       6723  
      6592       6593       6604       6603       6713       6714       6725       6724  
      6593       6594       6605       6604       6714       6715       6726       6725  
      6594       6595       6606       6605       6715       6716       6727       6726  
      6595       6596       6607       6606       6716       6717       6728       6727  
      6596       6597       6608       6607       6717       6718       6729       6728  
      6597       6598       6609       6608       6718       6719       6730       6729  
      6598       6599       6610       6609       6719       6720       6731       6730  
      6599       6600       6611       6610       6720       6721       6732       6731  
      6601       6602       6613       6612       6722       6723       6734       6733  
      6602       6603       6614       6613       6723       6724       6735       6734  
      6603       6604       6615       6614       6724       6725       6736       6735  
      6604       6605       6616       6615       6725       6726       6737       6736  
      6605       6606       6617       6616       6726       6727       6738       6737  
      6606       6607       6618       6617       6727       6728       6739       6738  
      6607       6608       6619       6618       6728       6729       6740       6739  
      6608       6609       6620       6619       6729       6730       6741       6740  
      6609       6610       6621       6620       6730       6731       6742       6741  
      6610       6611       6622       6621       6731       6732       6743       6742  
      6612       6613       6624       6623       6733       6734       6745       6744  
      6613       6614       6625       6624       6734       6735       6746       6745  
      6614       6615       6626       6625       6735       6736       6747       6746  
      6615       6616       6627       6626       6736       6737       6748       6747  
      6616       6617       6628       6627       6737       6738       6749       6748  
      6617       6618       6629       6628       6738       6739       6750       6749  
      6618       6619       6630       6629       6739       6740       6751       6750  
      6619       6620       6631       6630       6740       6741       6752       6751  
      6620       6621       6632       6631       6741       6742       6753       6752  
      6621       6622       6633       6632       6742       6743       6754       6753  
      6623       6624       6635       6634       6744       6745       6756       6755  
      6624       6625       6636       6635       6745       6746       6757       6756  
      6625       6626       6637       6636       6746       6747       6758       6757  
      6626       6627       6638       6637       6747       6748       6759       6758  
      6627       6628       6639       6638       6748       6749       6760       6759  
      6628       6629       6640       6639       6749       6750       6761       6760  
      6629       6630       6641       6640       6750       6751       6762       6761  
      6630       6631       6642       6641       6751       6752       6763       6762  
      6631       6632       6643       6642       6752       6753       6764       6763  
      6632       6633       6644       6643       6753       6754       6765       6764  
      6634       6635       6646       6645       6755       6756       6767       6766  
      6635       6636       6647       6646       6756       6757       6768       6767  
      6636       6637       6648       6647       6757       6758       6769       6768  
      6637       6638       6649       6648       6758       6759       6770       6769  
      6638       6639       6650       6649       6759       6760       6771       6770  
      6639       6640       6651       6650       6760       6761       6772       6771  
      6640       6641       6652       6651       6761       6762       6773       6772  
      6641       6642       6653       6652       6762       6763       6774       6773  
      6642       6643       6654       6653       6763       6764       6775       6774  
      6643       6644       6655       6654       6764       6765       6776       6775  
      6656       6657       6668       6667       6777       6778       6789       6788  
      6657       6658       6669       6668       6778       6779       6790       6789  
      6658       6659       6670       6669       6779       6780       6791       6790  
      6659       6660       6671       6670       6780       6781       6792       6791  
      6660       6661       6672       6671       6781       6782       6793       6792  
      6661       6662       6673       6672       6782       6783       6794       6793  
      6662       6663       6674       6673       6783       6784       6795       6794  
      6663       6664       6675       6674       6784       6785       6796       6795  
      6664       6665       6676       6675       6785       6786       6797       6796  
      6665       6666       6677       6676       6786       6787       6798       6797  
      6667       6668       6679       6678       6788       6789       6800       6799  
      6668       6669       6680       6679       6789       6790       6801       6800  
      6669       6670       6681       6680       6790       6791       6802       6801  
      6670       6671       6682       6681       6791       6792       6803       6802  
      6671       6672       6683       6682       6792       6793       6804       6803  
      6672       6673       6684       6683       6793       6794       6805       6804  
      6673       6674       6685       6684       6794       6795       6806       6805  
      6674       6675       6686       6685       6795       6796       6807       6806  
      6675       6676       6687       6686       6796       6797       6808       6807  
      6676       6677       6688       6687       6797       6798       6809       6808  
      6678       6679       6690       6689       6799       6800       6811       6810  
      6679       6680       6691       6690       6800       6801       6812       6811  
      6680       6681       6692       6691       6801       6802       6813       6812  
      6681       6682       6693       6692       6802       6803       6814       6813  
      6682       6683       6694       6693       6803       6804       6815       6814  
      6683       6684       6695       6694       6804       6805       6816       6815  
      6684       6685       6696       6695       6805       6806       6817       6816  
      6685       6686       6697       6696       6806       6807       6818       6817  
      6686       6687       6698       6697       6807       6808       6819       6818  
      6687       6688       6699       6698       6808       6809       6820       6819  
      6689       6690       6701       6700       6810       6811       6822       6821  
      6690       6691       6702       6701       6811       6812       6823       6822  
      6691       6692       6703       6702       6812       6813       6824       6823  
      6692       6693       6704       6703       6813       6814       6825       6824  
      6693       6694       6705       6704       6814       6815       6826       6825  
      6694       6695       6706       6705       6815       6816       6827       6826  
      6695       6696       6707       6706       6816       6817       6828       6827  
      6696       6697       6708       6707       6817       6818       6829       6828  
      6697       6698       6709       6708       6818       6819       6830       6829  
      6698       6699       6710       6709       6819       6820       6831       6830  
      6700       6701       6712       6711       6821       6822       6833       6832  
      6701       6702       6713       6712       6822       6823       6834       6833  
      6702       6703       6714       6713       6823       6824       6835       6834  
      6703       6704       6715       6714       6824       6825       6836       6835  
      6704       6705       6716       6715       6825       6826       6837       6836  
      6705       6706       6717       6716       6826       6827       6838       6837  
      6706       6707       6718       6717       6827       6828       6839       6838  
      6707       6708       6719       6718       6828       6829       6840       6839  
      6708       6709       6720       6719       6829       6830       6841       6840  
      6709       6710       6721       6720       6830       6831       6842       6841  
      6711       6712       6723       6722       6832       6833       6844       6843  
      6712       6713       6724       6723       6833       6834       6845       6844  
      6713       6714       6725       6724       6834       6835       6846       6845  
      6714       6715       6726       6725       6835       6836       6847       6846  
      6715       6716       6727       6726       6836       6837       6848       6847  
      6716       6717       6728       6727       6837       6838       6849       6848  
      6717       6718       6729       6728       6838       6839       6850       6849  
      6718       6719       6730       6729       6839       6840       6851       6850  
      6719       6720       6731       6730       6840       6841       6852       6851  
      6720       6721       6732       6731       6841       6842       6853       6852  
      6722       6723       6734       6733       6843       6844       6855       6854  
      6723       6724       6735       6734       6844       6845       6856       6855  
      6724       6725       6736       6735       6845       6846       6857       6856  
      6725       6726       6737       6736       6846       6847       6858       6857  
      6726       6727       6738       6737       6847       6848       6859       6858  
      6727       6728       6739       6738       6848       6849       6860       6859  
      6728       6729       6740       6739       6849       6850       6861       6860  
      6729       6730       6741       6740       6850       6851       6862       6861  
      6730       6731       6742       6741       6851       6852       6863       6862  
      6731       6732       6743       6742       6852       6853       6864       6863  
      6733       6734       6745       6744       6854       6855       6866       6865  
      6734       6735       6746       6745       6855       6856       6867       6866  
      6735       6736       6747       6746       6856       6857       6868       6867  
      6736       6737       6748       6747       6857       6858       6869       6868  
      6737       6738       6749       6748       6858       6859       6870       6869  
      6738       6739       6750       6749       6859       6860       6871       6870  
      6739       6740       6751       6750       6860       6861       6872       6871  
      6740       6741       6752       6751       6861       6862       6873       6872  
      6741       6742       6753       6752       6862       6863       6874       6873  
      6742       6743       6754       6753       6863       6864       6875       6874  
      6744       6745       6756       6755       6865       6866       6877       6876  
      6745       6746       6757       6756       6866       6867       6878       6877  
      6746       6747       6758       6757       6867       6868       6879       6878  
      6747       6748       6759       6758       6868       6869       6880       6879  
      6748       6749       6760       6759       6869       6870       6881       6880  
      6749       6750       6761       6760       6870       6871       6882       6881  
      6750       6751       6762       6761       6871       6872       6883       6882  
      6751       6752       6763       6762       6872       6873       6884       6883  
      6752       6753       6764       6763       6873       6874       6885       6884  
      6753       6754       6765       6764       6874       6875       6886       6885  
      6755       6756       6767       6766       6876       6877       6888       6887  
      6756       6757       6768       6767       6877       6878       6889       6888  
      6757       6758       6769       6768       6878       6879       6890       6889  
      6758       6759       6770       6769       6879       6880       6891       6890  
      6759       6760       6771       6770       6880       6881       6892       6891  
      6760       6761       6772       6771       6881       6882       6893       6892  
      6761       6762       6773       6772       6882       6883       6894       6893  
      6762       6763       6774       6773       6883       6884       6895       6894  
      6763       6764       6775       6774       6884       6885       6896       6895  
      6764       6765       6776       6775       6885       6886       6897       6896  
      6777       6778       6789       6788       6898       6899       6910       6909  
      6778       6779       6790       6789       6899       6900       6911       6910  
      6779       6780       6791       6790       6900       6901       6912       6911  
      6780       6781       6792       6791       6901       6902       6913       6912  
      6781       6782       6793       6792       6902       6903       6914       6913  
      6782       6783       6794       6793       6903       6904       6915       6914  
      6783       6784       6795       6794       6904       6905       6916       6915  
      6784       6785       6796       6795       6905       6906       6917       6916  
      6785       6786       6797       6796       6906       6907       6918       6917  
      6786       6787       6798       6797       6907       6908       6919       6918  
      6788       6789       6800       6799       6909       6910       6921       6920  
      6789       6790       6801       6800       6910       6911       6922       6921  
      6790       6791       6802       6801       6911       6912       6923       6922  
      6791       6792       6803       6802       6912       6913       6924       6923  
      6792       6793       6804       6803       6913       6914       6925       6924  
      6793       6794       6805       6804       6914       6915       6926       6925  
      6794       6795       6806       6805       6915       6916       6927       6926  
      6795       6796       6807       6806       6916       6917       6928       6927  
      6796       6797       6808       6807       6917       6918       6929       6928  
      6797       6798       6809       6808       6918       6919       6930       6929  
      6799       6800       6811       6810       6920       6921       6932       6931  
      6800       6801       6812       6811       6921       6922       6933       6932  
      6801       6802       6813       6812       6922       6923       6934       6933  
      6802       6803       6814       6813       6923       6924       6935       6934  
      6803       6804       6815       6814       6924       6925       6936       6935  
      6804       6805       6816       6815       6925       6926       6937       6936  
      6805       6806       6817       6816       6926       6927       6938       6937  
      6806       6807       6818       6817       6927       6928       6939       6938  
      6807       6808       6819       6818       6928       6929       6940       6939  
      6808       6809       6820       6819       6929       6930       6941       6940  
      6810       6811       6822       6821       6931       6932       6943       6942  
      6811       6812       6823       6822       6932       6933       6944       6943  
      6812       6813       6824       6823       6933       6934       6945       6944  
      6813       6814       6825       6824       6934       6935       6946       6945  
      6814       6815       6826       6825       6935       6936       6947       6946  
      6815       6816       6827       6826       6936       6937       6948       6947  
      6816       6817       6828       6827       6937       6938       6949       6948  
      6817       6818       6829       6828       6938       6939       6950       6949  
      6818       6819       6830       6829       6939       6940       6951       6950  
      6819       6820       6831       6830       6940       6941       6952       6951  
      6821       6822       6833       6832       6942       6943       6954       6953  
      6822       6823       6834       6833       6943       6944       6955       6954  
      6823       6824       6835       6834       6944       6945       6956       6955  
      6824       6825       6836       6835       6945       6946       6957       6956  
      6825       6826       6837       6836       6946       6947       6958       6957  
      6826       6827       6838       6837       6947       6948       6959       6958  
      6827       6828       6839       6838       6948       6949       6960       6959  
      6828       6829       6840       6839       6949       6950       6961       6960  
      6829       6830       6841       6840       6950       6951       6962       6961  
      6830       6831       6842       6841       6951       6952       6963       6962  
      6832       6833       6844       6843       6953       6954       6965       6964  
      6833       6834       6845       6844       6954       6955       6966       6965  
      6834       6835       6846       6845       6955       6956       6967       6966  
      6835       6836       6847       6846       6956       6957       6968       6967  
      6836       6837       6848       6847       6957       6958       6969       6968  
      6837       6838       6849       6848       6958       6959       6970       6969  
      6838       6839       6850       6849       6959       6960       6971       6970  
      6839       6840       6851       6850       6960       6961       6972       6971  
      6840       6841       6852       6851       6961       6962       6973       6972  
      6841       6842       6853       6852       6962       6963       6974       6973  
      6843       6844       6855       6854       6964       6965       6976       6975  
      6844       6845       6856       6855       6965       6966       6977       6976  
      6845       6846       6857       6856       6966       6967       6978       6977  
      6846       6847       6858       6857       6967       6968       6979       6978  
      6847       6848       6859       6858       6968       6969       6980       6979  
      6848       6849       6860       6859       6969       6970       6981       6980  
      6849       6850       6861       6860       6970       6971       6982       6981  
      6850       6851       6862       6861       6971       6972       6983       6982  
      6851       6852       6863       6862       6972       6973       6984       6983  
      6852       6853       6864       6863       6973       6974       6985       6984  
      6854       6855       6866       6865       6975       6976       6987       6986  
      6855       6856       6867       6866       6976       6977       6988       6987  
      6856       6857       6868       6867       6977       6978       6989       6988  
      6857       6858       6869       6868       6978       6979       6990       6989  
      6858       6859       6870       6869       6979       6980       6991       6990  
      6859       6860       6871       6870       6980       6981       6992       6991  
      6860       6861       6872       6871       6981       6982       6993       6992  
      6861       6862       6873       6872       6982       6983       6994       6993  
      6862       6863       6874       6873       6983       6984       6995       6994  
      6863       6864       6875       6874       6984       6985       6996       6995  
      6865       6866       6877       6876       6986       6987       6998       6997  
      6866       6867       6878       6877       6987       6988       6999       6998  
      6867       6868       6879       6878       6988       6989       7000       6999  
      6868       6869       6880       6879       6989       6990       7001       7000  
      6869       6870       6881       6880       6990       6991       7002       7001  
      6870       6871       6882       6881       6991       6992       7003       7002  
      6871       6872       6883       6882       6992       6993       7004       7003  
      6872       6873       6884       6883       6993       6994       7005       7004  
      6873       6874       6885       6884       6994       6995       7006       7005  
      6874       6875       6886       6885       6995       6996       7007       7006  
      6876       6877       6888       6887       6997       6998       7009       7008  
      6877       6878       6889       6888       6998       6999       7010       7009  
      6878       6879       6890       6889       6999       7000       7011       7010  
      6879       6880       6891       6890       7000       7001       7012       7011  
      6880       6881       6892       6891       7001       7002       7013       7012  
      6881       6882       6893       6892       7002       7003       7014       7013  
      6882       6883       6894       6893       7003       7004       7015       7014  
      6883       6884       6895       6894       7004       7005       7016       7015  
      6884       6885       6896       6895       7005       7006       7017       7016  
      6885       6886       6897       6896       7006       7007       7018       7017  
      6898       6899       6910       6909       7019       7020       7031       7030  
      6899       6900       6911       6910       7020       7021       7032       7031  
      6900       6901       6912       6911       7021       7022       7033       7032  
      6901       6902       6913       6912       7022       7023       7034       7033  
      6902       6903       6914       6913       7023       7024       7035       7034  
      6903       6904       6915       6914       7024       7025       7036       7035  
      6904       6905       6916       6915       7025       7026       7037       7036  
      6905       6906       6917       6916       7026       7027       7038       7037  
      6906       6907       6918       6917       7027       7028       7039       7038  
      6907       6908       6919       6918       7028       7029       7040       7039  
      6909       6910       6921       6920       7030       7031       7042       7041  
      6910       6911       6922       6921       7031       7032       7043       7042  
      6911       6912       6923       6922       7032       7033       7044       7043  
      6912       6913       6924       6923       7033       7034       7045       7044  
      6913       6914       6925       6924       7034       7035       7046       7045  
      6914       6915       6926       6925       7035       7036       7047       7046  
      6915       6916       6927       6926       7036       7037       7048       7047  
      6916       6917       6928       6927       7037       7038       7049       7048  
      6917       6918       6929       6928       7038       7039       7050       7049  
      6918       6919       6930       6929       7039       7040       7051       7050  
      6920       6921       6932       6931       7041       7042       7053       7052  
      6921       6922       6933       6932       7042       7043       7054       7053  
      6922       6923       6934       6933       7043       7044       7055       7054  
      6923       6924       6935       6934       7044       7045       7056       7055  
      6924       6925       6936       6935       7045       7046       7057       7056  
      6925       6926       6937       6936       7046       7047       7058       7057  
      6926       6927       6938       6937       7047       7048       7059       7058  
      6927       6928       6939       6938       7048       7049       7060       7059  
      6928       6929       6940       6939       7049       7050       7061       7060  
      6929       6930       6941       6940       7050       7051       7062       7061  
      6931       6932       6943       6942       7052       7053       7064       7063  
      6932       6933       6944       6943       7053       7054       7065       7064  
      6933       6934       6945       6944       7054       7055       7066       7065  
      6934       6935       6946       6945       7055       7056       7067       7066  
      6935       6936       6947       6946       7056       7057       7068       7067  
      6936       6937       6948       6947       7057       7058       7069       7068  
      6937       6938       6949       6948       7058       7059       7070       7069  
      6938       6939       6950       6949       7059       7060       7071       7070  
      6939       6940       6951       6950       7060       7061       7072       7071  
      6940       6941       6952       6951       7061       7062       7073       7072  
      6942       6943       6954       6953       7063       7064       7075       7074  
      6943       6944       6955       6954       7064       7065       7076       7075  
      6944       6945       6956       6955       7065       7066       7077       7076  
      6945       6946       6957       6956       7066       7067       7078       7077  
      6946       6947       6958       6957       7067       7068       7079       7078  
      6947       6948       6959       6958       7068       7069       7080       7079  
      6948       6949       6960       6959       7069       7070       7081       7080  
      6949       6950       6961       6960       7070       7071       7082       7081  
      6950       6951       6962       6961       7071       7072       7083       7082  
      6951       6952       6963       6962       7072       7073       7084       7083  
      6953       6954       6965       6964       7074       7075       7086       7085  
      6954       6955       6966       6965       7075       7076       7087       7086  
      6955       6956       6967       6966       7076       7077       7088       7087  
      6956       6957       6968       6967       7077       7078       7089       7088  
      6957       6958       6969       6968       7078       7079       7090       7089  
      6958       6959       6970       6969       7079       7080       7091       7090  
      6959       6960       6971       6970       7080       7081       7092       7091  
      6960       6961       6972       6971       7081       7082       7093       7092  
      6961       6962       6973       6972       7082       7083       7094       7093  
      6962       6963       6974       6973       7083       7084       7095       7094  
      6964       6965       6976       6975       7085       7086       7097       7096  
      6965       6966       6977       6976       7086       7087       7098       7097  
      6966       6967       6978       6977       7087       7088       7099       7098  
      6967       6968       6979       6978       7088       7089       7100       7099  
      6968       6969       6980       6979       7089       7090       7101       7100  
      6969       6970       6981       6980       7090       7091       7102       7101  
      6970       6971       6982       6981       7091       7092       7103       7102  
      6971       6972       6983       6982       7092       7093       7104       7103  
      6972       6973       6984       6983       7093       7094       7105       7104  
      6973       6974       6985       6984       7094       7095       7106       7105  
      6975       6976       6987       6986       7096       7097       7108       7107  
      6976       6977       6988       6987       7097       7098       7109       7108  
      6977       6978       6989       6988       7098       7099       7110       7109  
      6978       6979       6990       6989       7099       7100       7111       7110  
      6979       6980       6991       6990       7100       7101       7112       7111  
      6980       6981       6992       6991       7101       7102       7113       7112  
      6981       6982       6993       6992       7102       7103       7114       7113  
      6982       6983       6994       6993       7103       7104       7115       7114  
      6983       6984       6995       6994       7104       7105       7116       7115  
      6984       6985       6996       6995       7105       7106       7117       7116  
      6986       6987       6998       6997       7107       7108       7119       7118  
      6987       6988       6999       6998       7108       7109       7120       7119  
      6988       6989       7000       6999       7109       7110       7121       7120  
      6989       6990       7001       7000       7110       7111       7122       7121  
      6990       6991       7002       7001       7111       7112       7123       7122  
      6991       6992       7003       7002       7112       7113       7124       7123  
      6992       6993       7004       7003       7113       7114       7125       7124  
      6993       6994       7005       7004       7114       7115       7126       7125  
      6994       6995       7006       7005       7115       7116       7127       7126  
      6995       6996       7007       7006       7116       7117       7128       7127  
      6997       6998       7009       7008       7118       7119       7130       7129  
      6998       6999       7010       7009       7119       7120       7131       7130  
      6999       7000       7011       7010       7120       7121       7132       7131  
      7000       7001       7012       7011       7121       7122       7133       7132  
      7001       7002       7013       7012       7122       7123       7134       7133  
      7002       7003       7014       7013       7123       7124       7135       7134  
      7003       7004       7015       7014       7124       7125       7136       7135  
      7004       7005       7016       7015       7125       7126       7137       7136  
      7005       7006       7017       7016       7126       7127       7138       7137  
      7006       7007       7018       7017       7127       7128       7139       7138  
      7019       7020       7031       7030       7140       7141       7152       7151  
      7020       7021       7032       7031       7141       7142       7153       7152  
      7021       7022       7033       7032       7142       7143       7154       7153  
      7022       7023       7034       7033       7143       7144       7155       7154  
      7023       7024       7035       7034       7144       7145       7156       7155  
      7024       7025       7036       7035       7145       7146       7157       7156  
      7025       7026       7037       7036       7146       7147       7158       7157  
      7026       7027       7038       7037       7147       7148       7159       7158  
      7027       7028       7039       7038       7148       7149       7160       7159  
      7028       7029       7040       7039       7149       7150       7161       7160  
      7030       7031       7042       7041       7151       7152       7163       7162  
      7031       7032       7043       7042       7152       7153       7164       7163  
      7032       7033       7044       7043       7153       7154       7165       7164  
      7033       7034       7045       7044       7154       7155       7166       7165  
      7034       7035       7046       7045       7155       7156       7167       7166  
      7035       7036       7047       7046       7156       7157       7168       7167  
      7036       7037       7048       7047       7157       7158       7169       7168  
      7037       7038       7049       7048       7158       7159       7170       7169  
      7038       7039       7050       7049       7159       7160       7171       7170  
      7039       7040       7051       7050       7160       7161       7172       7171  
      7041       7042       7053       7052       7162       7163       7174       7173  
      7042       7043       7054       7053       7163       7164       7175       7174  
      7043       7044       7055       7054       7164       7165       7176       7175  
      7044       7045       7056       7055       7165       7166       7177       7176  
      7045       7046       7057       7056       7166       7167       7178       7177  
      7046       7047       7058       7057       7167       7168       7179       7178  
      7047       7048       7059       7058       7168       7169       7180       7179  
      7048       7049       7060       7059       7169       7170       7181       7180  
      7049       7050       7061       7060       7170       7171       7182       7181  
      7050       7051       7062       7061       7171       7172       7183       7182  
      7052       7053       7064       7063       7173       7174       7185       7184  
      7053       7054       7065       7064       7174       7175       7186       7185  
      7054       7055       7066       7065       7175       7176       7187       7186  
      7055       7056       7067       7066       7176       7177       7188       7187  
      7056       7057       7068       7067       7177       7178       7189       7188  
      7057       7058       7069       7068       7178       7179       7190       7189  
      7058       7059       7070       7069       7179       7180       7191       7190  
      7059       7060       7071       7070       7180       7181       7192       7191  
      7060       7061       7072       7071       7181       7182       7193       7192  
      7061       7062       7073       7072       7182       7183       7194       7193  
      7063       7064       7075       7074       7184       7185       7196       7195  
      7064       7065       7076       7075       7185       7186       7197       7196  
      7065       7066       7077       7076       7186       7187       7198       7197  
      7066       7067       7078       7077       7187       7188       7199       7198  
      7067       7068       7079       7078       7188       7189       7200       7199  
      7068       7069       7080       7079       7189       7190       7201       7200  
      7069       7070       7081       7080       7190       7191       7202       7201  
      7070       7071       7082       7081       7191       7192       7203       7202  
      7071       7072       7083       7082       7192       7193       7204       7203  
      7072       7073       7084       7083       7193       7194       7205       7204  
      7074       7075       7086       7085       7195       7196       7207       7206  
      7075       7076       7087       7086       7196       7197       7208       7207  
      7076       7077       7088       7087       7197       7198       7209       7208  
      7077       7078       7089       7088       7198       7199       7210       7209  
      7078       7079       7090       7089       7199       7200       7211       7210  
      7079       7080       7091       7090       7200       7201       7212       7211  
      7080       7081       7092       7091       7201       7202       7213       7212  
      7081       7082       7093       7092       7202       7203       7214       7213  
      7082       7083       7094       7093       7203       7204       7215       7214  
      7083       7084       7095       7094       7204       7205       7216       7215  
      7085       7086       7097       7096       7206       7207       7218       7217  
      7086       7087       7098       7097       7207       7208       7219       7218  
      7087       7088       7099       7098       7208       7209       7220       7219  
      7088       7089       7100       7099       7209       7210       7221       7220  
      7089       7090       7101       7100       7210       7211       7222       7221  
      7090       7091       7102       7101       7211       7212       7223       7222  
      7091       7092       7103       7102       7212       7213       7224       7223  
      7092       7093       7104       7103       7213       7214       7225       7224  
      7093       7094       7105       7104       7214       7215       7226       7225  
      7094       7095       7106       7105       7215       7216       7227       7226  
      7096       7097       7108       7107       7217       7218       7229       7228  
      7097       7098       7109       7108       7218       7219       7230       7229  
      7098       7099       7110       7109       7219       7220       7231       7230  
      7099       7100       7111       7110       7220       7221       7232       7231  
      7100       7101       7112       7111       7221       7222       7233       7232  
      7101       7102       7113       7112       7222       7223       7234       7233  
      7102       7103       7114       7113       7223       7224       7235       7234  
      7103       7104       7115       7114       7224       7225       7236       7235  
      7104       7105       7116       7115       7225       7226       7237       7236  
      7105       7106       7117       7116       7226       7227       7238       7237  
      7107       7108       7119       7118       7228       7229       7240       7239  
      7108       7109       7120       7119       7229       7230       7241       7240  
      7109       7110       7121       7120       7230       7231       7242       7241  
      7110       7111       7122       7121       7231       7232       7243       7242  
      7111       7112       7123       7122       7232       7233       7244       7243  
      7112       7113       7124       7123       7233       7234       7245       7244  
      7113       7114       7125       7124       7234       7235       7246       7245  
      7114       7115       7126       7125       7235       7236       7247       7246  
      7115       7116       7127       7126       7236       7237       7248       7247  
      7116       7117       7128       7127       7237       7238       7249       7248  
      7118       7119       7130       7129       7239       7240       7251       7250  
      7119       7120       7131       7130       7240       7241       7252       7251  
      7120       7121       7132       7131       7241       7242       7253       7252  
      7121       7122       7133       7132       7242       7243       7254       7253  
      7122       7123       7134       7133       7243       7244       7255       7254  
      7123       7124       7135       7134       7244       7245       7256       7255  
      7124       7125       7136       7135       7245       7246       7257       7256  
      7125       7126       7137       7136       7246       7247       7258       7257  
      7126       7127       7138       7137       7247       7248       7259       7258  
      7127       7128       7139       7138       7248       7249       7260       7259  
      7140       7141       7152       7151       7261       7262       7273       7272  
      7141       7142       7153       7152       7262       7263       7274       7273  
      7142       7143       7154       7153       7263       7264       7275       7274  
      7143       7144       7155       7154       7264       7265       7276       7275  
      7144       7145       7156       7155       7265       7266       7277       7276  
      7145       7146       7157       7156       7266       7267       7278       7277  
      7146       7147       7158       7157       7267       7268       7279       7278  
      7147       7148       7159       7158       7268       7269       7280       7279  
      7148       7149       7160       7159       7269       7270       7281       7280  
      7149       7150       7161       7160       7270       7271       7282       7281  
      7151       7152       7163       7162       7272       7273       7284       7283  
      7152       7153       7164       7163       7273       7274       7285       7284  
      7153       7154       7165       7164       7274       7275       7286       7285  
      7154       7155       7166       7165       7275       7276       7287       7286  
      7155       7156       7167       7166       7276       7277       7288       7287  
      7156       7157       7168       7167       7277       7278       7289       7288  
      7157       7158       7169       7168       7278       7279       7290       7289  
      7158       7159       7170       7169       7279       7280       7291       7290  
      7159       7160       7171       7170       7280       7281       7292       7291  
      7160       7161       7172       7171       7281       7282       7293       7292  
      7162       7163       7174       7173       7283       7284       7295       7294  
      7163       7164       7175       7174       7284       7285       7296       7295  
      7164       7165       7176       7175       7285       7286       7297       7296  
      7165       7166       7177       7176       7286       7287       7298       7297  
      7166       7167       7178       7177       7287       7288       7299       7298  
      7167       7168       7179       7178       7288       7289       7300       7299  
      7168       7169       7180       7179       7289       7290       7301       7300  
      7169       7170       7181       7180       7290       7291       7302       7301  
      7170       7171       7182       7181       7291       7292       7303       7302  
      7171       7172       7183       7182       7292       7293       7304       7303  
      7173       7174       7185       7184       7294       7295       7306       7305  
      7174       7175       7186       7185       7295       7296       7307       7306  
      7175       7176       7187       7186       7296       7297       7308       7307  
      7176       7177       7188       7187       7297       7298       7309       7308  
      7177       7178       7189       7188       7298       7299       7310       7309  
      7178       7179       7190       7189       7299       7300       7311       7310  
      7179       7180       7191       7190       7300       7301       7312       7311  
      7180       7181       7192       7191       7301       7302       7313       7312  
      7181       7182       7193       7192       7302       7303       7314       7313  
      7182       7183       7194       7193       7303       7304       7315       7314  
      7184       7185       7196       7195       7305       7306       7317       7316  
      7185       7186       7197       7196       7306       7307       7318       7317  
      7186       7187       7198       7197       7307       7308       7319       7318  
      7187       7188       7199       7198       7308       7309       7320       7319  
      7188       7189       7200       7199       7309       7310       7321       7320  
      7189       7190       7201       7200       7310       7311       7322       7321  
      7190       7191       7202       7201       7311       7312       7323       7322  
      7191       7192       7203       7202       7312       7313       7324       7323  
      7192       7193       7204       7203       7313       7314       7325       7324  
      7193       7194       7205       7204       7314       7315       7326       7325  
      7195       7196       7207       7206       7316       7317       7328       7327  
      7196       7197       7208       7207       7317       7318       7329       7328  
      7197       7198       7209       7208       7318       7319       7330       7329  
      7198       7199       7210       7209       7319       7320       7331       7330  
      7199       7200       7211       7210       7320       7321       7332       7331  
      7200       7201       7212       7211       7321       7322       7333       7332  
      7201       7202       7213       7212       7322       7323       7334       7333  
      7202       7203       7214       7213       7323       7324       7335       7334  
      7203       7204       7215       7214       7324       7325       7336       7335  
      7204       7205       7216       7215       7325       7326       7337       7336  
      7206       7207       7218       7217       7327       7328       7339       7338  
      7207       7208       7219       7218       7328       7329       7340       7339  
      7208       7209       7220       7219       7329       7330       7341       7340  
      7209       7210       7221       7220       7330       7331       7342       7341  
      7210       7211       7222       7221       7331       7332       7343       7342  
      7211       7212       7223       7222       7332       7333       7344       7343  
      7212       7213       7224       7223       7333       7334       7345       7344  
      7213       7214       7225       7224       7334       7335       7346       7345  
      7214       7215       7226       7225       7335       7336       7347       7346  
      7215       7216       7227       7226       7336       7337       7348       7347  
      7217       7218       7229       7228       7338       7339       7350       7349  
      7218       7219       7230       7229       7339       7340       7351       7350  
      7219       7220       7231       7230       7340       7341       7352       7351  
      7220       7221       7232       7231       7341       7342       7353       7352  
      7221       7222       7233       7232       7342       7343       7354       7353  
      7222       7223       7234       7233       7343       7344       7355       7354  
      7223       7224       7235       7234       7344       7345       7356       7355  
      7224       7225       7236       7235       7345       7346       7357       7356  
      7225       7226       7237       7236       7346       7347       7358       7357  
      7226       7227       7238       7237       7347       7348       7359       7358  
      7228       7229       7240       7239       7349       7350       7361       7360  
      7229       7230       7241       7240       7350       7351       7362       7361  
      7230       7231       7242       7241       7351       7352       7363       7362  
      7231       7232       7243       7242       7352       7353       7364       7363  
      7232       7233       7244       7243       7353       7354       7365       7364  
      7233       7234       7245       7244       7354       7355       7366       7365  
      7234       7235       7246       7245       7355       7356       7367       7366  
      7235       7236       7247       7246       7356       7357       7368       7367  
      7236       7237       7248       7247       7357       7358       7369       7368  
      7237       7238       7249       7248       7358       7359       7370       7369  
      7239       7240       7251       7250       7360       7361       7372       7371  
      7240       7241       7252       7251       7361       7362       7373       7372  
      7241       7242       7253       7252       7362       7363       7374       7373  
      7242       7243       7254       7253       7363       7364       7375       7374  
      7243       7244       7255       7254       7364       7365       7376       7375  
      7244       7245       7256       7255       7365       7366       7377       7376  
      7245       7246       7257       7256       7366       7367       7378       7377  
      7246       7247       7258       7257       7367       7368       7379       7378  
      7247       7248       7259       7258       7368       7369       7380       7379  
      7248       7249       7260       7259       7369       7370       7381       7380  
      7261       7262       7273       7272       7382       7383       7394       7393  
      7262       7263       7274       7273       7383       7384       7395       7394  
      7263       7264       7275       7274       7384       7385       7396       7395  
      7264       7265       7276       7275       7385       7386       7397       7396  
      7265       7266       7277       7276       7386       7387       7398       7397  
      7266       7267       7278       7277       7387       7388       7399       7398  
      7267       7268       7279       7278       7388       7389       7400       7399  
      7268       7269       7280       7279       7389       7390       7401       7400  
      7269       7270       7281       7280       7390       7391       7402       7401  
      7270       7271       7282       7281       7391       7392       7403       7402  
      7272       7273       7284       7283       7393       7394       7405       7404  
      7273       7274       7285       7284       7394       7395       7406       7405  
      7274       7275       7286       7285       7395       7396       7407       7406  
      7275       7276       7287       7286       7396       7397       7408       7407  
      7276       7277       7288       7287       7397       7398       7409       7408  
      7277       7278       7289       7288       7398       7399       7410       7409  
      7278       7279       7290       7289       7399       7400       7411       7410  
      7279       7280       7291       7290       7400       7401       7412       7411  
      7280       7281       7292       7291       7401       7402       7413       7412  
      7281       7282       7293       7292       7402       7403       7414       7413  
      7283       7284       7295       7294       7404       7405       7416       7415  
      7284       7285       7296       7295       7405       7406       7417       7416  
      7285       7286       7297       7296       7406       7407       7418       7417  
      7286       7287       7298       7297       7407       7408       7419       7418  
      7287       7288       7299       7298       7408       7409       7420       7419  
      7288       7289       7300       7299       7409       7410       7421       7420  
      7289       7290       7301       7300       7410       7411       7422       7421  
      7290       7291       7302       7301       7411       7412       7423       7422  
      7291       7292       7303       7302       7412       7413       7424       7423  
      7292       7293       7304       7303       7413       7414       7425       7424  
      7294       7295       7306       7305       7415       7416       7427       7426  
      7295       7296       7307       7306       7416       7417       7428       7427  
      7296       7297       7308       7307       7417       7418       7429       7428  
      7297       7298       7309       7308       7418       7419       7430       7429  
      7298       7299       7310       7309       7419       7420       7431       7430  
      7299       7300       7311       7310       7420       7421       7432       7431  
      7300       7301       7312       7311       7421       7422       7433       7432  
      7301       7302       7313       7312       7422       7423       7434       7433  
      7302       7303       7314       7313       7423       7424       7435       7434  
      7303       7304       7315       7314       7424       7425       7436       7435  
      7305       7306       7317       7316       7426       7427       7438       7437  
      7306       7307       7318       7317       7427       7428       7439       7438  
      7307       7308       7319       7318       7428       7429       7440       7439  
      7308       7309       7320       7319       7429       7430       7441       7440  
      7309       7310       7321       7320       7430       7431       7442       7441  
      7310       7311       7322       7321       7431       7432       7443       7442  
      7311       7312       7323       7322       7432       7433       7444       7443  
      7312       7313       7324       7323       7433       7434       7445       7444  
      7313       7314       7325       7324       7434       7435       7446       7445  
      7314       7315       7326       7325       7435       7436       7447       7446  
      7316       7317       7328       7327       7437       7438       7449       7448  
      7317       7318       7329       7328       7438       7439       7450       7449  
      7318       7319       7330       7329       7439       7440       7451       7450  
      7319       7320       7331       7330       7440       7441       7452       7451  
      7320       7321       7332       7331       7441       7442       7453       7452  
      7321       7322       7333       7332       7442       7443       7454       7453  
      7322       7323       7334       7333       7443       7444       7455       7454  
      7323       7324       7335       7334       7444       7445       7456       7455  
      7324       7325       7336       7335       7445       7446       7457       7456  
      7325       7326       7337       7336       7446       7447       7458       7457  
      7327       7328       7339       7338       7448       7449       7460       7459  
      7328       7329       7340       7339       7449       7450       7461       7460  
      7329       7330       7341       7340       7450       7451       7462       7461  
      7330       7331       7342       7341       7451       7452       7463       7462  
      7331       7332       7343       7342       7452       7453       7464       7463  
      7332       7333       7344       7343       7453       7454       7465       7464  
      7333       7334       7345       7344       7454       7455       7466       7465  
      7334       7335       7346       7345       7455       7456       7467       7466  
      7335       7336       7347       7346       7456       7457       7468       7467  
      7336       7337       7348       7347       7457       7458       7469       7468  
      7338       7339       7350       7349       7459       7460       7471       7470  
      7339       7340       7351       7350       7460       7461       7472       7471  
      7340       7341       7352       7351       7461       7462       7473       7472  
      7341       7342       7353       7352       7462       7463       7474       7473  
      7342       7343       7354       7353       7463       7464       7475       7474  
      7343       7344       7355       7354       7464       7465       7476       7475  
      7344       7345       7356       7355       7465       7466       7477       7476  
      7345       7346       7357       7356       7466       7467       7478       7477  
      7346       7347       7358       7357       7467       7468       7479       7478  
      7347       7348       7359       7358       7468       7469       7480       7479  
      7349       7350       7361       7360       7470       7471       7482       7481  
      7350       7351       7362       7361       7471       7472       7483       7482  
      7351       7352       7363       7362       7472       7473       7484       7483  
      7352       7353       7364       7363       7473       7474       7485       7484  
      7353       7354       7365       7364       7474       7475       7486       7485  
      7354       7355       7366       7365       7475       7476       7487       7486  
      7355       7356       7367       7366       7476       7477       7488       7487  
      7356       7357       7368       7367       7477       7478       7489       7488  
      7357       7358       7369       7368       7478       7479       7490       7489  
      7358       7359       7370       7369       7479       7480       7491       7490  
      7360       7361       7372       7371       7481       7482       7493       7492  
      7361       7362       7373       7372       7482       7483       7494       7493  
      7362       7363       7374       7373       7483       7484       7495       7494  
      7363       7364       7375       7374       7484       7485       7496       7495  
      7364       7365       7376       7375       7485       7486       7497       7496  
      7365       7366       7377       7376       7486       7487       7498       7497  
      7366       7367       7378       7377       7487       7488       7499       7498  
      7367       7368       7379       7378       7488       7489       7500       7499  
      7368       7369       7380       7379       7489       7490       7501       7500  
      7369       7370       7381       7380       7490       7491       7502       7501  
      7382       7383       7394       7393       7503       7504       7515       7514  
      7383       7384       7395       7394       7504       7505       7516       7515  
      7384       7385       7396       7395       7505       7506       7517       7516  
      7385       7386       7397       7396       7506       7507       7518       7517  
      7386       7387       7398       7397       7507       7508       7519       7518  
      7387       7388       7399       7398       7508       7509       7520       7519  
      7388       7389       7400       7399       7509       7510       7521       7520  
      7389       7390       7401       7400       7510       7511       7522       7521  
      7390       7391       7402       7401       7511       7512       7523       7522  
      7391       7392       7403       7402       7512       7513       7524       7523  
      7393       7394       7405       7404       7514       7515       7526       7525  
      7394       7395       7406       7405       7515       7516       7527       7526  
      7395       7396       7407       7406       7516       7517       7528       7527  
      7396       7397       7408       7407       7517       7518       7529       7528  
      7397       7398       7409       7408       7518       7519       7530       7529  
      7398       7399       7410       7409       7519       7520       7531       7530  
      7399       7400       7411       7410       7520       7521       7532       7531  
      7400       7401       7412       7411       7521       7522       7533       7532  
      7401       7402       7413       7412       7522       7523       7534       7533  
      7402       7403       7414       7413       7523       7524       7535       7534  
      7404       7405       7416       7415       7525       7526       7537       7536  
      7405       7406       7417       7416       7526       7527       7538       7537  
      7406       7407       7418       7417       7527       7528       7539       7538  
      7407       7408       7419       7418       7528       7529       7540       7539  
      7408       7409       7420       7419       7529       7530       7541       7540  
      7409       7410       7421       7420       7530       7531       7542       7541  
      7410       7411       7422       7421       7531       7532       7543       7542  
      7411       7412       7423       7422       7532       7533       7544       7543  
      7412       7413       7424       7423       7533       7534       7545       7544  
      7413       7414       7425       7424       7534       7535       7546       7545  
      7415       7416       7427       7426       7536       7537       7548       7547  
      7416       7417       7428       7427       7537       7538       7549       7548  
      7417       7418       7429       7428       7538       7539       7550       7549  
      7418       7419       7430       7429       7539       7540       7551       7550  
      7419       7420       7431       7430       7540       7541       7552       7551  
      7420       7421       7432       7431       7541       7542       7553       7552  
      7421       7422       7433       7432       7542       7543       7554       7553  
      7422       7423       7434       7433       7543       7544       7555       7554  
      7423       7424       7435       7434       7544       7545       7556       7555  
      7424       7425       7436       7435       7545       7546       7557       7556  
      7426       7427       7438       7437       7547       7548       7559       7558  
      7427       7428       7439       7438       7548       7549       7560       7559  
      7428       7429       7440       7439       7549       7550       7561       7560  
      7429       7430       7441       7440       7550       7551       7562       7561  
      7430       7431       7442       7441       7551       7552       7563       7562  
      7431       7432       7443       7442       7552       7553       7564       7563  
      7432       7433       7444       7443       7553       7554       7565       7564  
      7433       7434       7445       7444       7554       7555       7566       7565  
      7434       7435       7446       7445       7555       7556       7567       7566  
      7435       7436       7447       7446       7556       7557       7568       7567  
      7437       7438       7449       7448       7558       7559       7570       7569  
      7438       7439       7450       7449       7559       7560       7571       7570  
      7439       7440       7451       7450       7560       7561       7572       7571  
      7440       7441       7452       7451       7561       7562       7573       7572  
      7441       7442       7453       7452       7562       7563       7574       7573  
      7442       7443       7454       7453       7563       7564       7575       7574  
      7443       7444       7455       7454       7564       7565       7576       7575  
      7444       7445       7456       7455       7565       7566       7577       7576  
      7445       7446       7457       7456       7566       7567       7578       7577  
      7446       7447       7458       7457       7567       7568       7579       7578  
      7448       7449       7460       7459       7569       7570       7581       7580  
      7449       7450       7461       7460       7570       7571       7582       7581  
      7450       7451       7462       7461       7571       7572       7583       7582  
      7451       7452       7463       7462       7572       7573       7584       7583  
      7452       7453       7464       7463       7573       7574       7585       7584  
      7453       7454       7465       7464       7574       7575       7586       7585  
      7454       7455       7466       7465       7575       7576       7587       7586  
      7455       7456       7467       7466       7576       7577       7588       7587  
      7456       7457       7468       7467       7577       7578       7589       7588  
      7457       7458       7469       7468       7578       7579       7590       7589  
      7459       7460       7471       7470       7580       7581       7592       7591  
      7460       7461       7472       7471       7581       7582       7593       7592  
      7461       7462       7473       7472       7582       7583       7594       7593  
      7462       7463       7474       7473       7583       7584       7595       7594  
      7463       7464       7475       7474       7584       7585       7596       7595  
      7464       7465       7476       7475       7585       7586       7597       7596  
      7465       7466       7477       7476       7586       7587       7598       7597  
      7466       7467       7478       7477       7587       7588       7599       7598  
      7467       7468       7479       7478       7588       7589       7600       7599  
      7468       7469       7480       7479       7589       7590       7601       7600  
      7470       7471       7482       7481       7591       7592       7603       7602  
      7471       7472       7483       7482       7592       7593       7604       7603  
      7472       7473       7484       7483       7593       7594       7605       7604  
      7473       7474       7485       7484       7594       7595       7606       7605  
      7474       7475       7486       7485       7595       7596       7607       7606  
      7475       7476       7487       7486       7596       7597       7608       7607  
      7476       7477       7488       7487       7597       7598       7609       7608  
      7477       7478       7489       7488       7598       7599       7610       7609  
      7478       7479       7490       7489       7599       7600       7611       7610  
      7479       7480       7491       7490       7600       7601       7612       7611  
      7481       7482       7493       7492       7602       7603       7614       7613  
      7482       7483       7494       7493       7603       7604       7615       7614  
      7483       7484       7495       7494       7604       7605       7616       7615  
      7484       7485       7496       7495       7605       7606       7617       7616  
      7485       7486       7497       7496       7606       7607       7618       7617  
      7486       7487       7498       7497       7607       7608       7619       7618  
      7487       7488       7499       7498       7608       7609       7620       7619  
      7488       7489       7500       7499       7609       7610       7621       7620  
      7489       7490       7501       7500       7610       7611       7622       7621  
      7490       7491       7502       7501       7611       7612       7623       7622  
      7503       7504       7515       7514       7624       7625       7636       7635  
      7504       7505       7516       7515       7625       7626       7637       7636  
      7505       7506       7517       7516       7626       7627       7638       7637  
      7506       7507       7518       7517       7627       7628       7639       7638  
      7507       7508       7519       7518       7628       7629       7640       7639  
      7508       7509       7520       7519       7629       7630       7641       7640  
      7509       7510       7521       7520       7630       7631       7642       7641  
      7510       7511       7522       7521       7631       7632       7643       7642  
      7511       7512       7523       7522       7632       7633       7644       7643  
      7512       7513       7524       7523       7633       7634       7645       7644  
      7514       7515       7526       7525       7635       7636       7647       7646  
      7515       7516       7527       7526       7636       7637       7648       7647  
      7516       7517       7528       7527       7637       7638       7649       7648  
      7517       7518       7529       7528       7638       7639       7650       7649  
      7518       7519       7530       7529       7639       7640       7651       7650  
      7519       7520       7531       7530       7640       7641       7652       7651  
      7520       7521       7532       7531       7641       7642       7653       7652  
      7521       7522       7533       7532       7642       7643       7654       7653  
      7522       7523       7534       7533       7643       7644       7655       7654  
      7523       7524       7535       7534       7644       7645       7656       7655  
      7525       7526       7537       7536       7646       7647       7658       7657  
      7526       7527       7538       7537       7647       7648       7659       7658  
      7527       7528       7539       7538       7648       7649       7660       7659  
      7528       7529       7540       7539       7649       7650       7661       7660  
      7529       7530       7541       7540       7650       7651       7662       7661  
      7530       7531       7542       7541       7651       7652       7663       7662  
      7531       7532       7543       7542       7652       7653       7664       7663  
      7532       7533       7544       7543       7653       7654       7665       7664  
      7533       7534       7545       7544       7654       7655       7666       7665  
      7534       7535       7546       7545       7655       7656       7667       7666  
      7536       7537       7548       7547       7657       7658       7669       7668  
      7537       7538       7549       7548       7658       7659       7670       7669  
      7538       7539       7550       7549       7659       7660       7671       7670  
      7539       7540       7551       7550       7660       7661       7672       7671  
      7540       7541       7552       7551       7661       7662       7673       7672  
      7541       7542       7553       7552       7662       7663       7674       7673  
      7542       7543       7554       7553       7663       7664       7675       7674  
      7543       7544       7555       7554       7664       7665       7676       7675  
      7544       7545       7556       7555       7665       7666       7677       7676  
      7545       7546       7557       7556       7666       7667       7678       7677  
      7547       7548       7559       7558       7668       7669       7680       7679  
      7548       7549       7560       7559       7669       7670       7681       7680  
      7549       7550       7561       7560       7670       7671       7682       7681  
      7550       7551       7562       7561       7671       7672       7683       7682  
      7551       7552       7563       7562       7672       7673       7684       7683  
      7552       7553       7564       7563       7673       7674       7685       7684  
      7553       7554       7565       7564       7674       7675       7686       7685  
      7554       7555       7566       7565       7675       7676       7687       7686  
      7555       7556       7567       7566       7676       7677       7688       7687  
      7556       7557       7568       7567       7677       7678       7689       7688  
      7558       7559       7570       7569       7679       7680       7691       7690  
      7559       7560       7571       7570       7680       7681       7692       7691  
      7560       7561       7572       7571       7681       7682       7693       7692  
      7561       7562       7573       7572       7682       7683       7694       7693  
      7562       7563       7574       7573       7683       7684       7695       7694  
      7563       7564       7575       7574       7684       7685       7696       7695  
      7564       7565       7576       7575       7685       7686       7697       7696  
      7565       7566       7577       7576       7686       7687       7698       7697  
      7566       7567       7578       7577       7687       7688       7699       7698  
      7567       7568       7579       7578       7688       7689       7700       7699  
      7569       7570       7581       7580       7690       7691       7702       7701  
      7570       7571       7582       7581       7691       7692       7703       7702  
      7571       7572       7583       7582       7692       7693       7704       7703  
      7572       7573       7584       7583       7693       7694       7705       7704  
      7573       7574       7585       7584       7694       7695       7706       7705  
      7574       7575       7586       7585       7695       7696       7707       7706  
      7575       7576       7587       7586       7696       7697       7708       7707  
      7576       7577       7588       7587       7697       7698       7709       7708  
      7577       7578       7589       7588       7698       7699       7710       7709  
      7578       7579       7590       7589       7699       7700       7711       7710  
      7580       7581       7592       7591       7701       7702       7713       7712  
      7581       7582       7593       7592       7702       7703       7714       7713  
      7582       7583       7594       7593       7703       7704       7715       7714  
      7583       7584       7595       7594       7704       7705       7716       7715  
      7584       7585       7596       7595       7705       7706       7717       7716  
      7585       7586       7597       7596       7706       7707       7718       7717  
      7586       7587       7598       7597       7707       7708       7719       7718  
      7587       7588       7599       7598       7708       7709       7720       7719  
      7588       7589       7600       7599       7709       7710       7721       7720  
      7589       7590       7601       7600       7710       7711       7722       7721  
      7591       7592       7603       7602       7712       7713       7724       7723  
      7592       7593       7604       7603       7713       7714       7725       7724  
      7593       7594       7605       7604       7714       7715       7726       7725  
      7594       7595       7606       7605       7715       7716       7727       7726  
      7595       7596       7607       7606       7716       7717       7728       7727  
      7596       7597       7608       7607       7717       7718       7729       7728  
      7597       7598       7609       7608       7718       7719       7730       7729  
      7598       7599       7610       7609       7719       7720       7731       7730  
      7599       7600       7611       7610       7720       7721       7732       7731  
      7600       7601       7612       7611       7721       7722       7733       7732  
      7602       7603       7614       7613       7723       7724       7735       7734  
      7603       7604       7615       7614       7724       7725       7736       7735  
      7604       7605       7616       7615       7725       7726       7737       7736  
      7605       7606       7617       7616       7726       7727       7738       7737  
      7606       7607       7618       7617       7727       7728       7739       7738  
      7607       7608       7619       7618       7728       7729       7740       7739  
      7608       7609       7620       7619       7729       7730       7741       7740  
      7609       7610       7621       7620       7730       7731       7742       7741  
      7610       7611       7622       7621       7731       7732       7743       7742  
      7611       7612       7623       7622       7732       7733       7744       7743  
      7624       7625       7636       7635       7745       7746       7757       7756  
      7625       7626       7637       7636       7746       7747       7758       7757  
      7626       7627       7638       7637       7747       7748       7759       7758  
      7627       7628       7639       7638       7748       7749       7760       7759  
      7628       7629       7640       7639       7749       7750       7761       7760  
      7629       7630       7641       7640       7750       7751       7762       7761  
      7630       7631       7642       7641       7751       7752       7763       7762  
      7631       7632       7643       7642       7752       7753       7764       7763  
      7632       7633       7644       7643       7753       7754       7765       7764  
      7633       7634       7645       7644       7754       7755       7766       7765  
      7635       7636       7647       7646       7756       7757       7768       7767  
      7636       7637       7648       7647       7757       7758       7769       7768  
      7637       7638       7649       7648       7758       7759       7770       7769  
      7638       7639       7650       7649       7759       7760       7771       7770  
      7639       7640       7651       7650       7760       7761       7772       7771  
      7640       7641       7652       7651       7761       7762       7773       7772  
      7641       7642       7653       7652       7762       7763       7774       7773  
      7642       7643       7654       7653       7763       7764       7775       7774  
      7643       7644       7655       7654       7764       7765       7776       7775  
      7644       7645       7656       7655       7765       7766       7777       7776  
      7646       7647       7658       7657       7767       7768       7779       7778  
      7647       7648       7659       7658       7768       7769       7780       7779  
      7648       7649       7660       7659       7769       7770       7781       7780  
      7649       7650       7661       7660       7770       7771       7782       7781  
      7650       7651       7662       7661       7771       7772       7783       7782  
      7651       7652       7663       7662       7772       7773       7784       7783  
      7652       7653       7664       7663       7773       7774       7785       7784  
      7653       7654       7665       7664       7774       7775       7786       7785  
      7654       7655       7666       7665       7775       7776       7787       7786  
      7655       7656       7667       7666       7776       7777       7788       7787  
      7657       7658       7669       7668       7778       7779       7790       7789  
      7658       7659       7670       7669       7779       7780       7791       7790  
      7659       7660       7671       7670       7780       7781       7792       7791  
      7660       7661       7672       7671       7781       7782       7793       7792  
      7661       7662       7673       7672       7782       7783       7794       7793  
      7662       7663       7674       7673       7783       7784       7795       7794  
      7663       7664       7675       7674       7784       7785       7796       7795  
      7664       7665       7676       7675       7785       7786       7797       7796  
      7665       7666       7677       7676       7786       7787       7798       7797  
      7666       7667       7678       7677       7787       7788       7799       7798  
      7668       7669       7680       7679       7789       7790       7801       7800  
      7669       7670       7681       7680       7790       7791       7802       7801  
      7670       7671       7682       7681       7791       7792       7803       7802  
      7671       7672       7683       7682       7792       7793       7804       7803  
      7672       7673       7684       7683       7793       7794       7805       7804  
      7673       7674       7685       7684       7794       7795       7806       7805  
      7674       7675       7686       7685       7795       7796       7807       7806  
      7675       7676       7687       7686       7796       7797       7808       7807  
      7676       7677       7688       7687       7797       7798       7809       7808  
      7677       7678       7689       7688       7798       7799       7810       7809  
      7679       7680       7691       7690       7800       7801       7812       7811  
      7680       7681       7692       7691       7801       7802       7813       7812  
      7681       7682       7693       7692       7802       7803       7814       7813  
      7682       7683       7694       7693       7803       7804       7815       7814  
      7683       7684       7695       7694       7804       7805       7816       7815  
      7684       7685       7696       7695       7805       7806       7817       7816  
      7685       7686       7697       7696       7806       7807       7818       7817  
      7686       7687       7698       7697       7807       7808       7819       7818  
      7687       7688       7699       7698       7808       7809       7820       7819  
      7688       7689       7700       7699       7809       7810       7821       7820  
      7690       7691       7702       7701       7811       7812       7823       7822  
      7691       7692       7703       7702       7812       7813       7824       7823  
      7692       7693       7704       7703       7813       7814       7825       7824  
      7693       7694       7705       7704       7814       7815       7826       7825  
      7694       7695       7706       7705       7815       7816       7827       7826  
      7695       7696       7707       7706       7816       7817       7828       7827  
      7696       7697       7708       7707       7817       7818       7829       7828  
      7697       7698       7709       7708       7818       7819       7830       7829  
      7698       7699       7710       7709       7819       7820       7831       7830  
      7699       7700       7711       7710       7820       7821       7832       7831  
      7701       7702       7713       7712       7822       7823       7834       7833  
      7702       7703       7714       7713       7823       7824       7835       7834  
      7703       7704       7715       7714       7824       7825       7836       7835  
      7704       7705       7716       7715       7825       7826       7837       7836  
      7705       7706       7717       7716       7826       7827       7838       7837  
      7706       7707       7718       7717       7827       7828       7839       7838  
      7707       7708       7719       7718       7828       7829       7840       7839  
      7708       7709       7720       7719       7829       7830       7841       7840  
      7709       7710       7721       7720       7830       7831       7842       7841  
      7710       7711       7722       7721       7831       7832       7843       7842  
      7712       7713       7724       7723       7833       7834       7845       7844  
      7713       7714       7725       7724       7834       7835       7846       7845  
      7714       7715       7726       7725       7835       7836       7847       7846  
      7715       7716       7727       7726       7836       7837       7848       7847  
      7716       7717       7728       7727       7837       7838       7849       7848  
      7717       7718       7729       7728       7838       7839       7850       7849  
      7718       7719       7730       7729       7839       7840       7851       7850  
      7719       7720       7731       7730       7840       7841       7852       7851  
      7720       7721       7732       7731       7841       7842       7853       7852  
      7721       7722       7733       7732       7842       7843       7854       7853  
      7723       7724       7735       7734       7844       7845       7856       7855  
      7724       7725       7736       7735       7845       7846       7857       7856  
      7725       7726       7737       7736       7846       7847       7858       7857  
      7726       7727       7738       7737       7847       7848       7859       7858  
      7727       7728       7739       7738       7848       7849       7860       7859  
      7728       7729       7740       7739       7849       7850       7861       7860  
      7729       7730       7741       7740       7850       7851       7862       7861  
      7730       7731       7742       7741       7851       7852       7863       7862  
      7731       7732       7743       7742       7852       7853       7864       7863  
      7732       7733       7744       7743       7853       7854       7865       7864  
      7745       7746       7757       7756       7866       7867       7878       7877  
      7746       7747       7758       7757       7867       7868       7879       7878  
      7747       7748       7759       7758       7868       7869       7880       7879  
      7748       7749       7760       7759       7869       7870       7881       7880  
      7749       7750       7761       7760       7870       7871       7882       7881  
      7750       7751       7762       7761       7871       7872       7883       7882  
      7751       7752       7763       7762       7872       7873       7884       7883  
      7752       7753       7764       7763       7873       7874       7885       7884  
      7753       7754       7765       7764       7874       7875       7886       7885  
      7754       7755       7766       7765       7875       7876       7887       7886  
      7756       7757       7768       7767       7877       7878       7889       7888  
      7757       7758       7769       7768       7878       7879       7890       7889  
      7758       7759       7770       7769       7879       7880       7891       7890  
      7759       7760       7771       7770       7880       7881       7892       7891  
      7760       7761       7772       7771       7881       7882       7893       7892  
      7761       7762       7773       7772       7882       7883       7894       7893  
      7762       7763       7774       7773       7883       7884       7895       7894  
      7763       7764       7775       7774       7884       7885       7896       7895  
      7764       7765       7776       7775       7885       7886       7897       7896  
      7765       7766       7777       7776       7886       7887       7898       7897  
      7767       7768       7779       7778       7888       7889       7900       7899  
      7768       7769       7780       7779       7889       7890       7901       7900  
      7769       7770       7781       7780       7890       7891       7902       7901  
      7770       7771       7782       7781       7891       7892       7903       7902  
      7771       7772       7783       7782       7892       7893       7904       7903  
      7772       7773       7784       7783       7893       7894       7905       7904  
      7773       7774       7785       7784       7894       7895       7906       7905  
      7774       7775       7786       7785       7895       7896       7907       7906  
      7775       7776       7787       7786       7896       7897       7908       7907  
      7776       7777       7788       7787       7897       7898       7909       7908  
      7778       7779       7790       7789       7899       7900       7911       7910  
      7779       7780       7791       7790       7900       7901       7912       7911  
      7780       7781       7792       7791       7901       7902       7913       7912  
      7781       7782       7793       7792       7902       7903       7914       7913  
      7782       7783       7794       7793       7903       7904       7915       7914  
      7783       7784       7795       7794       7904       7905       7916       7915  
      7784       7785       7796       7795       7905       7906       7917       7916  
      7785       7786       7797       7796       7906       7907       7918       7917  
      7786       7787       7798       7797       7907       7908       7919       7918  
      7787       7788       7799       7798       7908       7909       7920       7919  
      7789       7790       7801       7800       7910       7911       7922       7921  
      7790       7791       7802       7801       7911       7912       7923       7922  
      7791       7792       7803       7802       7912       7913       7924       7923  
      7792       7793       7804       7803       7913       7914       7925       7924  
      7793       7794       7805       7804       7914       7915       7926       7925  
      7794       7795       7806       7805       7915       7916       7927       7926  
      7795       7796       7807       7806       7916       7917       7928       7927  
      7796       7797       7808       7807       7917       7918       7929       7928  
      7797       7798       7809       7808       7918       7919       7930       7929  
      7798       7799       7810       7809       7919       7920       7931       7930  
      7800       7801       7812       7811       7921       7922       7933       7932  
      7801       7802       7813       7812       7922       7923       7934       7933  
      7802       7803       7814       7813       7923       7924       7935       7934  
      7803       7804       7815       7814       7924       7925       7936       7935  
      7804       7805       7816       7815       7925       7926       7937       7936  
      7805       7806       7817       7816       7926       7927       7938       7937  
      7806       7807       7818       7817       7927       7928       7939       7938  
      7807       7808       7819       7818       7928       7929       7940       7939  
      7808       7809       7820       7819       7929       7930       7941       7940  
      7809       7810       7821       7820       7930       7931       7942       7941  
      7811       7812       7823       7822       7932       7933       7944       7943  
      7812       7813       7824       7823       7933       7934       7945       7944  
      7813       7814       7825       7824       7934       7935       7946       7945  
      7814       7815       7826       7825       7935       7936       7947       7946  
      7815       7816       7827       7826       7936       7937       7948       7947  
      7816       7817       7828       7827       7937       7938       7949       7948  
      7817       7818       7829       7828       7938       7939       7950       7949  
      7818       7819       7830       7829       7939       7940       7951       7950  
      7819       7820       7831       7830       7940       7941       7952       7951  
      7820       7821       7832       7831       7941       7942       7953       7952  
      7822       7823       7834       7833       7943       7944       7955       7954  
      7823       7824       7835       7834       7944       7945       7956       7955  
      7824       7825       7836       7835       7945       7946       7957       7956  
      7825       7826       7837       7836       7946       7947       7958       7957  
      7826       7827       7838       7837       7947       7948       7959       7958  
      7827       7828       7839       7838       7948       7949       7960       7959  
      7828       7829       7840       7839       7949       7950       7961       7960  
      7829       7830       7841       7840       7950       7951       7962       7961  
      7830       7831       7842       7841       7951       7952       7963       7962  
      7831       7832       7843       7842       7952       7953       7964       7963  
      7833       7834       7845       7844       7954       7955       7966       7965  
      7834       7835       7846       7845       7955       7956       7967       7966  
      7835       7836       7847       7846       7956       7957       7968       7967  
      7836       7837       7848       7847       7957       7958       7969       7968  
      7837       7838       7849       7848       7958       7959       7970       7969  
      7838       7839       7850       7849       7959       7960       7971       7970  
      7839       7840       7851       7850       7960       7961       7972       7971  
      7840       7841       7852       7851       7961       7962       7973       7972  
      7841       7842       7853       7852       7962       7963       7974       7973  
      7842       7843       7854       7853       7963       7964       7975       7974  
      7844       7845       7856       7855       7965       7966       7977       7976  
      7845       7846       7857       7856       7966       7967       7978       7977  
      7846       7847       7858       7857       7967       7968       7979       7978  
      7847       7848       7859       7858       7968       7969       7980       7979  
      7848       7849       7860       7859       7969       7970       7981       7980  
      7849       7850       7861       7860       7970       7971       7982       7981  
      7850       7851       7862       7861       7971       7972       7983       7982  
      7851       7852       7863       7862       7972       7973       7984       7983  
      7852       7853       7864       7863       7973       7974       7985       7984  
      7853       7854       7865       7864       7974       7975       7986       7985  
      7866       7867       7878       7877       7987       7988       7999       7998  
      7867       7868       7879       7878       7988       7989       8000       7999  
      7868       7869       7880       7879       7989       7990       8001       8000  
      7869       7870       7881       7880       7990       7991       8002       8001  
      7870       7871       7882       7881       7991       7992       8003       8002  
      7871       7872       7883       7882       7992       7993       8004       8003  
      7872       7873       7884       7883       7993       7994       8005       8004  
      7873       7874       7885       7884       7994       7995       8006       8005  
      7874       7875       7886       7885       7995       7996       8007       8006  
      7875       7876       7887       7886       7996       7997       8008       8007  
      7877       7878       7889       7888       7998       7999       8010       8009  
      7878       7879       7890       7889       7999       8000       8011       8010  
      7879       7880       7891       7890       8000       8001       8012       8011  
      7880       7881       7892       7891       8001       8002       8013       8012  
      7881       7882       7893       7892       8002       8003       8014       8013  
      7882       7883       7894       7893       8003       8004       8015       8014  
      7883       7884       7895       7894       8004       8005       8016       8015  
      7884       7885       7896       7895       8005       8006       8017       8016  
      7885       7886       7897       7896       8006       8007       8018       8017  
      7886       7887       7898       7897       8007       8008       8019       8018  
      7888       7889       7900       7899       8009       8010       8021       8020  
      7889       7890       7901       7900       8010       8011       8022       8021  
      7890       7891       7902       7901       8011       8012       8023       8022  
      7891       7892       7903       7902       8012       8013       8024       8023  
      7892       7893       7904       7903       8013       8014       8025       8024  
      7893       7894       7905       7904       8014       8015       8026       8025  
      7894       7895       7906       7905       8015       8016       8027       8026  
      7895       7896       7907       7906       8016       8017       8028       8027  
      7896       7897       7908       7907       8017       8018       8029       8028  
      7897       7898       7909       7908       8018       8019       8030       8029  
      7899       7900       7911       7910       8020       8021       8032       8031  
      7900       7901       7912       7911       8021       8022       8033       8032  
      7901       7902       7913       7912       8022       8023       8034       8033  
      7902       7903       7914       7913       8023       8024       8035       8034  
      7903       7904       7915       7914       8024       8025       8036       8035  
      7904       7905       7916       7915       8025       8026       8037       8036  
      7905       7906       7917       7916       8026       8027       8038       8037  
      7906       7907       7918       7917       8027       8028       8039       8038  
      7907       7908       7919       7918       8028       8029       8040       8039  
      7908       7909       7920       7919       8029       8030       8041       8040  
      7910       7911       7922       7921       8031       8032       8043       8042  
      7911       7912       7923       7922       8032       8033       8044       8043  
      7912       7913       7924       7923       8033       8034       8045       8044  
      7913       7914       7925       7924       8034       8035       8046       8045  
      7914       7915       7926       7925       8035       8036       8047       8046  
      7915       7916       7927       7926       8036       8037       8048       8047  
      7916       7917       7928       7927       8037       8038       8049       8048  
      7917       7918       7929       7928       8038       8039       8050       8049  
      7918       7919       7930       7929       8039       8040       8051       8050  
      7919       7920       7931       7930       8040       8041       8052       8051  
      7921       7922       7933       7932       8042       8043       8054       8053  
      7922       7923       7934       7933       8043       8044       8055       8054  
      7923       7924       7935       7934       8044       8045       8056       8055  
      7924       7925       7936       7935       8045       8046       8057       8056  
      7925       7926       7937       7936       8046       8047       8058       8057  
      7926       7927       7938       7937       8047       8048       8059       8058  
      7927       7928       7939       7938       8048       8049       8060       8059  
      7928       7929       7940       7939       8049       8050       8061       8060  
      7929       7930       7941       7940       8050       8051       8062       8061  
      7930       7931       7942       7941       8051       8052       8063       8062  
      7932       7933       7944       7943       8053       8054       8065       8064  
      7933       7934       7945       7944       8054       8055       8066       8065  
      7934       7935       7946       7945       8055       8056       8067       8066  
      7935       7936       7947       7946       8056       8057       8068       8067  
      7936       7937       7948       7947       8057       8058       8069       8068  
      7937       7938       7949       7948       8058       8059       8070       8069  
      7938       7939       7950       7949       8059       8060       8071       8070  
      7939       7940       7951       7950       8060       8061       8072       8071  
      7940       7941       7952       7951       8061       8062       8073       8072  
      7941       7942       7953       7952       8062       8063       8074       8073  
      7943       7944       7955       7954       8064       8065       8076       8075  
      7944       7945       7956       7955       8065       8066       8077       8076  
      7945       7946       7957       7956       8066       8067       8078       8077  
      7946       7947       7958       7957       8067       8068       8079       8078  
      7947       7948       7959       7958       8068       8069       8080       8079  
      7948       7949       7960       7959       8069       8070       8081       8080  
      7949       7950       7961       7960       8070       8071       8082       8081  
      7950       7951       7962       7961       8071       8072       8083       8082  
      7951       7952       7963       7962       8072       8073       8084       8083  
      7952       7953       7964       7963       8073       8074       8085       8084  
      7954       7955       7966       7965       8075       8076       8087       8086  
      7955       7956       7967       7966       8076       8077       8088       8087  
      7956       7957       7968       7967       8077       8078       8089       8088  
      7957       7958       7969       7968       8078       8079       8090       8089  
      7958       7959       7970       7969       8079       8080       8091       8090  
      7959       7960       7971       7970       8080       8081       8092       8091  
      7960       7961       7972       7971       8081       8082       8093       8092  
      7961       7962       7973       7972       8082       8083       8094       8093  
      7962       7963       7974       7973       8083       8084       8095       8094  
      7963       7964       7975       7974       8084       8085       8096       8095  
      7965       7966       7977       7976       8086       8087       8098       8097  
      7966       7967       7978       7977       8087       8088       8099       8098  
      7967       7968       7979       7978       8088       8089       8100       8099  
      7968       7969       7980       7979       8089       8090       8101       8100  
      7969       7970       7981       7980       8090       8091       8102       8101  
      7970       7971       7982       7981       8091       8092       8103       8102  
      7971       7972       7983       7982       8092       8093       8104       8103  
      7972       7973       7984       7983       8093       8094       8105       8104  
      7973       7974       7985       7984       8094       8095       8106       8105  
      7974       7975       7986       7985       8095       8096       8107       8106  
      7987       7988       7999       7998       8108       8109       8120       8119  
      7988       7989       8000       7999       8109       8110       8121       8120  
      7989       7990       8001       8000       8110       8111       8122       8121  
      7990       7991       8002       8001       8111       8112       8123       8122  
      7991       7992       8003       8002       8112       8113       8124       8123  
      7992       7993       8004       8003       8113       8114       8125       8124  
      7993       7994       8005       8004       8114       8115       8126       8125  
      7994       7995       8006       8005       8115       8116       8127       8126  
      7995       7996       8007       8006       8116       8117       8128       8127  
      7996       7997       8008       8007       8117       8118       8129       8128  
      7998       7999       8010       8009       8119       8120       8131       8130  
      7999       8000       8011       8010       8120       8121       8132       8131  
      8000       8001       8012       8011       8121       8122       8133       8132  
      8001       8002       8013       8012       8122       8123       8134       8133  
      8002       8003       8014       8013       8123       8124       8135       8134  
      8003       8004       8015       8014       8124       8125       8136       8135  
      8004       8005       8016       8015       8125       8126       8137       8136  
      8005       8006       8017       8016       8126       8127       8138       8137  
      8006       8007       8018       8017       8127       8128       8139       8138  
      8007       8008       8019       8018       8128       8129       8140       8139  
      8009       8010       8021       8020       8130       8131       8142       8141  
      8010       8011       8022       8021       8131       8132       8143       8142  
      8011       8012       8023       8022       8132       8133       8144       8143  
      8012       8013       8024       8023       8133       8134       8145       8144  
      8013       8014       8025       8024       8134       8135       8146       8145  
      8014       8015       8026       8025       8135       8136       8147       8146  
      8015       8016       8027       8026       8136       8137       8148       8147  
      8016       8017       8028       8027       8137       8138       8149       8148  
      8017       8018       8029       8028       8138       8139       8150       8149  
      8018       8019       8030       8029       8139       8140       8151       8150  
      8020       8021       8032       8031       8141       8142       8153       8152  
      8021       8022       8033       8032       8142       8143       8154       8153  
      8022       8023       8034       8033       8143       8144       8155       8154  
      8023       8024       8035       8034       8144       8145       8156       8155  
      8024       8025       8036       8035       8145       8146       8157       8156  
      8025       8026       8037       8036       8146       8147       8158       8157  
      8026       8027       8038       8037       8147       8148       8159       8158  
      8027       8028       8039       8038       8148       8149       8160       8159  
      8028       8029       8040       8039       8149       8150       8161       8160  
      8029       8030       8041       8040       8150       8151       8162       8161  
      8031       8032       8043       8042       8152       8153       8164       8163  
      8032       8033       8044       8043       8153       8154       8165       8164  
      8033       8034       8045       8044       8154       8155       8166       8165  
      8034       8035       8046       8045       8155       8156       8167       8166  
      8035       8036       8047       8046       8156       8157       8168       8167  
      8036       8037       8048       8047       8157       8158       8169       8168  
      8037       8038       8049       8048       8158       8159       8170       8169  
      8038       8039       8050       8049       8159       8160       8171       8170  
      8039       8040       8051       8050       8160       8161       8172       8171  
      8040       8041       8052       8051       8161       8162       8173       8172  
      8042       8043       8054       8053       8163       8164       8175       8174  
      8043       8044       8055       8054       8164       8165       8176       8175  
      8044       8045       8056       8055       8165       8166       8177       8176  
      8045       8046       8057       8056       8166       8167       8178       8177  
      8046       8047       8058       8057       8167       8168       8179       8178  
      8047       8048       8059       8058       8168       8169       8180       8179  
      8048       8049       8060       8059       8169       8170       8181       8180  
      8049       8050       8061       8060       8170       8171       8182       8181  
      8050       8051       8062       8061       8171       8172       8183       8182  
      8051       8052       8063       8062       8172       8173       8184       8183  
      8053       8054       8065       8064       8174       8175       8186       8185  
      8054       8055       8066       8065       8175       8176       8187       8186  
      8055       8056       8067       8066       8176       8177       8188       8187  
      8056       8057       8068       8067       8177       8178       8189       8188  
      8057       8058       8069       8068       8178       8179       8190       8189  
      8058       8059       8070       8069       8179       8180       8191       8190  
      8059       8060       8071       8070       8180       8181       8192       8191  
      8060       8061       8072       8071       8181       8182       8193       8192  
      8061       8062       8073       8072       8182       8183       8194       8193  
      8062       8063       8074       8073       8183       8184       8195       8194  
      8064       8065       8076       8075       8185       8186       8197       8196  
      8065       8066       8077       8076       8186       8187       8198       8197  
      8066       8067       8078       8077       8187       8188       8199       8198  
      8067       8068       8079       8078       8188       8189       8200       8199  
      8068       8069       8080       8079       8189       8190       8201       8200  
      8069       8070       8081       8080       8190       8191       8202       8201  
      8070       8071       8082       8081       8191       8192       8203       8202  
      8071       8072       8083       8082       8192       8193       8204       8203  
      8072       8073       8084       8083       8193       8194       8205       8204  
      8073       8074       8085       8084       8194       8195       8206       8205  
      8075       8076       8087       8086       8196       8197       8208       8207  
      8076       8077       8088       8087       8197       8198       8209       8208  
      8077       8078       8089       8088       8198       8199       8210       8209  
      8078       8079       8090       8089       8199       8200       8211       8210  
      8079       8080       8091       8090       8200       8201       8212       8211  
      8080       8081       8092       8091       8201       8202       8213       8212  
      8081       8082       8093       8092       8202       8203       8214       8213  
      8082       8083       8094       8093       8203       8204       8215       8214  
      8083       8084       8095       8094       8204       8205       8216       8215  
      8084       8085       8096       8095       8205       8206       8217       8216  
      8086       8087       8098       8097       8207       8208       8219       8218  
      8087       8088       8099       8098       8208       8209       8220       8219  
      8088       8089       8100       8099       8209       8210       8221       8220  
      8089       8090       8101       8100       8210       8211       8222       8221  
      8090       8091       8102       8101       8211       8212       8223       8222  
      8091       8092       8103       8102       8212       8213       8224       8223  
      8092       8093       8104       8103       8213       8214       8225       8224  
      8093       8094       8105       8104       8214       8215       8226       8225  
      8094       8095       8106       8105       8215       8216       8227       8226  
      8095       8096       8107       8106       8216       8217       8228       8227  
      8108       8109       8120       8119       8229       8230       8241       8240  
      8109       8110       8121       8120       8230       8231       8242       8241  
      8110       8111       8122       8121       8231       8232       8243       8242  
      8111       8112       8123       8122       8232       8233       8244       8243  
      8112       8113       8124       8123       8233       8234       8245       8244  
      8113       8114       8125       8124       8234       8235       8246       8245  
      8114       8115       8126       8125       8235       8236       8247       8246  
      8115       8116       8127       8126       8236       8237       8248       8247  
      8116       8117       8128       8127       8237       8238       8249       8248  
      8117       8118       8129       8128       8238       8239       8250       8249  
      8119       8120       8131       8130       8240       8241       8252       8251  
      8120       8121       8132       8131       8241       8242       8253       8252  
      8121       8122       8133       8132       8242       8243       8254       8253  
      8122       8123       8134       8133       8243       8244       8255       8254  
      8123       8124       8135       8134       8244       8245       8256       8255  
      8124       8125       8136       8135       8245       8246       8257       8256  
      8125       8126       8137       8136       8246       8247       8258       8257  
      8126       8127       8138       8137       8247       8248       8259       8258  
      8127       8128       8139       8138       8248       8249       8260       8259  
      8128       8129       8140       8139       8249       8250       8261       8260  
      8130       8131       8142       8141       8251       8252       8263       8262  
      8131       8132       8143       8142       8252       8253       8264       8263  
      8132       8133       8144       8143       8253       8254       8265       8264  
      8133       8134       8145       8144       8254       8255       8266       8265  
      8134       8135       8146       8145       8255       8256       8267       8266  
      8135       8136       8147       8146       8256       8257       8268       8267  
      8136       8137       8148       8147       8257       8258       8269       8268  
      8137       8138       8149       8148       8258       8259       8270       8269  
      8138       8139       8150       8149       8259       8260       8271       8270  
      8139       8140       8151       8150       8260       8261       8272       8271  
      8141       8142       8153       8152       8262       8263       8274       8273  
      8142       8143       8154       8153       8263       8264       8275       8274  
      8143       8144       8155       8154       8264       8265       8276       8275  
      8144       8145       8156       8155       8265       8266       8277       8276  
      8145       8146       8157       8156       8266       8267       8278       8277  
      8146       8147       8158       8157       8267       8268       8279       8278  
      8147       8148       8159       8158       8268       8269       8280       8279  
      8148       8149       8160       8159       8269       8270       8281       8280  
      8149       8150       8161       8160       8270       8271       8282       8281  
      8150       8151       8162       8161       8271       8272       8283       8282  
      8152       8153       8164       8163       8273       8274       8285       8284  
      8153       8154       8165       8164       8274       8275       8286       8285  
      8154       8155       8166       8165       8275       8276       8287       8286  
      8155       8156       8167       8166       8276       8277       8288       8287  
      8156       8157       8168       8167       8277       8278       8289       8288  
      8157       8158       8169       8168       8278       8279       8290       8289  
      8158       8159       8170       8169       8279       8280       8291       8290  
      8159       8160       8171       8170       8280       8281       8292       8291  
      8160       8161       8172       8171       8281       8282       8293       8292  
      8161       8162       8173       8172       8282       8283       8294       8293  
      8163       8164       8175       8174       8284       8285       8296       8295  
      8164       8165       8176       8175       8285       8286       8297       8296  
      8165       8166       8177       8176       8286       8287       8298       8297  
      8166       8167       8178       8177       8287       8288       8299       8298  
      8167       8168       8179       8178       8288       8289       8300       8299  
      8168       8169       8180       8179       8289       8290       8301       8300  
      8169       8170       8181       8180       8290       8291       8302       8301  
      8170       8171       8182       8181       8291       8292       8303       8302  
      8171       8172       8183       8182       8292       8293       8304       8303  
      8172       8173       8184       8183       8293       8294       8305       8304  
      8174       8175       8186       8185       8295       8296       8307       8306  
      8175       8176       8187       8186       8296       8297       8308       8307  
      8176       8177       8188       8187       8297       8298       8309       8308  
      8177       8178       8189       8188       8298       8299       8310       8309  
      8178       8179       8190       8189       8299       8300       8311       8310  
      8179       8180       8191       8190       8300       8301       8312       8311  
      8180       8181       8192       8191       8301       8302       8313       8312  
      8181       8182       8193       8192       8302       8303       8314       8313  
      8182       8183       8194       8193       8303       8304       8315       8314  
      8183       8184       8195       8194       8304       8305       8316       8315  
      8185       8186       8197       8196       8306       8307       8318       8317  
      8186       8187       8198       8197       8307       8308       8319       8318  
      8187       8188       8199       8198       8308       8309       8320       8319  
      8188       8189       8200       8199       8309       8310       8321       8320  
      8189       8190       8201       8200       8310       8311       8322       8321  
      8190       8191       8202       8201       8311       8312       8323       8322  
      8191       8192       8203       8202       8312       8313       8324       8323  
      8192       8193       8204       8203       8313       8314       8325       8324  
      8193       8194       8205       8204       8314       8315       8326       8325  
      8194       8195       8206       8205       8315       8316       8327       8326  
      8196       8197       8208       8207       8317       8318       8329       8328  
      8197       8198       8209       8208       8318       8319       8330       8329  
      8198       8199       8210       8209       8319       8320       8331       8330  
      8199       8200       8211       8210       8320       8321       8332       8331  
      8200       8201       8212       8211       8321       8322       8333       8332  
      8201       8202       8213       8212       8322       8323       8334       8333  
      8202       8203       8214       8213       8323       8324       8335       8334  
      8203       8204       8215       8214       8324       8325       8336       8335  
      8204       8205       8216       8215       8325       8326       8337       8336  
      8205       8206       8217       8216       8326       8327       8338       8337  
      8207       8208       8219       8218       8328       8329       8340       8339  
      8208       8209       8220       8219       8329       8330       8341       8340  
      8209       8210       8221       8220       8330       8331       8342       8341  
      8210       8211       8222       8221       8331       8332       8343       8342  
      8211       8212       8223       8222       8332       8333       8344       8343  
      8212       8213       8224       8223       8333       8334       8345       8344  
      8213       8214       8225       8224       8334       8335       8346       8345  
      8214       8215       8226       8225       8335       8336       8347       8346  
      8215       8216       8227       8226       8336       8337       8348       8347  
      8216       8217       8228       8227       8337       8338       8349       8348  
      8229       8230       8241       8240       8350       8351       8362       8361  
      8230       8231       8242       8241       8351       8352       8363       8362  
      8231       8232       8243       8242       8352       8353       8364       8363  
      8232       8233       8244       8243       8353       8354       8365       8364  
      8233       8234       8245       8244       8354       8355       8366       8365  
      8234       8235       8246       8245       8355       8356       8367       8366  
      8235       8236       8247       8246       8356       8357       8368       8367  
      8236       8237       8248       8247       8357       8358       8369       8368  
      8237       8238       8249       8248       8358       8359       8370       8369  
      8238       8239       8250       8249       8359       8360       8371       8370  
      8240       8241       8252       8251       8361       8362       8373       8372  
      8241       8242       8253       8252       8362       8363       8374       8373  
      8242       8243       8254       8253       8363       8364       8375       8374  
      8243       8244       8255       8254       8364       8365       8376       8375  
      8244       8245       8256       8255       8365       8366       8377       8376  
      8245       8246       8257       8256       8366       8367       8378       8377  
      8246       8247       8258       8257       8367       8368       8379       8378  
      8247       8248       8259       8258       8368       8369       8380       8379  
      8248       8249       8260       8259       8369       8370       8381       8380  
      8249       8250       8261       8260       8370       8371       8382       8381  
      8251       8252       8263       8262       8372       8373       8384       8383  
      8252       8253       8264       8263       8373       8374       8385       8384  
      8253       8254       8265       8264       8374       8375       8386       8385  
      8254       8255       8266       8265       8375       8376       8387       8386  
      8255       8256       8267       8266       8376       8377       8388       8387  
      8256       8257       8268       8267       8377       8378       8389       8388  
      8257       8258       8269       8268       8378       8379       8390       8389  
      8258       8259       8270       8269       8379       8380       8391       8390  
      8259       8260       8271       8270       8380       8381       8392       8391  
      8260       8261       8272       8271       8381       8382       8393       8392  
      8262       8263       8274       8273       8383       8384       8395       8394  
      8263       8264       8275       8274       8384       8385       8396       8395  
      8264       8265       8276       8275       8385       8386       8397       8396  
      8265       8266       8277       8276       8386       8387       8398       8397  
      8266       8267       8278       8277       8387       8388       8399       8398  
      8267       8268       8279       8278       8388       8389       8400       8399  
      8268       8269       8280       8279       8389       8390       8401       8400  
      8269       8270       8281       8280       8390       8391       8402       8401  
      8270       8271       8282       8281       8391       8392       8403       8402  
      8271       8272       8283       8282       8392       8393       8404       8403  
      8273       8274       8285       8284       8394       8395       8406       8405  
      8274       8275       8286       8285       8395       8396       8407       8406  
      8275       8276       8287       8286       8396       8397       8408       8407  
      8276       8277       8288       8287       8397       8398       8409       8408  
      8277       8278       8289       8288       8398       8399       8410       8409  
      8278       8279       8290       8289       8399       8400       8411       8410  
      8279       8280       8291       8290       8400       8401       8412       8411  
      8280       8281       8292       8291       8401       8402       8413       8412  
      8281       8282       8293       8292       8402       8403       8414       8413  
      8282       8283       8294       8293       8403       8404       8415       8414  
      8284       8285       8296       8295       8405       8406       8417       8416  
      8285       8286       8297       8296       8406       8407       8418       8417  
      8286       8287       8298       8297       8407       8408       8419       8418  
      8287       8288       8299       8298       8408       8409       8420       8419  
      8288       8289       8300       8299       8409       8410       8421       8420  
      8289       8290       8301       8300       8410       8411       8422       8421  
      8290       8291       8302       8301       8411       8412       8423       8422  
      8291       8292       8303       8302       8412       8413       8424       8423  
      8292       8293       8304       8303       8413       8414       8425       8424  
      8293       8294       8305       8304       8414       8415       8426       8425  
      8295       8296       8307       8306       8416       8417       8428       8427  
      8296       8297       8308       8307       8417       8418       8429       8428  
      8297       8298       8309       8308       8418       8419       8430       8429  
      8298       8299       8310       8309       8419       8420       8431       8430  
      8299       8300       8311       8310       8420       8421       8432       8431  
      8300       8301       8312       8311       8421       8422       8433       8432  
      8301       8302       8313       8312       8422       8423       8434       8433  
      8302       8303       8314       8313       8423       8424       8435       8434  
      8303       8304       8315       8314       8424       8425       8436       8435  
      8304       8305       8316       8315       8425       8426       8437       8436  
      8306       8307       8318       8317       8427       8428       8439       8438  
      8307       8308       8319       8318       8428       8429       8440       8439  
      8308       8309       8320       8319       8429       8430       8441       8440  
      8309       8310       8321       8320       8430       8431       8442       8441  
      8310       8311       8322       8321       8431       8432       8443       8442  
      8311       8312       8323       8322       8432       8433       8444       8443  
      8312       8313       8324       8323       8433       8434       8445       8444  
      8313       8314       8325       8324       8434       8435       8446       8445  
      8314       8315       8326       8325       8435       8436       8447       8446  
      8315       8316       8327       8326       8436       8437       8448       8447  
      8317       8318       8329       8328       8438       8439       8450       8449  
      8318       8319       8330       8329       8439       8440       8451       8450  
      8319       8320       8331       8330       8440       8441       8452       8451  
      8320       8321       8332       8331       8441       8442       8453       8452  
      8321       8322       8333       8332       8442       8443       8454       8453  
      8322       8323       8334       8333       8443       8444       8455       8454  
      8323       8324       8335       8334       8444       8445       8456       8455  
      8324       8325       8336       8335       8445       8446       8457       8456  
      8325       8326       8337       8336       8446       8447       8458       8457  
      8326       8327       8338       8337       8447       8448       8459       8458  
      8328       8329       8340       8339       8449       8450       8461       8460  
      8329       8330       8341       8340       8450       8451       8462       8461  
      8330       8331       8342       8341       8451       8452       8463       8462  
      8331       8332       8343       8342       8452       8453       8464       8463  
      8332       8333       8344       8343       8453       8454       8465       8464  
      8333       8334       8345       8344       8454       8455       8466       8465  
      8334       8335       8346       8345       8455       8456       8467       8466  
      8335       8336       8347       8346       8456       8457       8468       8467  
      8336       8337       8348       8347       8457       8458       8469       8468  
      8337       8338       8349       8348       8458       8459       8470       8469  
      8350       8351       8362       8361       8471       8472       8483       8482  
      8351       8352       8363       8362       8472       8473       8484       8483  
      8352       8353       8364       8363       8473       8474       8485       8484  
      8353       8354       8365       8364       8474       8475       8486       8485  
      8354       8355       8366       8365       8475       8476       8487       8486  
      8355       8356       8367       8366       8476       8477       8488       8487  
      8356       8357       8368       8367       8477       8478       8489       8488  
      8357       8358       8369       8368       8478       8479       8490       8489  
      8358       8359       8370       8369       8479       8480       8491       8490  
      8359       8360       8371       8370       8480       8481       8492       8491  
      8361       8362       8373       8372       8482       8483       8494       8493  
      8362       8363       8374       8373       8483       8484       8495       8494  
      8363       8364       8375       8374       8484       8485       8496       8495  
      8364       8365       8376       8375       8485       8486       8497       8496  
      8365       8366       8377       8376       8486       8487       8498       8497  
      8366       8367       8378       8377       8487       8488       8499       8498  
      8367       8368       8379       8378       8488       8489       8500       8499  
      8368       8369       8380       8379       8489       8490       8501       8500  
      8369       8370       8381       8380       8490       8491       8502       8501  
      8370       8371       8382       8381       8491       8492       8503       8502  
      8372       8373       8384       8383       8493       8494       8505       8504  
      8373       8374       8385       8384       8494       8495       8506       8505  
      8374       8375       8386       8385       8495       8496       8507       8506  
      8375       8376       8387       8386       8496       8497       8508       8507  
      8376       8377       8388       8387       8497       8498       8509       8508  
      8377       8378       8389       8388       8498       8499       8510       8509  
      8378       8379       8390       8389       8499       8500       8511       8510  
      8379       8380       8391       8390       8500       8501       8512       8511  
      8380       8381       8392       8391       8501       8502       8513       8512  
      8381       8382       8393       8392       8502       8503       8514       8513  
      8383       8384       8395       8394       8504       8505       8516       8515  
      8384       8385       8396       8395       8505       8506       8517       8516  
      8385       8386       8397       8396       8506       8507       8518       8517  
      8386       8387       8398       8397       8507       8508       8519       8518  
      8387       8388       8399       8398       8508       8509       8520       8519  
      8388       8389       8400       8399       8509       8510       8521       8520  
      8389       8390       8401       8400       8510       8511       8522       8521  
      8390       8391       8402       8401       8511       8512       8523       8522  
      8391       8392       8403       8402       8512       8513       8524       8523  
      8392       8393       8404       8403       8513       8514       8525       8524  
      8394       8395       8406       8405       8515       8516       8527       8526  
      8395       8396       8407       8406       8516       8517       8528       8527  
      8396       8397       8408       8407       8517       8518       8529       8528  
      8397       8398       8409       8408       8518       8519       8530       8529  
      8398       8399       8410       8409       8519       8520       8531       8530  
      8399       8400       8411       8410       8520       8521       8532       8531  
      8400       8401       8412       8411       8521       8522       8533       8532  
      8401       8402       8413       8412       8522       8523       8534       8533  
      8402       8403       8414       8413       8523       8524       8535       8534  
      8403       8404       8415       8414       8524       8525       8536       8535  
      8405       8406       8417       8416       8526       8527       8538       8537  
      8406       8407       8418       8417       8527       8528       8539       8538  
      8407       8408       8419       8418       8528       8529       8540       8539  
      8408       8409       8420       8419       8529       8530       8541       8540  
      8409       8410       8421       8420       8530       8531       8542       8541  
      8410       8411       8422       8421       8531       8532       8543       8542  
      8411       8412       8423       8422       8532       8533       8544       8543  
      8412       8413       8424       8423       8533       8534       8545       8544  
      8413       8414       8425       8424       8534       8535       8546       8545  
      8414       8415       8426       8425       8535       8536       8547       8546  
      8416       8417       8428       8427       8537       8538       8549       8548  
      8417       8418       8429       8428       8538       8539       8550       8549  
      8418       8419       8430       8429       8539       8540       8551       8550  
      8419       8420       8431       8430       8540       8541       8552       8551  
      8420       8421       8432       8431       8541       8542       8553       8552  
      8421       8422       8433       8432       8542       8543       8554       8553  
      8422       8423       8434       8433       8543       8544       8555       8554  
      8423       8424       8435       8434       8544       8545       8556       8555  
      8424       8425       8436       8435       8545       8546       8557       8556  
      8425       8426       8437       8436       8546       8547       8558       8557  
      8427       8428       8439       8438       8548       8549       8560       8559  
      8428       8429       8440       8439       8549       8550       8561       8560  
      8429       8430       8441       8440       8550       8551       8562       8561  
      8430       8431       8442       8441       8551       8552       8563       8562  
      8431       8432       8443       8442       8552       8553       8564       8563  
      8432       8433       8444       8443       8553       8554       8565       8564  
      8433       8434       8445       8444       8554       8555       8566       8565  
      8434       8435       8446       8445       8555       8556       8567       8566  
      8435       8436       8447       8446       8556       8557       8568       8567  
      8436       8437       8448       8447       8557       8558       8569       8568  
      8438       8439       8450       8449       8559       8560       8571       8570  
      8439       8440       8451       8450       8560       8561       8572       8571  
      8440       8441       8452       8451       8561       8562       8573       8572  
      8441       8442       8453       8452       8562       8563       8574       8573  
      8442       8443       8454       8453       8563       8564       8575       8574  
      8443       8444       8455       8454       8564       8565       8576       8575  
      8444       8445       8456       8455       8565       8566       8577       8576  
      8445       8446       8457       8456       8566       8567       8578       8577  
      8446       8447       8458       8457       8567       8568       8579       8578  
      8447       8448       8459       8458       8568       8569       8580       8579  
      8449       8450       8461       8460       8570       8571       8582       8581  
      8450       8451       8462       8461       8571       8572       8583       8582  
      8451       8452       8463       8462       8572       8573       8584       8583  
      8452       8453       8464       8463       8573       8574       8585       8584  
      8453       8454       8465       8464       8574       8575       8586       8585  
      8454       8455       8466       8465       8575       8576       8587       8586  
      8455       8456       8467       8466       8576       8577       8588       8587  
      8456       8457       8468       8467       8577       8578       8589       8588  
      8457       8458       8469       8468       8578       8579       8590       8589  
      8458       8459       8470       8469       8579       8580       8591       8590  
      8471       8472       8483       8482       8592       8593       8604       8603  
      8472       8473       8484       8483       8593       8594       8605       8604  
      8473       8474       8485       8484       8594       8595       8606       8605  
      8474       8475       8486       8485       8595       8596       8607       8606  
      8475       8476       8487       8486       8596       8597       8608       8607  
      8476       8477       8488       8487       8597       8598       8609       8608  
      8477       8478       8489       8488       8598       8599       8610       8609  
      8478       8479       8490       8489       8599       8600       8611       8610  
      8479       8480       8491       8490       8600       8601       8612       8611  
      8480       8481       8492       8491       8601       8602       8613       8612  
      8482       8483       8494       8493       8603       8604       8615       8614  
      8483       8484       8495       8494       8604       8605       8616       8615  
      8484       8485       8496       8495       8605       8606       8617       8616  
      8485       8486       8497       8496       8606       8607       8618       8617  
      8486       8487       8498       8497       8607       8608       8619       8618  
      8487       8488       8499       8498       8608       8609       8620       8619  
      8488       8489       8500       8499       8609       8610       8621       8620  
      8489       8490       8501       8500       8610       8611       8622       8621  
      8490       8491       8502       8501       8611       8612       8623       8622  
      8491       8492       8503       8502       8612       8613       8624       8623  
      8493       8494       8505       8504       8614       8615       8626       8625  
      8494       8495       8506       8505       8615       8616       8627       8626  
      8495       8496       8507       8506       8616       8617       8628       8627  
      8496       8497       8508       8507       8617       8618       8629       8628  
      8497       8498       8509       8508       8618       8619       8630       8629  
      8498       8499       8510       8509       8619       8620       8631       8630  
      8499       8500       8511       8510       8620       8621       8632       8631  
      8500       8501       8512       8511       8621       8622       8633       8632  
      8501       8502       8513       8512       8622       8623       8634       8633  
      8502       8503       8514       8513       8623       8624       8635       8634  
      8504       8505       8516       8515       8625       8626       8637       8636  
      8505       8506       8517       8516       8626       8627       8638       8637  
      8506       8507       8518       8517       8627       8628       8639       8638  
      8507       8508       8519       8518       8628       8629       8640       8639  
      8508       8509       8520       8519       8629       8630       8641       8640  
      8509       8510       8521       8520       8630       8631       8642       8641  
      8510       8511       8522       8521       8631       8632       8643       8642  
      8511       8512       8523       8522       8632       8633       8644       8643  
      8512       8513       8524       8523       8633       8634       8645       8644  
      8513       8514       8525       8524       8634       8635       8646       8645  
      8515       8516       8527       8526       8636       8637       8648       8647  
      8516       8517       8528       8527       8637       8638       8649       8648  
      8517       8518       8529       8528       8638       8639       8650       8649  
      8518       8519       8530       8529       8639       8640       8651       8650  
      8519       8520       8531       8530       8640       8641       8652       8651  
      8520       8521       8532       8531       8641       8642       8653       8652  
      8521       8522       8533       8532       8642       8643       8654       8653  
      8522       8523       8534       8533       8643       8644       8655       8654  
      8523       8524       8535       8534       8644       8645       8656       8655  
      8524       8525       8536       8535       8645       8646       8657       8656  
      8526       8527       8538       8537       8647       8648       8659       8658  
      8527       8528       8539       8538       8648       8649       8660       8659  
      8528       8529       8540       8539       8649       8650       8661       8660  
      8529       8530       8541       8540       8650       8651       8662       8661  
      8530       8531       8542       8541       8651       8652       8663       8662  
      8531       8532       8543       8542       8652       8653       8664       8663  
      8532       8533       8544       8543       8653       8654       8665       8664  
      8533       8534       8545       8544       8654       8655       8666       8665  
      8534       8535       8546       8545       8655       8656       8667       8666  
      8535       8536       8547       8546       8656       8657       8668       8667  
      8537       8538       8549       8548       8658       8659       8670       8669  
      8538       8539       8550       8549       8659       8660       8671       8670  
      8539       8540       8551       8550       8660       8661       8672       8671  
      8540       8541       8552       8551       8661       8662       8673       8672  
      8541       8542       8553       8552       8662       8663       8674       8673  
      8542       8543       8554       8553       8663       8664       8675       8674  
      8543       8544       8555       8554       8664       8665       8676       8675  
      8544       8545       8556       8555       8665       8666       8677       8676  
      8545       8546       8557       8556       8666       8667       8678       8677  
      8546       8547       8558       8557       8667       8668       8679       8678  
      8548       8549       8560       8559       8669       8670       8681       8680  
      8549       8550       8561       8560       8670       8671       8682       8681  
      8550       8551       8562       8561       8671       8672       8683       8682  
      8551       8552       8563       8562       8672       8673       8684       8683  
      8552       8553       8564       8563       8673       8674       8685       8684  
      8553       8554       8565       8564       8674       8675       8686       8685  
      8554       8555       8566       8565       8675       8676       8687       8686  
      8555       8556       8567       8566       8676       8677       8688       8687  
      8556       8557       8568       8567       8677       8678       8689       8688  
      8557       8558       8569       8568       8678       8679       8690       8689  
      8559       8560       8571       8570       8680       8681       8692       8691  
      8560       8561       8572       8571       8681       8682       8693       8692  
      8561       8562       8573       8572       8682       8683       8694       8693  
      8562       8563       8574       8573       8683       8684       8695       8694  
      8563       8564       8575       8574       8684       8685       8696       8695  
      8564       8565       8576       8575       8685       8686       8697       8696  
      8565       8566       8577       8576       8686       8687       8698       8697  
      8566       8567       8578       8577       8687       8688       8699       8698  
      8567       8568       8579       8578       8688       8689       8700       8699  
      8568       8569       8580       8579       8689       8690       8701       8700  
      8570       8571       8582       8581       8691       8692       8703       8702  
      8571       8572       8583       8582       8692       8693       8704       8703  
      8572       8573       8584       8583       8693       8694       8705       8704  
      8573       8574       8585       8584       8694       8695       8706       8705  
      8574       8575       8586       8585       8695       8696       8707       8706  
      8575       8576       8587       8586       8696       8697       8708       8707  
      8576       8577       8588       8587       8697       8698       8709       8708  
      8577       8578       8589       8588       8698       8699       8710       8709  
      8578       8579       8590       8589       8699       8700       8711       8710  
      8579       8580       8591       8590       8700       8701       8712       8711  
      8592       8593       8604       8603       8713       8714       8725       8724  
      8593       8594       8605       8604       8714       8715       8726       8725  
      8594       8595       8606       8605       8715       8716       8727       8726  
      8595       8596       8607       8606       8716       8717       8728       8727  
      8596       8597       8608       8607       8717       8718       8729       8728  
      8597       8598       8609       8608       8718       8719       8730       8729  
      8598       8599       8610       8609       8719       8720       8731       8730  
      8599       8600       8611       8610       8720       8721       8732       8731  
      8600       8601       8612       8611       8721       8722       8733       8732  
      8601       8602       8613       8612       8722       8723       8734       8733  
      8603       8604       8615       8614       8724       8725       8736       8735  
      8604       8605       8616       8615       8725       8726       8737       8736  
      8605       8606       8617       8616       8726       8727       8738       8737  
      8606       8607       8618       8617       8727       8728       8739       8738  
      8607       8608       8619       8618       8728       8729       8740       8739  
      8608       8609       8620       8619       8729       8730       8741       8740  
      8609       8610       8621       8620       8730       8731       8742       8741  
      8610       8611       8622       8621       8731       8732       8743       8742  
      8611       8612       8623       8622       8732       8733       8744       8743  
      8612       8613       8624       8623       8733       8734       8745       8744  
      8614       8615       8626       8625       8735       8736       8747       8746  
      8615       8616       8627       8626       8736       8737       8748       8747  
      8616       8617       8628       8627       8737       8738       8749       8748  
      8617       8618       8629       8628       8738       8739       8750       8749  
      8618       8619       8630       8629       8739       8740       8751       8750  
      8619       8620       8631       8630       8740       8741       8752       8751  
      8620       8621       8632       8631       8741       8742       8753       8752  
      8621       8622       8633       8632       8742       8743       8754       8753  
      8622       8623       8634       8633       8743       8744       8755       8754  
      8623       8624       8635       8634       8744       8745       8756       8755  
      8625       8626       8637       8636       8746       8747       8758       8757  
      8626       8627       8638       8637       8747       8748       8759       8758  
      8627       8628       8639       8638       8748       8749       8760       8759  
      8628       8629       8640       8639       8749       8750       8761       8760  
      8629       8630       8641       8640       8750       8751       8762       8761  
      8630       8631       8642       8641       8751       8752       8763       8762  
      8631       8632       8643       8642       8752       8753       8764       8763  
      8632       8633       8644       8643       8753       8754       8765       8764  
      8633       8634       8645       8644       8754       8755       8766       8765  
      8634       8635       8646       8645       8755       8756       8767       8766  
      8636       8637       8648       8647       8757       8758       8769       8768  
      8637       8638       8649       8648       8758       8759       8770       8769  
      8638       8639       8650       8649       8759       8760       8771       8770  
      8639       8640       8651       8650       8760       8761       8772       8771  
      8640       8641       8652       8651       8761       8762       8773       8772  
      8641       8642       8653       8652       8762       8763       8774       8773  
      8642       8643       8654       8653       8763       8764       8775       8774  
      8643       8644       8655       8654       8764       8765       8776       8775  
      8644       8645       8656       8655       8765       8766       8777       8776  
      8645       8646       8657       8656       8766       8767       8778       8777  
      8647       8648       8659       8658       8768       8769       8780       8779  
      8648       8649       8660       8659       8769       8770       8781       8780  
      8649       8650       8661       8660       8770       8771       8782       8781  
      8650       8651       8662       8661       8771       8772       8783       8782  
      8651       8652       8663       8662       8772       8773       8784       8783  
      8652       8653       8664       8663       8773       8774       8785       8784  
      8653       8654       8665       8664       8774       8775       8786       8785  
      8654       8655       8666       8665       8775       8776       8787       8786  
      8655       8656       8667       8666       8776       8777       8788       8787  
      8656       8657       8668       8667       8777       8778       8789       8788  
      8658       8659       8670       8669       8779       8780       8791       8790  
      8659       8660       8671       8670       8780       8781       8792       8791  
      8660       8661       8672       8671       8781       8782       8793       8792  
      8661       8662       8673       8672       8782       8783       8794       8793  
      8662       8663       8674       8673       8783       8784       8795       8794  
      8663       8664       8675       8674       8784       8785       8796       8795  
      8664       8665       8676       8675       8785       8786       8797       8796  
      8665       8666       8677       8676       8786       8787       8798       8797  
      8666       8667       8678       8677       8787       8788       8799       8798  
      8667       8668       8679       8678       8788       8789       8800       8799  
      8669       8670       8681       8680       8790       8791       8802       8801  
      8670       8671       8682       8681       8791       8792       8803       8802  
      8671       8672       8683       8682       8792       8793       8804       8803  
      8672       8673       8684       8683       8793       8794       8805       8804  
      8673       8674       8685       8684       8794       8795       8806       8805  
      8674       8675       8686       8685       8795       8796       8807       8806  
      8675       8676       8687       8686       8796       8797       8808       8807  
      8676       8677       8688       8687       8797       8798       8809       8808  
      8677       8678       8689       8688       8798       8799       8810       8809  
      8678       8679       8690       8689       8799       8800       8811       8810  
      8680       8681       8692       8691       8801       8802       8813       8812  
      8681       8682       8693       8692       8802       8803       8814       8813  
      8682       8683       8694       8693       8803       8804       8815       8814  
      8683       8684       8695       8694       8804       8805       8816       8815  
      8684       8685       8696       8695       8805       8806       8817       8816  
      8685       8686       8697       8696       8806       8807       8818       8817  
      8686       8687       8698       8697       8807       8808       8819       8818  
      8687       8688       8699       8698       8808       8809       8820       8819  
      8688       8689       8700       8699       8809       8810       8821       8820  
      8689       8690       8701       8700       8810       8811       8822       8821  
      8691       8692       8703       8702       8812       8813       8824       8823  
      8692       8693       8704       8703       8813       8814       8825       8824  
      8693       8694       8705       8704       8814       8815       8826       8825  
      8694       8695       8706       8705       8815       8816       8827       8826  
      8695       8696       8707       8706       8816       8817       8828       8827  
      8696       8697       8708       8707       8817       8818       8829       8828  
      8697       8698       8709       8708       8818       8819       8830       8829  
      8698       8699       8710       8709       8819       8820       8831       8830  
      8699       8700       8711       8710       8820       8821       8832       8831  
      8700       8701       8712       8711       8821       8822       8833       8832  
      8713       8714       8725       8724       8834       8835       8846       8845  
      8714       8715       8726       8725       8835       8836       8847       8846  
      8715       8716       8727       8726       8836       8837       8848       8847  
      8716       8717       8728       8727       8837       8838       8849       8848  
      8717       8718       8729       8728       8838       8839       8850       8849  
      8718       8719       8730       8729       8839       8840       8851       8850  
      8719       8720       8731       8730       8840       8841       8852       8851  
      8720       8721       8732       8731       8841       8842       8853       8852  
      8721       8722       8733       8732       8842       8843       8854       8853  
      8722       8723       8734       8733       8843       8844       8855       8854  
      8724       8725       8736       8735       8845       8846       8857       8856  
      8725       8726       8737       8736       8846       8847       8858       8857  
      8726       8727       8738       8737       8847       8848       8859       8858  
      8727       8728       8739       8738       8848       8849       8860       8859  
      8728       8729       8740       8739       8849       8850       8861       8860  
      8729       8730       8741       8740       8850       8851       8862       8861  
      8730       8731       8742       8741       8851       8852       8863       8862  
      8731       8732       8743       8742       8852       8853       8864       8863  
      8732       8733       8744       8743       8853       8854       8865       8864  
      8733       8734       8745       8744       8854       8855       8866       8865  
      8735       8736       8747       8746       8856       8857       8868       8867  
      8736       8737       8748       8747       8857       8858       8869       8868  
      8737       8738       8749       8748       8858       8859       8870       8869  
      8738       8739       8750       8749       8859       8860       8871       8870  
      8739       8740       8751       8750       8860       8861       8872       8871  
      8740       8741       8752       8751       8861       8862       8873       8872  
      8741       8742       8753       8752       8862       8863       8874       8873  
      8742       8743       8754       8753       8863       8864       8875       8874  
      8743       8744       8755       8754       8864       8865       8876       8875  
      8744       8745       8756       8755       8865       8866       8877       8876  
      8746       8747       8758       8757       8867       8868       8879       8878  
      8747       8748       8759       8758       8868       8869       8880       8879  
      8748       8749       8760       8759       8869       8870       8881       8880  
      8749       8750       8761       8760       8870       8871       8882       8881  
      8750       8751       8762       8761       8871       8872       8883       8882  
      8751       8752       8763       8762       8872       8873       8884       8883  
      8752       8753       8764       8763       8873       8874       8885       8884  
      8753       8754       8765       8764       8874       8875       8886       8885  
      8754       8755       8766       8765       8875       8876       8887       8886  
      8755       8756       8767       8766       8876       8877       8888       8887  
      8757       8758       8769       8768       8878       8879       8890       8889  
      8758       8759       8770       8769       8879       8880       8891       8890  
      8759       8760       8771       8770       8880       8881       8892       8891  
      8760       8761       8772       8771       8881       8882       8893       8892  
      8761       8762       8773       8772       8882       8883       8894       8893  
      8762       8763       8774       8773       8883       8884       8895       8894  
      8763       8764       8775       8774       8884       8885       8896       8895  
      8764       8765       8776       8775       8885       8886       8897       8896  
      8765       8766       8777       8776       8886       8887       8898       8897  
      8766       8767       8778       8777       8887       8888       8899       8898  
      8768       8769       8780       8779       8889       8890       8901       8900  
      8769       8770       8781       8780       8890       8891       8902       8901  
      8770       8771       8782       8781       8891       8892       8903       8902  
      8771       8772       8783       8782       8892       8893       8904       8903  
      8772       8773       8784       8783       8893       8894       8905       8904  
      8773       8774       8785       8784       8894       8895       8906       8905  
      8774       8775       8786       8785       8895       8896       8907       8906  
      8775       8776       8787       8786       8896       8897       8908       8907  
      8776       8777       8788       8787       8897       8898       8909       8908  
      8777       8778       8789       8788       8898       8899       8910       8909  
      8779       8780       8791       8790       8900       8901       8912       8911  
      8780       8781       8792       8791       8901       8902       8913       8912  
      8781       8782       8793       8792       8902       8903       8914       8913  
      8782       8783       8794       8793       8903       8904       8915       8914  
      8783       8784       8795       8794       8904       8905       8916       8915  
      8784       8785       8796       8795       8905       8906       8917       8916  
      8785       8786       8797       8796       8906       8907       8918       8917  
      8786       8787       8798       8797       8907       8908       8919       8918  
      8787       8788       8799       8798       8908       8909       8920       8919  
      8788       8789       8800       8799       8909       8910       8921       8920  
      8790       8791       8802       8801       8911       8912       8923       8922  
      8791       8792       8803       8802       8912       8913       8924       8923  
      8792       8793       8804       8803       8913       8914       8925       8924  
      8793       8794       8805       8804       8914       8915       8926       8925  
      8794       8795       8806       8805       8915       8916       8927       8926  
      8795       8796       8807       8806       8916       8917       8928       8927  
      8796       8797       8808       8807       8917       8918       8929       8928  
      8797       8798       8809       8808       8918       8919       8930       8929  
      8798       8799       8810       8809       8919       8920       8931       8930  
      8799       8800       8811       8810       8920       8921       8932       8931  
      8801       8802       8813       8812       8922       8923       8934       8933  
      8802       8803       8814       8813       8923       8924       8935       8934  
      8803       8804       8815       8814       8924       8925       8936       8935  
      8804       8805       8816       8815       8925       8926       8937       8936  
      8805       8806       8817       8816       8926       8927       8938       8937  
      8806       8807       8818       8817       8927       8928       8939       8938  
      8807       8808       8819       8818       8928       8929       8940       8939  
      8808       8809       8820       8819       8929       8930       8941       8940  
      8809       8810       8821       8820       8930       8931       8942       8941  
      8810       8811       8822       8821       8931       8932       8943       8942  
      8812       8813       8824       8823       8933       8934       8945       8944  
      8813       8814       8825       8824       8934       8935       8946       8945  
      8814       8815       8826       8825       8935       8936       8947       8946  
      8815       8816       8827       8826       8936       8937       8948       8947  
      8816       8817       8828       8827       8937       8938       8949       8948  
      8817       8818       8829       8828       8938       8939       8950       8949  
      8818       8819       8830       8829       8939       8940       8951       8950  
      8819       8820       8831       8830       8940       8941       8952       8951  
      8820       8821       8832       8831       8941       8942       8953       8952  
      8821       8822       8833       8832       8942       8943       8954       8953  
      8834       8835       8846       8845       8955       8956       8967       8966  
      8835       8836       8847       8846       8956       8957       8968       8967  
      8836       8837       8848       8847       8957       8958       8969       8968  
      8837       8838       8849       8848       8958       8959       8970       8969  
      8838       8839       8850       8849       8959       8960       8971       8970  
      8839       8840       8851       8850       8960       8961       8972       8971  
      8840       8841       8852       8851       8961       8962       8973       8972  
      8841       8842       8853       8852       8962       8963       8974       8973  
      8842       8843       8854       8853       8963       8964       8975       8974  
      8843       8844       8855       8854       8964       8965       8976       8975  
      8845       8846       8857       8856       8966       8967       8978       8977  
      8846       8847       8858       8857       8967       8968       8979       8978  
      8847       8848       8859       8858       8968       8969       8980       8979  
      8848       8849       8860       8859       8969       8970       8981       8980  
      8849       8850       8861       8860       8970       8971       8982       8981  
      8850       8851       8862       8861       8971       8972       8983       8982  
      8851       8852       8863       8862       8972       8973       8984       8983  
      8852       8853       8864       8863       8973       8974       8985       8984  
      8853       8854       8865       8864       8974       8975       8986       8985  
      8854       8855       8866       8865       8975       8976       8987       8986  
      8856       8857       8868       8867       8977       8978       8989       8988  
      8857       8858       8869       8868       8978       8979       8990       8989  
      8858       8859       8870       8869       8979       8980       8991       8990  
      8859       8860       8871       8870       8980       8981       8992       8991  
      8860       8861       8872       8871       8981       8982       8993       8992  
      8861       8862       8873       8872       8982       8983       8994       8993  
      8862       8863       8874       8873       8983       8984       8995       8994  
      8863       8864       8875       8874       8984       8985       8996       8995  
      8864       8865       8876       8875       8985       8986       8997       8996  
      8865       8866       8877       8876       8986       8987       8998       8997  
      8867       8868       8879       8878       8988       8989       9000       8999  
      8868       8869       8880       8879       8989       8990       9001       9000  
      8869       8870       8881       8880       8990       8991       9002       9001  
      8870       8871       8882       8881       8991       8992       9003       9002  
      8871       8872       8883       8882       8992       8993       9004       9003  
      8872       8873       8884       8883       8993       8994       9005       9004  
      8873       8874       8885       8884       8994       8995       9006       9005  
      8874       8875       8886       8885       8995       8996       9007       9006  
      8875       8876       8887       8886       8996       8997       9008       9007  
      8876       8877       8888       8887       8997       8998       9009       9008  
      8878       8879       8890       8889       8999       9000       9011       9010  
      8879       8880       8891       8890       9000       9001       9012       9011  
      8880       8881       8892       8891       9001       9002       9013       9012  
      8881       8882       8893       8892       9002       9003       9014       9013  
      8882       8883       8894       8893       9003       9004       9015       9014  
      8883       8884       8895       8894       9004       9005       9016       9015  
      8884       8885       8896       8895       9005       9006       9017       9016  
      8885       8886       8897       8896       9006       9007       9018       9017  
      8886       8887       8898       8897       9007       9008       9019       9018  
      8887       8888       8899       8898       9008       9009       9020       9019  
      8889       8890       8901       8900       9010       9011       9022       9021  
      8890       8891       8902       8901       9011       9012       9023       9022  
      8891       8892       8903       8902       9012       9013       9024       9023  
      8892       8893       8904       8903       9013       9014       9025       9024  
      8893       8894       8905       8904       9014       9015       9026       9025  
      8894       8895       8906       8905       9015       9016       9027       9026  
      8895       8896       8907       8906       9016       9017       9028       9027  
      8896       8897       8908       8907       9017       9018       9029       9028  
      8897       8898       8909       8908       9018       9019       9030       9029  
      8898       8899       8910       8909       9019       9020       9031       9030  
      8900       8901       8912       8911       9021       9022       9033       9032  
      8901       8902       8913       8912       9022       9023       9034       9033  
      8902       8903       8914       8913       9023       9024       9035       9034  
      8903       8904       8915       8914       9024       9025       9036       9035  
      8904       8905       8916       8915       9025       9026       9037       9036  
      8905       8906       8917       8916       9026       9027       9038       9037  
      8906       8907       8918       8917       9027       9028       9039       9038  
      8907       8908       8919       8918       9028       9029       9040       9039  
      8908       8909       8920       8919       9029       9030       9041       9040  
      8909       8910       8921       8920       9030       9031       9042       9041  
      8911       8912       8923       8922       9032       9033       9044       9043  
      8912       8913       8924       8923       9033       9034       9045       9044  
      8913       8914       8925       8924       9034       9035       9046       9045  
      8914       8915       8926       8925       9035       9036       9047       9046  
      8915       8916       8927       8926       9036       9037       9048       9047  
      8916       8917       8928       8927       9037       9038       9049       9048  
      8917       8918       8929       8928       9038       9039       9050       9049  
      8918       8919       8930       8929       9039       9040       9051       9050  
      8919       8920       8931       8930       9040       9041       9052       9051  
      8920       8921       8932       8931       9041       9042       9053       9052  
      8922       8923       8934       8933       9043       9044       9055       9054  
      8923       8924       8935       8934       9044       9045       9056       9055  
      8924       8925       8936       8935       9045       9046       9057       9056  
      8925       8926       8937       8936       9046       9047       9058       9057  
      8926       8927       8938       8937       9047       9048       9059       9058  
      8927       8928       8939       8938       9048       9049       9060       9059  
      8928       8929       8940       8939       9049       9050       9061       9060  
      8929       8930       8941       8940       9050       9051       9062       9061  
      8930       8931       8942       8941       9051       9052       9063       9062  
      8931       8932       8943       8942       9052       9053       9064       9063  
      8933       8934       8945       8944       9054       9055       9066       9065  
      8934       8935       8946       8945       9055       9056       9067       9066  
      8935       8936       8947       8946       9056       9057       9068       9067  
      8936       8937       8948       8947       9057       9058       9069       9068  
      8937       8938       8949       8948       9058       9059       9070       9069  
      8938       8939       8950       8949       9059       9060       9071       9070  
      8939       8940       8951       8950       9060       9061       9072       9071  
      8940       8941       8952       8951       9061       9062       9073       9072  
      8941       8942       8953       8952       9062       9063       9074       9073  
      8942       8943       8954       8953       9063       9064       9075       9074  
      8955       8956       8967       8966       9076       9077       9088       9087  
      8956       8957       8968       8967       9077       9078       9089       9088  
      8957       8958       8969       8968       9078       9079       9090       9089  
      8958       8959       8970       8969       9079       9080       9091       9090  
      8959       8960       8971       8970       9080       9081       9092       9091  
      8960       8961       8972       8971       9081       9082       9093       9092  
      8961       8962       8973       8972       9082       9083       9094       9093  
      8962       8963       8974       8973       9083       9084       9095       9094  
      8963       8964       8975       8974       9084       9085       9096       9095  
      8964       8965       8976       8975       9085       9086       9097       9096  
      8966       8967       8978       8977       9087       9088       9099       9098  
      8967       8968       8979       8978       9088       9089       9100       9099  
      8968       8969       8980       8979       9089       9090       9101       9100  
      8969       8970       8981       8980       9090       9091       9102       9101  
      8970       8971       8982       8981       9091       9092       9103       9102  
      8971       8972       8983       8982       9092       9093       9104       9103  
      8972       8973       8984       8983       9093       9094       9105       9104  
      8973       8974       8985       8984       9094       9095       9106       9105  
      8974       8975       8986       8985       9095       9096       9107       9106  
      8975       8976       8987       8986       9096       9097       9108       9107  
      8977       8978       8989       8988       9098       9099       9110       9109  
      8978       8979       8990       8989       9099       9100       9111       9110  
      8979       8980       8991       8990       9100       9101       9112       9111  
      8980       8981       8992       8991       9101       9102       9113       9112  
      8981       8982       8993       8992       9102       9103       9114       9113  
      8982       8983       8994       8993       9103       9104       9115       9114  
      8983       8984       8995       8994       9104       9105       9116       9115  
      8984       8985       8996       8995       9105       9106       9117       9116  
      8985       8986       8997       8996       9106       9107       9118       9117  
      8986       8987       8998       8997       9107       9108       9119       9118  
      8988       8989       9000       8999       9109       9110       9121       9120  
      8989       8990       9001       9000       9110       9111       9122       9121  
      8990       8991       9002       9001       9111       9112       9123       9122  
      8991       8992       9003       9002       9112       9113       9124       9123  
      8992       8993       9004       9003       9113       9114       9125       9124  
      8993       8994       9005       9004       9114       9115       9126       9125  
      8994       8995       9006       9005       9115       9116       9127       9126  
      8995       8996       9007       9006       9116       9117       9128       9127  
      8996       8997       9008       9007       9117       9118       9129       9128  
      8997       8998       9009       9008       9118       9119       9130       9129  
      8999       9000       9011       9010       9120       9121       9132       9131  
      9000       9001       9012       9011       9121       9122       9133       9132  
      9001       9002       9013       9012       9122       9123       9134       9133  
      9002       9003       9014       9013       9123       9124       9135       9134  
      9003       9004       9015       9014       9124       9125       9136       9135  
      9004       9005       9016       9015       9125       9126       9137       9136  
      9005       9006       9017       9016       9126       9127       9138       9137  
      9006       9007       9018       9017       9127       9128       9139       9138  
      9007       9008       9019       9018       9128       9129       9140       9139  
      9008       9009       9020       9019       9129       9130       9141       9140  
      9010       9011       9022       9021       9131       9132       9143       9142  
      9011       9012       9023       9022       9132       9133       9144       9143  
      9012       9013       9024       9023       9133       9134       9145       9144  
      9013       9014       9025       9024       9134       9135       9146       9145  
      9014       9015       9026       9025       9135       9136       9147       9146  
      9015       9016       9027       9026       9136       9137       9148       9147  
      9016       9017       9028       9027       9137       9138       9149       9148  
      9017       9018       9029       9028       9138       9139       9150       9149  
      9018       9019       9030       9029       9139       9140       9151       9150  
      9019       9020       9031       9030       9140       9141       9152       9151  
      9021       9022       9033       9032       9142       9143       9154       9153  
      9022       9023       9034       9033       9143       9144       9155       9154  
      9023       9024       9035       9034       9144       9145       9156       9155  
      9024       9025       9036       9035       9145       9146       9157       9156  
      9025       9026       9037       9036       9146       9147       9158       9157  
      9026       9027       9038       9037       9147       9148       9159       9158  
      9027       9028       9039       9038       9148       9149       9160       9159  
      9028       9029       9040       9039       9149       9150       9161       9160  
      9029       9030       9041       9040       9150       9151       9162       9161  
      9030       9031       9042       9041       9151       9152       9163       9162  
      9032       9033       9044       9043       9153       9154       9165       9164  
      9033       9034       9045       9044       9154       9155       9166       9165  
      9034       9035       9046       9045       9155       9156       9167       9166  
      9035       9036       9047       9046       9156       9157       9168       9167  
      9036       9037       9048       9047       9157       9158       9169       9168  
      9037       9038       9049       9048       9158       9159       9170       9169  
      9038       9039       9050       9049       9159       9160       9171       9170  
      9039       9040       9051       9050       9160       9161       9172       9171  
      9040       9041       9052       9051       9161       9162       9173       9172  
      9041       9042       9053       9052       9162       9163       9174       9173  
      9043       9044       9055       9054       9164       9165       9176       9175  
      9044       9045       9056       9055       9165       9166       9177       9176  
      9045       9046       9057       9056       9166       9167       9178       9177  
      9046       9047       9058       9057       9167       9168       9179       9178  
      9047       9048       9059       9058       9168       9169       9180       9179  
      9048       9049       9060       9059       9169       9170       9181       9180  
      9049       9050       9061       9060       9170       9171       9182       9181  
      9050       9051       9062       9061       9171       9172       9183       9182  
      9051       9052       9063       9062       9172       9173       9184       9183  
      9052       9053       9064       9063       9173       9174       9185       9184  
      9054       9055       9066       9065       9175       9176       9187       9186  
      9055       9056       9067       9066       9176       9177       9188       9187  
      9056       9057       9068       9067       9177       9178       9189       9188  
      9057       9058       9069       9068       9178       9179       9190       9189  
      9058       9059       9070       9069       9179       9180       9191       9190  
      9059       9060       9071       9070       9180       9181       9192       9191  
      9060       9061       9072       9071       9181       9182       9193       9192  
      9061       9062       9073       9072       9182       9183       9194       9193  
      9062       9063       9074       9073       9183       9184       9195       9194  
      9063       9064       9075       9074       9184       9185       9196       9195  
      9076       9077       9088       9087       9197       9198       9209       9208  
      9077       9078       9089       9088       9198       9199       9210       9209  
      9078       9079       9090       9089       9199       9200       9211       9210  
      9079       9080       9091       9090       9200       9201       9212       9211  
      9080       9081       9092       9091       9201       9202       9213       9212  
      9081       9082       9093       9092       9202       9203       9214       9213  
      9082       9083       9094       9093       9203       9204       9215       9214  
      9083       9084       9095       9094       9204       9205       9216       9215  
      9084       9085       9096       9095       9205       9206       9217       9216  
      9085       9086       9097       9096       9206       9207       9218       9217  
      9087       9088       9099       9098       9208       9209       9220       9219  
      9088       9089       9100       9099       9209       9210       9221       9220  
      9089       9090       9101       9100       9210       9211       9222       9221  
      9090       9091       9102       9101       9211       9212       9223       9222  
      9091       9092       9103       9102       9212       9213       9224       9223  
      9092       9093       9104       9103       9213       9214       9225       9224  
      9093       9094       9105       9104       9214       9215       9226       9225  
      9094       9095       9106       9105       9215       9216       9227       9226  
      9095       9096       9107       9106       9216       9217       9228       9227  
      9096       9097       9108       9107       9217       9218       9229       9228  
      9098       9099       9110       9109       9219       9220       9231       9230  
      9099       9100       9111       9110       9220       9221       9232       9231  
      9100       9101       9112       9111       9221       9222       9233       9232  
      9101       9102       9113       9112       9222       9223       9234       9233  
      9102       9103       9114       9113       9223       9224       9235       9234  
      9103       9104       9115       9114       9224       9225       9236       9235  
      9104       9105       9116       9115       9225       9226       9237       9236  
      9105       9106       9117       9116       9226       9227       9238       9237  
      9106       9107       9118       9117       9227       9228       9239       9238  
      9107       9108       9119       9118       9228       9229       9240       9239  
      9109       9110       9121       9120       9230       9231       9242       9241  
      9110       9111       9122       9121       9231       9232       9243       9242  
      9111       9112       9123       9122       9232       9233       9244       9243  
      9112       9113       9124       9123       9233       9234       9245       9244  
      9113       9114       9125       9124       9234       9235       9246       9245  
      9114       9115       9126       9125       9235       9236       9247       9246  
      9115       9116       9127       9126       9236       9237       9248       9247  
      9116       9117       9128       9127       9237       9238       9249       9248  
      9117       9118       9129       9128       9238       9239       9250       9249  
      9118       9119       9130       9129       9239       9240       9251       9250  
      9120       9121       9132       9131       9241       9242       9253       9252  
      9121       9122       9133       9132       9242       9243       9254       9253  
      9122       9123       9134       9133       9243       9244       9255       9254  
      9123       9124       9135       9134       9244       9245       9256       9255  
      9124       9125       9136       9135       9245       9246       9257       9256  
      9125       9126       9137       9136       9246       9247       9258       9257  
      9126       9127       9138       9137       9247       9248       9259       9258  
      9127       9128       9139       9138       9248       9249       9260       9259  
      9128       9129       9140       9139       9249       9250       9261       9260  
      9129       9130       9141       9140       9250       9251       9262       9261  
      9131       9132       9143       9142       9252       9253       9264       9263  
      9132       9133       9144       9143       9253       9254       9265       9264  
      9133       9134       9145       9144       9254       9255       9266       9265  
      9134       9135       9146       9145       9255       9256       9267       9266  
      9135       9136       9147       9146       9256       9257       9268       9267  
      9136       9137       9148       9147       9257       9258       9269       9268  
      9137       9138       9149       9148       9258       9259       9270       9269  
      9138       9139       9150       9149       9259       9260       9271       9270  
      9139       9140       9151       9150       9260       9261       9272       9271  
      9140       9141       9152       9151       9261       9262       9273       9272  
      9142       9143       9154       9153       9263       9264       9275       9274  
      9143       9144       9155       9154       9264       9265       9276       9275  
      9144       9145       9156       9155       9265       9266       9277       9276  
      9145       9146       9157       9156       9266       9267       9278       9277  
      9146       9147       9158       9157       9267       9268       9279       9278  
      9147       9148       9159       9158       9268       9269       9280       9279  
      9148       9149       9160       9159       9269       9270       9281       9280  
      9149       9150       9161       9160       9270       9271       9282       9281  
      9150       9151       9162       9161       9271       9272       9283       9282  
      9151       9152       9163       9162       9272       9273       9284       9283  
      9153       9154       9165       9164       9274       9275       9286       9285  
      9154       9155       9166       9165       9275       9276       9287       9286  
      9155       9156       9167       9166       9276       9277       9288       9287  
      9156       9157       9168       9167       9277       9278       9289       9288  
      9157       9158       9169       9168       9278       9279       9290       9289  
      9158       9159       9170       9169       9279       9280       9291       9290  
      9159       9160       9171       9170       9280       9281       9292       9291  
      9160       9161       9172       9171       9281       9282       9293       9292  
      9161       9162       9173       9172       9282       9283       9294       9293  
      9162       9163       9174       9173       9283       9284       9295       9294  
      9164       9165       9176       9175       9285       9286       9297       9296  
      9165       9166       9177       9176       9286       9287       9298       9297  
      9166       9167       9178       9177       9287       9288       9299       9298  
      9167       9168       9179       9178       9288       9289       9300       9299  
      9168       9169       9180       9179       9289       9290       9301       9300  
      9169       9170       9181       9180       9290       9291       9302       9301  
      9170       9171       9182       9181       9291       9292       9303       9302  
      9171       9172       9183       9182       9292       9293       9304       9303  
      9172       9173       9184       9183       9293       9294       9305       9304  
      9173       9174       9185       9184       9294       9295       9306       9305  
      9175       9176       9187       9186       9296       9297       9308       9307  
      9176       9177       9188       9187       9297       9298       9309       9308  
      9177       9178       9189       9188       9298       9299       9310       9309  
      9178       9179       9190       9189       9299       9300       9311       9310  
      9179       9180       9191       9190       9300       9301       9312       9311  
      9180       9181       9192       9191       9301       9302       9313       9312  
      9181       9182       9193       9192       9302       9303       9314       9313  
      9182       9183       9194       9193       9303       9304       9315       9314  
      9183       9184       9195       9194       9304       9305       9316       9315  
      9184       9185       9196       9195       9305       9306       9317       9316  
      9197       9198       9209       9208       9318       9319       9330       9329  
      9198       9199       9210       9209       9319       9320       9331       9330  
      9199       9200       9211       9210       9320       9321       9332       9331  
      9200       9201       9212       9211       9321       9322       9333       9332  
      9201       9202       9213       9212       9322       9323       9334       9333  
      9202       9203       9214       9213       9323       9324       9335       9334  
      9203       9204       9215       9214       9324       9325       9336       9335  
      9204       9205       9216       9215       9325       9326       9337       9336  
      9205       9206       9217       9216       9326       9327       9338       9337  
      9206       9207       9218       9217       9327       9328       9339       9338  
      9208       9209       9220       9219       9329       9330       9341       9340  
      9209       9210       9221       9220       9330       9331       9342       9341  
      9210       9211       9222       9221       9331       9332       9343       9342  
      9211       9212       9223       9222       9332       9333       9344       9343  
      9212       9213       9224       9223       9333       9334       9345       9344  
      9213       9214       9225       9224       9334       9335       9346       9345  
      9214       9215       9226       9225       9335       9336       9347       9346  
      9215       9216       9227       9226       9336       9337       9348       9347  
      9216       9217       9228       9227       9337       9338       9349       9348  
      9217       9218       9229       9228       9338       9339       9350       9349  
      9219       9220       9231       9230       9340       9341       9352       9351  
      9220       9221       9232       9231       9341       9342       9353       9352  
      9221       9222       9233       9232       9342       9343       9354       9353  
      9222       9223       9234       9233       9343       9344       9355       9354  
      9223       9224       9235       9234       9344       9345       9356       9355  
      9224       9225       9236       9235       9345       9346       9357       9356  
      9225       9226       9237       9236       9346       9347       9358       9357  
      9226       9227       9238       9237       9347       9348       9359       9358  
      9227       9228       9239       9238       9348       9349       9360       9359  
      9228       9229       9240       9239       9349       9350       9361       9360  
      9230       9231       9242       9241       9351       9352       9363       9362  
      9231       9232       9243       9242       9352       9353       9364       9363  
      9232       9233       9244       9243       9353       9354       9365       9364  
      9233       9234       9245       9244       9354       9355       9366       9365  
      9234       9235       9246       9245       9355       9356       9367       9366  
      9235       9236       9247       9246       9356       9357       9368       9367  
      9236       9237       9248       9247       9357       9358       9369       9368  
      9237       9238       9249       9248       9358       9359       9370       9369  
      9238       9239       9250       9249       9359       9360       9371       9370  
      9239       9240       9251       9250       9360       9361       9372       9371  
      9241       9242       9253       9252       9362       9363       9374       9373  
      9242       9243       9254       9253       9363       9364       9375       9374  
      9243       9244       9255       9254       9364       9365       9376       9375  
      9244       9245       9256       9255       9365       9366       9377       9376  
      9245       9246       9257       9256       9366       9367       9378       9377  
      9246       9247       9258       9257       9367       9368       9379       9378  
      9247       9248       9259       9258       9368       9369       9380       9379  
      9248       9249       9260       9259       9369       9370       9381       9380  
      9249       9250       9261       9260       9370       9371       9382       9381  
      9250       9251       9262       9261       9371       9372       9383       9382  
      9252       9253       9264       9263       9373       9374       9385       9384  
      9253       9254       9265       9264       9374       9375       9386       9385  
      9254       9255       9266       9265       9375       9376       9387       9386  
      9255       9256       9267       9266       9376       9377       9388       9387  
      9256       9257       9268       9267       9377       9378       9389       9388  
      9257       9258       9269       9268       9378       9379       9390       9389  
      9258       9259       9270       9269       9379       9380       9391       9390  
      9259       9260       9271       9270       9380       9381       9392       9391  
      9260       9261       9272       9271       9381       9382       9393       9392  
      9261       9262       9273       9272       9382       9383       9394       9393  
      9263       9264       9275       9274       9384       9385       9396       9395  
      9264       9265       9276       9275       9385       9386       9397       9396  
      9265       9266       9277       9276       9386       9387       9398       9397  
      9266       9267       9278       9277       9387       9388       9399       9398  
      9267       9268       9279       9278       9388       9389       9400       9399  
      9268       9269       9280       9279       9389       9390       9401       9400  
      9269       9270       9281       9280       9390       9391       9402       9401  
      9270       9271       9282       9281       9391       9392       9403       9402  
      9271       9272       9283       9282       9392       9393       9404       9403  
      9272       9273       9284       9283       9393       9394       9405       9404  
      9274       9275       9286       9285       9395       9396       9407       9406  
      9275       9276       9287       9286       9396       9397       9408       9407  
      9276       9277       9288       9287       9397       9398       9409       9408  
      9277       9278       9289       9288       9398       9399       9410       9409  
      9278       9279       9290       9289       9399       9400       9411       9410  
      9279       9280       9291       9290       9400       9401       9412       9411  
      9280       9281       9292       9291       9401       9402       9413       9412  
      9281       9282       9293       9292       9402       9403       9414       9413  
      9282       9283       9294       9293       9403       9404       9415       9414  
      9283       9284       9295       9294       9404       9405       9416       9415  
      9285       9286       9297       9296       9406       9407       9418       9417  
      9286       9287       9298       9297       9407       9408       9419       9418  
      9287       9288       9299       9298       9408       9409       9420       9419  
      9288       9289       9300       9299       9409       9410       9421       9420  
      9289       9290       9301       9300       9410       9411       9422       9421  
      9290       9291       9302       9301       9411       9412       9423       9422  
      9291       9292       9303       9302       9412       9413       9424       9423  
      9292       9293       9304       9303       9413       9414       9425       9424  
      9293       9294       9305       9304       9414       9415       9426       9425  
      9294       9295       9306       9305       9415       9416       9427       9426  
      9296       9297       9308       9307       9417       9418       9429       9428  
      9297       9298       9309       9308       9418       9419       9430       9429  
      9298       9299       9310       9309       9419       9420       9431       9430  
      9299       9300       9311       9310       9420       9421       9432       9431  
      9300       9301       9312       9311       9421       9422       9433       9432  
      9301       9302       9313       9312       9422       9423       9434       9433  
      9302       9303       9314       9313       9423       9424       9435       9434  
      9303       9304       9315       9314       9424       9425       9436       9435  
      9304       9305       9316       9315       9425       9426       9437       9436  
      9305       9306       9317       9316       9426       9427       9438       9437  
      9318       9319       9330       9329       9439       9440       9451       9450  
      9319       9320       9331       9330       9440       9441       9452       9451  
      9320       9321       9332       9331       9441       9442       9453       9452  
      9321       9322       9333       9332       9442       9443       9454       9453  
      9322       9323       9334       9333       9443       9444       9455       9454  
      9323       9324       9335       9334       9444       9445       9456       9455  
      9324       9325       9336       9335       9445       9446       9457       9456  
      9325       9326       9337       9336       9446       9447       9458       9457  
      9326       9327       9338       9337       9447       9448       9459       9458  
      9327       9328       9339       9338       9448       9449       9460       9459  
      9329       9330       9341       9340       9450       9451       9462       9461  
      9330       9331       9342       9341       9451       9452       9463       9462  
      9331       9332       9343       9342       9452       9453       9464       9463  
      9332       9333       9344       9343       9453       9454       9465       9464  
      9333       9334       9345       9344       9454       9455       9466       9465  
      9334       9335       9346       9345       9455       9456       9467       9466  
      9335       9336       9347       9346       9456       9457       9468       9467  
      9336       9337       9348       9347       9457       9458       9469       9468  
      9337       9338       9349       9348       9458       9459       9470       9469  
      9338       9339       9350       9349       9459       9460       9471       9470  
      9340       9341       9352       9351       9461       9462       9473       9472  
      9341       9342       9353       9352       9462       9463       9474       9473  
      9342       9343       9354       9353       9463       9464       9475       9474  
      9343       9344       9355       9354       9464       9465       9476       9475  
      9344       9345       9356       9355       9465       9466       9477       9476  
      9345       9346       9357       9356       9466       9467       9478       9477  
      9346       9347       9358       9357       9467       9468       9479       9478  
      9347       9348       9359       9358       9468       9469       9480       9479  
      9348       9349       9360       9359       9469       9470       9481       9480  
      9349       9350       9361       9360       9470       9471       9482       9481  
      9351       9352       9363       9362       9472       9473       9484       9483  
      9352       9353       9364       9363       9473       9474       9485       9484  
      9353       9354       9365       9364       9474       9475       9486       9485  
      9354       9355       9366       9365       9475       9476       9487       9486  
      9355       9356       9367       9366       9476       9477       9488       9487  
      9356       9357       9368       9367       9477       9478       9489       9488  
      9357       9358       9369       9368       9478       9479       9490       9489  
      9358       9359       9370       9369       9479       9480       9491       9490  
      9359       9360       9371       9370       9480       9481       9492       9491  
      9360       9361       9372       9371       9481       9482       9493       9492  
      9362       9363       9374       9373       9483       9484       9495       9494  
      9363       9364       9375       9374       9484       9485       9496       9495  
      9364       9365       9376       9375       9485       9486       9497       9496  
      9365       9366       9377       9376       9486       9487       9498       9497  
      9366       9367       9378       9377       9487       9488       9499       9498  
      9367       9368       9379       9378       9488       9489       9500       9499  
      9368       9369       9380       9379       9489       9490       9501       9500  
      9369       9370       9381       9380       9490       9491       9502       9501  
      9370       9371       9382       9381       9491       9492       9503       9502  
      9371       9372       9383       9382       9492       9493       9504       9503  
      9373       9374       9385       9384       9494       9495       9506       9505  
      9374       9375       9386       9385       9495       9496       9507       9506  
      9375       9376       9387       9386       9496       9497       9508       9507  
      9376       9377       9388       9387       9497       9498       9509       9508  
      9377       9378       9389       9388       9498       9499       9510       9509  
      9378       9379       9390       9389       9499       9500       9511       9510  
      9379       9380       9391       9390       9500       9501       9512       9511  
      9380       9381       9392       9391       9501       9502       9513       9512  
      9381       9382       9393       9392       9502       9503       9514       9513  
      9382       9383       9394       9393       9503       9504       9515       9514  
      9384       9385       9396       9395       9505       9506       9517       9516  
      9385       9386       9397       9396       9506       9507       9518       9517  
      9386       9387       9398       9397       9507       9508       9519       9518  
      9387       9388       9399       9398       9508       9509       9520       9519  
      9388       9389       9400       9399       9509       9510       9521       9520  
      9389       9390       9401       9400       9510       9511       9522       9521  
      9390       9391       9402       9401       9511       9512       9523       9522  
      9391       9392       9403       9402       9512       9513       9524       9523  
      9392       9393       9404       9403       9513       9514       9525       9524  
      9393       9394       9405       9404       9514       9515       9526       9525  
      9395       9396       9407       9406       9516       9517       9528       9527  
      9396       9397       9408       9407       9517       9518       9529       9528  
      9397       9398       9409       9408       9518       9519       9530       9529  
      9398       9399       9410       9409       9519       9520       9531       9530  
      9399       9400       9411       9410       9520       9521       9532       9531  
      9400       9401       9412       9411       9521       9522       9533       9532  
      9401       9402       9413       9412       9522       9523       9534       9533  
      9402       9403       9414       9413       9523       9524       9535       9534  
      9403       9404       9415       9414       9524       9525       9536       9535  
      9404       9405       9416       9415       9525       9526       9537       9536  
      9406       9407       9418       9417       9527       9528       9539       9538  
      9407       9408       9419       9418       9528       9529       9540       9539  
      9408       9409       9420       9419       9529       9530       9541       9540  
      9409       9410       9421       9420       9530       9531       9542       9541  
      9410       9411       9422       9421       9531       9532       9543       9542  
      9411       9412       9423       9422       9532       9533       9544       9543  
      9412       9413       9424       9423       9533       9534       9545       9544  
      9413       9414       9425       9424       9534       9535       9546       9545  
      9414       9415       9426       9425       9535       9536       9547       9546  
      9415       9416       9427       9426       9536       9537       9548       9547  
      9417       9418       9429       9428       9538       9539       9550       9549  
      9418       9419       9430       9429       9539       9540       9551       9550  
      9419       9420       9431       9430       9540       9541       9552       9551  
      9420       9421       9432       9431       9541       9542       9553       9552  
      9421       9422       9433       9432       9542       9543       9554       9553  
      9422       9423       9434       9433       9543       9544       9555       9554  
      9423       9424       9435       9434       9544       9545       9556       9555  
      9424       9425       9436       9435       9545       9546       9557       9556  
      9425       9426       9437       9436       9546       9547       9558       9557  
      9426       9427       9438       9437       9547       9548       9559       9558  
      9439       9440       9451       9450       9560       9561       9572       9571  
      9440       9441       9452       9451       9561       9562       9573       9572  
      9441       9442       9453       9452       9562       9563       9574       9573  
      9442       9443       9454       9453       9563       9564       9575       9574  
      9443       9444       9455       9454       9564       9565       9576       9575  
      9444       9445       9456       9455       9565       9566       9577       9576  
      9445       9446       9457       9456       9566       9567       9578       9577  
      9446       9447       9458       9457       9567       9568       9579       9578  
      9447       9448       9459       9458       9568       9569       9580       9579  
      9448       9449       9460       9459       9569       9570       9581       9580  
      9450       9451       9462       9461       9571       9572       9583       9582  
      9451       9452       9463       9462       9572       9573       9584       9583  
      9452       9453       9464       9463       9573       9574       9585       9584  
      9453       9454       9465       9464       9574       9575       9586       9585  
      9454       9455       9466       9465       9575       9576       9587       9586  
      9455       9456       9467       9466       9576       9577       9588       9587  
      9456       9457       9468       9467       9577       9578       9589       9588  
      9457       9458       9469       9468       9578       9579       9590       9589  
      9458       9459       9470       9469       9579       9580       9591       9590  
      9459       9460       9471       9470       9580       9581       9592       9591  
      9461       9462       9473       9472       9582       9583       9594       9593  
      9462       9463       9474       9473       9583       9584       9595       9594  
      9463       9464       9475       9474       9584       9585       9596       9595  
      9464       9465       9476       9475       9585       9586       9597       9596  
      9465       9466       9477       9476       9586       9587       9598       9597  
      9466       9467       9478       9477       9587       9588       9599       9598  
      9467       9468       9479       9478       9588       9589       9600       9599  
      9468       9469       9480       9479       9589       9590       9601       9600  
      9469       9470       9481       9480       9590       9591       9602       9601  
      9470       9471       9482       9481       9591       9592       9603       9602  
      9472       9473       9484       9483       9593       9594       9605       9604  
      9473       9474       9485       9484       9594       9595       9606       9605  
      9474       9475       9486       9485       9595       9596       9607       9606  
      9475       9476       9487       9486       9596       9597       9608       9607  
      9476       9477       9488       9487       9597       9598       9609       9608  
      9477       9478       9489       9488       9598       9599       9610       9609  
      9478       9479       9490       9489       9599       9600       9611       9610  
      9479       9480       9491       9490       9600       9601       9612       9611  
      9480       9481       9492       9491       9601       9602       9613       9612  
      9481       9482       9493       9492       9602       9603       9614       9613  
      9483       9484       9495       9494       9604       9605       9616       9615  
      9484       9485       9496       9495       9605       9606       9617       9616  
      9485       9486       9497       9496       9606       9607       9618       9617  
      9486       9487       9498       9497       9607       9608       9619       9618  
      9487       9488       9499       9498       9608       9609       9620       9619  
      9488       9489       9500       9499       9609       9610       9621       9620  
      9489       9490       9501       9500       9610       9611       9622       9621  
      9490       9491       9502       9501       9611       9612       9623       9622  
      9491       9492       9503       9502       9612       9613       9624       9623  
      9492       9493       9504       9503       9613       9614       9625       9624  
      9494       9495       9506       9505       9615       9616       9627       9626  
      9495       9496       9507       9506       9616       9617       9628       9627  
      9496       9497       9508       9507       9617       9618       9629       9628  
      9497       9498       9509       9508       9618       9619       9630       9629  
      9498       9499       9510       9509       9619       9620       9631       9630  
      9499       9500       9511       9510       9620       9621       9632       9631  
      9500       9501       9512       9511       9621       9622       9633       9632  
      9501       9502       9513       9512       9622       9623       9634       9633  
      9502       9503       9514       9513       9623       9624       9635       9634  
      9503       9504       9515       9514       9624       9625       9636       9635  
      9505       9506       9517       9516       9626       9627       9638       9637  
      9506       9507       9518       9517       9627       9628       9639       9638  
      9507       9508       9519       9518       9628       9629       9640       9639  
      9508       9509       9520       9519       9629       9630       9641       9640  
      9509       9510       9521       9520       9630       9631       9642       9641  
      9510       9511       9522       9521       9631       9632       9643       9642  
      9511       9512       9523       9522       9632       9633       9644       9643  
      9512       9513       9524       9523       9633       9634       9645       9644  
      9513       9514       9525       9524       9634       9635       9646       9645  
      9514       9515       9526       9525       9635       9636       9647       9646  
      9516       9517       9528       9527       9637       9638       9649       9648  
      9517       9518       9529       9528       9638       9639       9650       9649  
      9518       9519       9530       9529       9639       9640       9651       9650  
      9519       9520       9531       9530       9640       9641       9652       9651  
      9520       9521       9532       9531       9641       9642       9653       9652  
      9521       9522       9533       9532       9642       9643       9654       9653  
      9522       9523       9534       9533       9643       9644       9655       9654  
      9523       9524       9535       9534       9644       9645       9656       9655  
      9524       9525       9536       9535       9645       9646       9657       9656  
      9525       9526       9537       9536       9646       9647       9658       9657  
      9527       9528       9539       9538       9648       9649       9660       9659  
      9528       9529       9540       9539       9649       9650       9661       9660  
      9529       9530       9541       9540       9650       9651       9662       9661  
      9530       9531       9542       9541       9651       9652       9663       9662  
      9531       9532       9543       9542       9652       9653       9664       9663  
      9532       9533       9544       9543       9653       9654       9665       9664  
      9533       9534       9545       9544       9654       9655       9666       9665  
      9534       9535       9546       9545       9655       9656       9667       9666  
      9535       9536       9547       9546       9656       9657       9668       9667  
      9536       9537       9548       9547       9657       9658       9669       9668  
      9538       9539       9550       9549       9659       9660       9671       9670  
      9539       9540       9551       9550       9660       9661       9672       9671  
      9540       9541       9552       9551       9661       9662       9673       9672  
      9541       9542       9553       9552       9662       9663       9674       9673  
      9542       9543       9554       9553       9663       9664       9675       9674  
      9543       9544       9555       9554       9664       9665       9676       9675  
      9544       9545       9556       9555       9665       9666       9677       9676  
      9545       9546       9557       9556       9666       9667       9678       9677  
      9546       9547       9558       9557       9667       9668       9679       9678  
      9547       9548       9559       9558       9668       9669       9680       9679  
      9560       9561       9572       9571       9681       9682       9693       9692  
      9561       9562       9573       9572       9682       9683       9694       9693  
      9562       9563       9574       9573       9683       9684       9695       9694  
      9563       9564       9575       9574       9684       9685       9696       9695  
      9564       9565       9576       9575       9685       9686       9697       9696  
      9565       9566       9577       9576       9686       9687       9698       9697  
      9566       9567       9578       9577       9687       9688       9699       9698  
      9567       9568       9579       9578       9688       9689       9700       9699  
      9568       9569       9580       9579       9689       9690       9701       9700  
      9569       9570       9581       9580       9690       9691       9702       9701  
      9571       9572       9583       9582       9692       9693       9704       9703  
      9572       9573       9584       9583       9693       9694       9705       9704  
      9573       9574       9585       9584       9694       9695       9706       9705  
      9574       9575       9586       9585       9695       9696       9707       9706  
      9575       9576       9587       9586       9696       9697       9708       9707  
      9576       9577       9588       9587       9697       9698       9709       9708  
      9577       9578       9589       9588       9698       9699       9710       9709  
      9578       9579       9590       9589       9699       9700       9711       9710  
      9579       9580       9591       9590       9700       9701       9712       9711  
      9580       9581       9592       9591       9701       9702       9713       9712  
      9582       9583       9594       9593       9703       9704       9715       9714  
      9583       9584       9595       9594       9704       9705       9716       9715  
      9584       9585       9596       9595       9705       9706       9717       9716  
      9585       9586       9597       9596       9706       9707       9718       9717  
      9586       9587       9598       9597       9707       9708       9719       9718  
      9587       9588       9599       9598       9708       9709       9720       9719  
      9588       9589       9600       9599       9709       9710       9721       9720  
      9589       9590       9601       9600       9710       9711       9722       9721  
      9590       9591       9602       9601       9711       9712       9723       9722  
      9591       9592       9603       9602       9712       9713       9724       9723  
      9593       9594       9605       9604       9714       9715       9726       9725  
      9594       9595       9606       9605       9715       9716       9727       9726  
      9595       9596       9607       9606       9716       9717       9728       9727  
      9596       9597       9608       9607       9717       9718       9729       9728  
      9597       9598       9609       9608       9718       9719       9730       9729  
      9598       9599       9610       9609       9719       9720       9731       9730  
      9599       9600       9611       9610       9720       9721       9732       9731  
      9600       9601       9612       9611       9721       9722       9733       9732  
      9601       9602       9613       9612       9722       9723       9734       9733  
      9602       9603       9614       9613       9723       9724       9735       9734  
      9604       9605       9616       9615       9725       9726       9737       9736  
      9605       9606       9617       9616       9726       9727       9738       9737  
      9606       9607       9618       9617       9727       9728       9739       9738  
      9607       9608       9619       9618       9728       9729       9740       9739  
      9608       9609       9620       9619       9729       9730       9741       9740  
      9609       9610       9621       9620       9730       9731       9742       9741  
      9610       9611       9622       9621       9731       9732       9743       9742  
      9611       9612       9623       9622       9732       9733       9744       9743  
      9612       9613       9624       9623       9733       9734       9745       9744  
      9613       9614       9625       9624       9734       9735       9746       9745  
      9615       9616       9627       9626       9736       9737       9748       9747  
      9616       9617       9628       9627       9737       9738       9749       9748  
      9617       9618       9629       9628       9738       9739       9750       9749  
      9618       9619       9630       9629       9739       9740       9751       9750  
      9619       9620       9631       9630       9740       9741       9752       9751  
      9620       9621       9632       9631       9741       9742       9753       9752  
      9621       9622       9633       9632       9742       9743       9754       9753  
      9622       9623       9634       9633       9743       9744       9755       9754  
      9623       9624       9635       9634       9744       9745       9756       9755  
      9624       9625       9636       9635       9745       9746       9757       9756  
      9626       9627       9638       9637       9747       9748       9759       9758  
      9627       9628       9639       9638       9748       9749       9760       9759  
      9628       9629       9640       9639       9749       9750       9761       9760  
      9629       9630       9641       9640       9750       9751       9762       9761  
      9630       9631       9642       9641       9751       9752       9763       9762  
      9631       9632       9643       9642       9752       9753       9764       9763  
      9632       9633       9644       9643       9753       9754       9765       9764  
      9633       9634       9645       9644       9754       9755       9766       9765  
      9634       9635       9646       9645       9755       9756       9767       9766  
      9635       9636       9647       9646       9756       9757       9768       9767  
      9637       9638       9649       9648       9758       9759       9770       9769  
      9638       9639       9650       9649       9759       9760       9771       9770  
      9639       9640       9651       9650       9760       9761       9772       9771  
      9640       9641       9652       9651       9761       9762       9773       9772  
      9641       9642       9653       9652       9762       9763       9774       9773  
      9642       9643       9654       9653       9763       9764       9775       9774  
      9643       9644       9655       9654       9764       9765       9776       9775  
      9644       9645       9656       9655       9765       9766       9777       9776  
      9645       9646       9657       9656       9766       9767       9778       9777  
      9646       9647       9658       9657       9767       9768       9779       9778  
      9648       9649       9660       9659       9769       9770       9781       9780  
      9649       9650       9661       9660       9770       9771       9782       9781  
      9650       9651       9662       9661       9771       9772       9783       9782  
      9651       9652       9663       9662       9772       9773       9784       9783  
      9652       9653       9664       9663       9773       9774       9785       9784  
      9653       9654       9665       9664       9774       9775       9786       9785  
      9654       9655       9666       9665       9775       9776       9787       9786  
      9655       9656       9667       9666       9776       9777       9788       9787  
      9656       9657       9668       9667       9777       9778       9789       9788  
      9657       9658       9669       9668       9778       9779       9790       9789  
      9659       9660       9671       9670       9780       9781       9792       9791  
      9660       9661       9672       9671       9781       9782       9793       9792  
      9661       9662       9673       9672       9782       9783       9794       9793  
      9662       9663       9674       9673       9783       9784       9795       9794  
      9663       9664       9675       9674       9784       9785       9796       9795  
      9664       9665       9676       9675       9785       9786       9797       9796  
      9665       9666       9677       9676       9786       9787       9798       9797  
      9666       9667       9678       9677       9787       9788       9799       9798  
      9667       9668       9679       9678       9788       9789       9800       9799  
      9668       9669       9680       9679       9789       9790       9801       9800  
      9681       9682       9693       9692       9802       9803       9814       9813  
      9682       9683       9694       9693       9803       9804       9815       9814  
      9683       9684       9695       9694       9804       9805       9816       9815  
      9684       9685       9696       9695       9805       9806       9817       9816  
      9685       9686       9697       9696       9806       9807       9818       9817  
      9686       9687       9698       9697       9807       9808       9819       9818  
      9687       9688       9699       9698       9808       9809       9820       9819  
      9688       9689       9700       9699       9809       9810       9821       9820  
      9689       9690       9701       9700       9810       9811       9822       9821  
      9690       9691       9702       9701       9811       9812       9823       9822  
      9692       9693       9704       9703       9813       9814       9825       9824  
      9693       9694       9705       9704       9814       9815       9826       9825  
      9694       9695       9706       9705       9815       9816       9827       9826  
      9695       9696       9707       9706       9816       9817       9828       9827  
      9696       9697       9708       9707       9817       9818       9829       9828  
      9697       9698       9709       9708       9818       9819       9830       9829  
      9698       9699       9710       9709       9819       9820       9831       9830  
      9699       9700       9711       9710       9820       9821       9832       9831  
      9700       9701       9712       9711       9821       9822       9833       9832  
      9701       9702       9713       9712       9822       9823       9834       9833  
      9703       9704       9715       9714       9824       9825       9836       9835  
      9704       9705       9716       9715       9825       9826       9837       9836  
      9705       9706       9717       9716       9826       9827       9838       9837  
      9706       9707       9718       9717       9827       9828       9839       9838  
      9707       9708       9719       9718       9828       9829       9840       9839  
      9708       9709       9720       9719       9829       9830       9841       9840  
      9709       9710       9721       9720       9830       9831       9842       9841  
      9710       9711       9722       9721       9831       9832       9843       9842  
      9711       9712       9723       9722       9832       9833       9844       9843  
      9712       9713       9724       9723       9833       9834       9845       9844  
      9714       9715       9726       9725       9835       9836       9847       9846  
      9715       9716       9727       9726       9836       9837       9848       9847  
      9716       9717       9728       9727       9837       9838       9849       9848  
      9717       9718       9729       9728       9838       9839       9850       9849  
      9718       9719       9730       9729       9839       9840       9851       9850  
      9719       9720       9731       9730       9840       9841       9852       9851  
      9720       9721       9732       9731       9841       9842       9853       9852  
      9721       9722       9733       9732       9842       9843       9854       9853  
      9722       9723       9734       9733       9843       9844       9855       9854  
      9723       9724       9735       9734       9844       9845       9856       9855  
      9725       9726       9737       9736       9846       9847       9858       9857  
      9726       9727       9738       9737       9847       9848       9859       9858  
      9727       9728       9739       9738       9848       9849       9860       9859  
      9728       9729       9740       9739       9849       9850       9861       9860  
      9729       9730       9741       9740       9850       9851       9862       9861  
      9730       9731       9742       9741       9851       9852       9863       9862  
      9731       9732       9743       9742       9852       9853       9864       9863  
      9732       9733       9744       9743       9853       9854       9865       9864  
      9733       9734       9745       9744       9854       9855       9866       9865  
      9734       9735       9746       9745       9855       9856       9867       9866  
      9736       9737       9748       9747       9857       9858       9869       9868  
      9737       9738       9749       9748       9858       9859       9870       9869  
      9738       9739       9750       9749       9859       9860       9871       9870  
      9739       9740       9751       9750       9860       9861       9872       9871  
      9740       9741       9752       9751       9861       9862       9873       9872  
      9741       9742       9753       9752       9862       9863       9874       9873  
      9742       9743       9754       9753       9863       9864       9875       9874  
      9743       9744       9755       9754       9864       9865       9876       9875  
      9744       9745       9756       9755       9865       9866       9877       9876  
      9745       9746       9757       9756       9866       9867       9878       9877  
      9747       9748       9759       9758       9868       9869       9880       9879  
      9748       9749       9760       9759       9869       9870       9881       9880  
      9749       9750       9761       9760       9870       9871       9882       9881  
      9750       9751       9762       9761       9871       9872       9883       9882  
      9751       9752       9763       9762       9872       9873       9884       9883  
      9752       9753       9764       9763       9873       9874       9885       9884  
      9753       9754       9765       9764       9874       9875       9886       9885  
      9754       9755       9766       9765       9875       9876       9887       9886  
      9755       9756       9767       9766       9876       9877       9888       9887  
      9756       9757       9768       9767       9877       9878       9889       9888  
      9758       9759       9770       9769       9879       9880       9891       9890  
      9759       9760       9771       9770       9880       9881       9892       9891  
      9760       9761       9772       9771       9881       9882       9893       9892  
      9761       9762       9773       9772       9882       9883       9894       9893  
      9762       9763       9774       9773       9883       9884       9895       9894  
      9763       9764       9775       9774       9884       9885       9896       9895  
      9764       9765       9776       9775       9885       9886       9897       9896  
      9765       9766       9777       9776       9886       9887       9898       9897  
      9766       9767       9778       9777       9887       9888       9899       9898  
      9767       9768       9779       9778       9888       9889       9900       9899  
      9769       9770       9781       9780       9890       9891       9902       9901  
      9770       9771       9782       9781       9891       9892       9903       9902  
      9771       9772       9783       9782       9892       9893       9904       9903  
      9772       9773       9784       9783       9893       9894       9905       9904  
      9773       9774       9785       9784       9894       9895       9906       9905  
      9774       9775       9786       9785       9895       9896       9907       9906  
      9775       9776       9787       9786       9896       9897       9908       9907  
      9776       9777       9788       9787       9897       9898       9909       9908  
      9777       9778       9789       9788       9898       9899       9910       9909  
      9778       9779       9790       9789       9899       9900       9911       9910  
      9780       9781       9792       9791       9901       9902       9913       9912  
      9781       9782       9793       9792       9902       9903       9914       9913  
      9782       9783       9794       9793       9903       9904       9915       9914  
      9783       9784       9795       9794       9904       9905       9916       9915  
      9784       9785       9796       9795       9905       9906       9917       9916  
      9785       9786       9797       9796       9906       9907       9918       9917  
      9786       9787       9798       9797       9907       9908       9919       9918  
      9787       9788       9799       9798       9908       9909       9920       9919  
      9788       9789       9800       9799       9909       9910       9921       9920  
      9789       9790       9801       9800       9910       9911       9922       9921  
      9802       9803       9814       9813       9923       9924       9935       9934  
      9803       9804       9815       9814       9924       9925       9936       9935  
      9804       9805       9816       9815       9925       9926       9937       9936  
      9805       9806       9817       9816       9926       9927       9938       9937  
      9806       9807       9818       9817       9927       9928       9939       9938  
      9807       9808       9819       9818       9928       9929       9940       9939  
      9808       9809       9820       9819       9929       9930       9941       9940  
      9809       9810       9821       9820       9930       9931       9942       9941  
      9810       9811       9822       9821       9931       9932       9943       9942  
      9811       9812       9823       9822       9932       9933       9944       9943  
      9813       9814       9825       9824       9934       9935       9946       9945  
      9814       9815       9826       9825       9935       9936       9947       9946  
      9815       9816       9827       9826       9936       9937       9948       9947  
      9816       9817       9828       9827       9937       9938       9949       9948  
      9817       9818       9829       9828       9938       9939       9950       9949  
      9818       9819       9830       9829       9939       9940       9951       9950  
      9819       9820       9831       9830       9940       9941       9952       9951  
      9820       9821       9832       9831       9941       9942       9953       9952  
      9821       9822       9833       9832       9942       9943       9954       9953  
      9822       9823       9834       9833       9943       9944       9955       9954  
      9824       9825       9836       9835       9945       9946       9957       9956  
      9825       9826       9837       9836       9946       9947       9958       9957  
      9826       9827       9838       9837       9947       9948       9959       9958  
      9827       9828       9839       9838       9948       9949       9960       9959  
      9828       9829       9840       9839       9949       9950       9961       9960  
      9829       9830       9841       9840       9950       9951       9962       9961  
      9830       9831       9842       9841       9951       9952       9963       9962  
      9831       9832       9843       9842       9952       9953       9964       9963  
      9832       9833       9844       9843       9953       9954       9965       9964  
      9833       9834       9845       9844       9954       9955       9966       9965  
      9835       9836       9847       9846       9956       9957       9968       9967  
      9836       9837       9848       9847       9957       9958       9969       9968  
      9837       9838       9849       9848       9958       9959       9970       9969  
      9838       9839       9850       9849       9959       9960       9971       9970  
      9839       9840       9851       9850       9960       9961       9972       9971  
      9840       9841       9852       9851       9961       9962       9973       9972  
      9841       9842       9853       9852       9962       9963       9974       9973  
      9842       9843       9854       9853       9963       9964       9975       9974  
      9843       9844       9855       9854       9964       9965       9976       9975  
      9844       9845       9856       9855       9965       9966       9977       9976  
      9846       9847       9858       9857       9967       9968       9979       9978  
      9847       9848       9859       9858       9968       9969       9980       9979  
      9848       9849       9860       9859       9969       9970       9981       9980  
      9849       9850       9861       9860       9970       9971       9982       9981  
      9850       9851       9862       9861       9971       9972       9983       9982  
      9851       9852       9863       9862       9972       9973       9984       9983  
      9852       9853       9864       9863       9973       9974       9985       9984  
      9853       9854       9865       9864       9974       9975       9986       9985  
      9854       9855       9866       9865       9975       9976       9987       9986  
      9855       9856       9867       9866       9976       9977       9988       9987  
      9857       9858       9869       9868       9978       9979       9990       9989  
      9858       9859       9870       9869       9979       9980       9991       9990  
      9859       9860       9871       9870       9980       9981       9992       9991  
      9860       9861       9872       9871       9981       9982       9993       9992  
      9861       9862       9873       9872       9982       9983       9994       9993  
      9862       9863       9874       9873       9983       9984       9995       9994  
      9863       9864       9875       9874       9984       9985       9996       9995  
      9864       9865       9876       9875       9985       9986       9997       9996  
      9865       9866       9877       9876       9986       9987       9998       9997  
      9866       9867       9878       9877       9987       9988       9999       9998  
      9868       9869       9880       9879       9989       9990      10001      10000  
      9869       9870       9881       9880       9990       9991      10002      10001  
      9870       9871       9882       9881       9991       9992      10003      10002  
      9871       9872       9883       9882       9992       9993      10004      10003  
      9872       9873       9884       9883       9993       9994      10005      10004  
      9873       9874       9885       9884       9994       9995      10006      10005  
      9874       9875       9886       9885       9995       9996      10007      10006  
      9875       9876       9887       9886       9996       9997      10008      10007  
      9876       9877       9888       9887       9997       9998      10009      10008  
      9877       9878       9889       9888       9998       9999      10010      10009  
      9879       9880       9891       9890      10000      10001      10012      10011  
      9880       9881       9892       9891      10001      10002      10013      10012  
      9881       9882       9893       9892      10002      10003      10014      10013  
      9882       9883       9894       9893      10003      10004      10015      10014  
      9883       9884       9895       9894      10004      10005      10016      10015  
      9884       9885       9896       9895      10005      10006      10017      10016  
      9885       9886       9897       9896      10006      10007      10018      10017  
      9886       9887       9898       9897      10007      10008      10019      10018  
      9887       9888       9899       9898      10008      10009      10020      10019  
      9888       9889       9900       9899      10009      10010      10021      10020  
      9890       9891       9902       9901      10011      10012      10023      10022  
      9891       9892       9903       9902      10012      10013      10024      10023  
      9892       9893       9904       9903      10013      10014      10025      10024  
      9893       9894       9905       9904      10014      10015      10026      10025  
      9894       9895       9906       9905      10015      10016      10027      10026  
      9895       9896       9907       9906      10016      10017      10028      10027  
      9896       9897       9908       9907      10017      10018      10029      10028  
      9897       9898       9909       9908      10018      10019      10030      10029  
      9898       9899       9910       9909      10019      10020      10031      10030  
      9899       9900       9911       9910      10020      10021      10032      10031  
      9901       9902       9913       9912      10022      10023      10034      10033  
      9902       9903       9914       9913      10023      10024      10035      10034  
      9903       9904       9915       9914      10024      10025      10036      10035  
      9904       9905       9916       9915      10025      10026      10037      10036  
      9905       9906       9917       9916      10026      10027      10038      10037  
      9906       9907       9918       9917      10027      10028      10039      10038  
      9907       9908       9919       9918      10028      10029      10040      10039  
      9908       9909       9920       9919      10029      10030      10041      10040  
      9909       9910       9921       9920      10030      10031      10042      10041  
      9910       9911       9922       9921      10031      10032      10043      10042  
      9923       9924       9935       9934      10044      10045      10056      10055  
      9924       9925       9936       9935      10045      10046      10057      10056  
      9925       9926       9937       9936      10046      10047      10058      10057  
      9926       9927       9938       9937      10047      10048      10059      10058  
      9927       9928       9939       9938      10048      10049      10060      10059  
      9928       9929       9940       9939      10049      10050      10061      10060  
      9929       9930       9941       9940      10050      10051      10062      10061  
      9930       9931       9942       9941      10051      10052      10063      10062  
      9931       9932       9943       9942      10052      10053      10064      10063  
      9932       9933       9944       9943      10053      10054      10065      10064  
      9934       9935       9946       9945      10055      10056      10067      10066  
      9935       9936       9947       9946      10056      10057      10068      10067  
      9936       9937       9948       9947      10057      10058      10069      10068  
      9937       9938       9949       9948      10058      10059      10070      10069  
      9938       9939       9950       9949      10059      10060      10071      10070  
      9939       9940       9951       9950      10060      10061      10072      10071  
      9940       9941       9952       9951      10061      10062      10073      10072  
      9941       9942       9953       9952      10062      10063      10074      10073  
      9942       9943       9954       9953      10063      10064      10075      10074  
      9943       9944       9955       9954      10064      10065      10076      10075  
      9945       9946       9957       9956      10066      10067      10078      10077  
      9946       9947       9958       9957      10067      10068      10079      10078  
      9947       9948       9959       9958      10068      10069      10080      10079  
      9948       9949       9960       9959      10069      10070      10081      10080  
      9949       9950       9961       9960      10070      10071      10082      10081  
      9950       9951       9962       9961      10071      10072      10083      10082  
      9951       9952       9963       9962      10072      10073      10084      10083  
      9952       9953       9964       9963      10073      10074      10085      10084  
      9953       9954       9965       9964      10074      10075      10086      10085  
      9954       9955       9966       9965      10075      10076      10087      10086  
      9956       9957       9968       9967      10077      10078      10089      10088  
      9957       9958       9969       9968      10078      10079      10090      10089  
      9958       9959       9970       9969      10079      10080      10091      10090  
      9959       9960       9971       9970      10080      10081      10092      10091  
      9960       9961       9972       9971      10081      10082      10093      10092  
      9961       9962       9973       9972      10082      10083      10094      10093  
      9962       9963       9974       9973      10083      10084      10095      10094  
      9963       9964       9975       9974      10084      10085      10096      10095  
      9964       9965       9976       9975      10085      10086      10097      10096  
      9965       9966       9977       9976      10086      10087      10098      10097  
      9967       9968       9979       9978      10088      10089      10100      10099  
      9968       9969       9980       9979      10089      10090      10101      10100  
      9969       9970       9981       9980      10090      10091      10102      10101  
      9970       9971       9982       9981      10091      10092      10103      10102  
      9971       9972       9983       9982      10092      10093      10104      10103  
      9972       9973       9984       9983      10093      10094      10105      10104  
      9973       9974       9985       9984      10094      10095      10106      10105  
      9974       9975       9986       9985      10095      10096      10107      10106  
      9975       9976       9987       9986      10096      10097      10108      10107  
      9976       9977       9988       9987      10097      10098      10109      10108  
      9978       9979       9990       9989      10099      10100      10111      10110  
      9979       9980       9991       9990      10100      10101      10112      10111  
      9980       9981       9992       9991      10101      10102      10113      10112  
      9981       9982       9993       9992      10102      10103      10114      10113  
      9982       9983       9994       9993      10103      10104      10115      10114  
      9983       9984       9995       9994      10104      10105      10116      10115  
      9984       9985       9996       9995      10105      10106      10117      10116  
      9985       9986       9997       9996      10106      10107      10118      10117  
      9986       9987       9998       9997      10107      10108      10119      10118  
      9987       9988       9999       9998      10108      10109      10120      10119  
      9989       9990      10001      10000      10110      10111      10122      10121  
      9990       9991      10002      10001      10111      10112      10123      10122  
      9991       9992      10003      10002      10112      10113      10124      10123  
      9992       9993      10004      10003      10113      10114      10125      10124  
      9993       9994      10005      10004      10114      10115      10126      10125  
      9994       9995      10006      10005      10115      10116      10127      10126  
      9995       9996      10007      10006      10116      10117      10128      10127  
      9996       9997      10008      10007      10117      10118      10129      10128  
      9997       9998      10009      10008      10118      10119      10130      10129  
      9998       9999      10010      10009      10119      10120      10131      10130  
     10000      10001      10012      10011      10121      10122      10133      10132  
     10001      10002      10013      10012      10122      10123      10134      10133  
     10002      10003      10014      10013      10123      10124      10135      10134  
     10003      10004      10015      10014      10124      10125      10136      10135  
     10004      10005      10016      10015      10125      10126      10137      10136  
     10005      10006      10017      10016      10126      10127      10138      10137  
     10006      10007      10018      10017      10127      10128      10139      10138  
     10007      10008      10019      10018      10128      10129      10140      10139  
     10008      10009      10020      10019      10129      10130      10141      10140  
     10009      10010      10021      10020      10130      10131      10142      10141  
     10011      10012      10023      10022      10132      10133      10144      10143  
     10012      10013      10024      10023      10133      10134      10145      10144  
     10013      10014      10025      10024      10134      10135      10146      10145  
     10014      10015      10026      10025      10135      10136      10147      10146  
     10015      10016      10027      10026      10136      10137      10148      10147  
     10016      10017      10028      10027      10137      10138      10149      10148  
     10017      10018      10029      10028      10138      10139      10150      10149  
     10018      10019      10030      10029      10139      10140      10151      10150  
     10019      10020      10031      10030      10140      10141      10152      10151  
     10020      10021      10032      10031      10141      10142      10153      10152  
     10022      10023      10034      10033      10143      10144      10155      10154  
     10023      10024      10035      10034      10144      10145      10156      10155  
     10024      10025      10036      10035      10145      10146      10157      10156  
     10025      10026      10037      10036      10146      10147      10158      10157  
     10026      10027      10038      10037      10147      10148      10159      10158  
     10027      10028      10039      10038      10148      10149      10160      10159  
     10028      10029      10040      10039      10149      10150      10161      10160  
     10029      10030      10041      10040      10150      10151      10162      10161  
     10030      10031      10042      10041      10151      10152      10163      10162  
     10031      10032      10043      10042      10152      10153      10164      10163  
     10044      10045      10056      10055      10165      10166      10177      10176  
     10045      10046      10057      10056      10166      10167      10178      10177  
     10046      10047      10058      10057      10167      10168      10179      10178  
     10047      10048      10059      10058      10168      10169      10180      10179  
     10048      10049      10060      10059      10169      10170      10181      10180  
     10049      10050      10061      10060      10170      10171      10182      10181  
     10050      10051      10062      10061      10171      10172      10183      10182  
     10051      10052      10063      10062      10172      10173      10184      10183  
     10052      10053      10064      10063      10173      10174      10185      10184  
     10053      10054      10065      10064      10174      10175      10186      10185  
     10055      10056      10067      10066      10176      10177      10188      10187  
     10056      10057      10068      10067      10177      10178      10189      10188  
     10057      10058      10069      10068      10178      10179      10190      10189  
     10058      10059      10070      10069      10179      10180      10191      10190  
     10059      10060      10071      10070      10180      10181      10192      10191  
     10060      10061      10072      10071      10181      10182      10193      10192  
     10061      10062      10073      10072      10182      10183      10194      10193  
     10062      10063      10074      10073      10183      10184      10195      10194  
     10063      10064      10075      10074      10184      10185      10196      10195  
     10064      10065      10076      10075      10185      10186      10197      10196  
     10066      10067      10078      10077      10187      10188      10199      10198  
     10067      10068      10079      10078      10188      10189      10200      10199  
     10068      10069      10080      10079      10189      10190      10201      10200  
     10069      10070      10081      10080      10190      10191      10202      10201  
     10070      10071      10082      10081      10191      10192      10203      10202  
     10071      10072      10083      10082      10192      10193      10204      10203  
     10072      10073      10084      10083      10193      10194      10205      10204  
     10073      10074      10085      10084      10194      10195      10206      10205  
     10074      10075      10086      10085      10195      10196      10207      10206  
     10075      10076      10087      10086      10196      10197      10208      10207  
     10077      10078      10089      10088      10198      10199      10210      10209  
     10078      10079      10090      10089      10199      10200      10211      10210  
     10079      10080      10091      10090      10200      10201      10212      10211  
     10080      10081      10092      10091      10201      10202      10213      10212  
     10081      10082      10093      10092      10202      10203      10214      10213  
     10082      10083      10094      10093      10203      10204      10215      10214  
     10083      10084      10095      10094      10204      10205      10216      10215  
     10084      10085      10096      10095      10205      10206      10217      10216  
     10085      10086      10097      10096      10206      10207      10218      10217  
     10086      10087      10098      10097      10207      10208      10219      10218  
     10088      10089      10100      10099      10209      10210      10221      10220  
     10089      10090      10101      10100      10210      10211      10222      10221  
     10090      10091      10102      10101      10211      10212      10223      10222  
     10091      10092      10103      10102      10212      10213      10224      10223  
     10092      10093      10104      10103      10213      10214      10225      10224  
     10093      10094      10105      10104      10214      10215      10226      10225  
     10094      10095      10106      10105      10215      10216      10227      10226  
     10095      10096      10107      10106      10216      10217      10228      10227  
     10096      10097      10108      10107      10217      10218      10229      10228  
     10097      10098      10109      10108      10218      10219      10230      10229  
     10099      10100      10111      10110      10220      10221      10232      10231  
     10100      10101      10112      10111      10221      10222      10233      10232  
     10101      10102      10113      10112      10222      10223      10234      10233  
     10102      10103      10114      10113      10223      10224      10235      10234  
     10103      10104      10115      10114      10224      10225      10236      10235  
     10104      10105      10116      10115      10225      10226      10237      10236  
     10105      10106      10117      10116      10226      10227      10238      10237  
     10106      10107      10118      10117      10227      10228      10239      10238  
     10107      10108      10119      10118      10228      10229      10240      10239  
     10108      10109      10120      10119      10229      10230      10241      10240  
     10110      10111      10122      10121      10231      10232      10243      10242  
     10111      10112      10123      10122      10232      10233      10244      10243  
     10112      10113      10124      10123      10233      10234      10245      10244  
     10113      10114      10125      10124      10234      10235      10246      10245  
     10114      10115      10126      10125      10235      10236      10247      10246  
     10115      10116      10127      10126      10236      10237      10248      10247  
     10116      10117      10128      10127      10237      10238      10249      10248  
     10117      10118      10129      10128      10238      10239      10250      10249  
     10118      10119      10130      10129      10239      10240      10251      10250  
     10119      10120      10131      10130      10240      10241      10252      10251  
     10121      10122      10133      10132      10242      10243      10254      10253  
     10122      10123      10134      10133      10243      10244      10255      10254  
     10123      10124      10135      10134      10244      10245      10256      10255  
     10124      10125      10136      10135      10245      10246      10257      10256  
     10125      10126      10137      10136      10246      10247      10258      10257  
     10126      10127      10138      10137      10247      10248      10259      10258  
     10127      10128      10139      10138      10248      10249      10260      10259  
     10128      10129      10140      10139      10249      10250      10261      10260  
     10129      10130      10141      10140      10250      10251      10262      10261  
     10130      10131      10142      10141      10251      10252      10263      10262  
     10132      10133      10144      10143      10253      10254      10265      10264  
     10133      10134      10145      10144      10254      10255      10266      10265  
     10134      10135      10146      10145      10255      10256      10267      10266  
     10135      10136      10147      10146      10256      10257      10268      10267  
     10136      10137      10148      10147      10257      10258      10269      10268  
     10137      10138      10149      10148      10258      10259      10270      10269  
     10138      10139      10150      10149      10259      10260      10271      10270  
     10139      10140      10151      10150      10260      10261      10272      10271  
     10140      10141      10152      10151      10261      10262      10273      10272  
     10141      10142      10153      10152      10262      10263      10274      10273  
     10143      10144      10155      10154      10264      10265      10276      10275  
     10144      10145      10156      10155      10265      10266      10277      10276  
     10145      10146      10157      10156      10266      10267      10278      10277  
     10146      10147      10158      10157      10267      10268      10279      10278  
     10147      10148      10159      10158      10268      10269      10280      10279  
     10148      10149      10160      10159      10269      10270      10281      10280  
     10149      10150      10161      10160      10270      10271      10282      10281  
     10150      10151      10162      10161      10271      10272      10283      10282  
     10151      10152      10163      10162      10272      10273      10284      10283  
     10152      10153      10164      10163      10273      10274      10285      10284  
     10165      10166      10177      10176      10286      10287      10298      10297  
     10166      10167      10178      10177      10287      10288      10299      10298  
     10167      10168      10179      10178      10288      10289      10300      10299  
     10168      10169      10180      10179      10289      10290      10301      10300  
     10169      10170      10181      10180      10290      10291      10302      10301  
     10170      10171      10182      10181      10291      10292      10303      10302  
     10171      10172      10183      10182      10292      10293      10304      10303  
     10172      10173      10184      10183      10293      10294      10305      10304  
     10173      10174      10185      10184      10294      10295      10306      10305  
     10174      10175      10186      10185      10295      10296      10307      10306  
     10176      10177      10188      10187      10297      10298      10309      10308  
     10177      10178      10189      10188      10298      10299      10310      10309  
     10178      10179      10190      10189      10299      10300      10311      10310  
     10179      10180      10191      10190      10300      10301      10312      10311  
     10180      10181      10192      10191      10301      10302      10313      10312  
     10181      10182      10193      10192      10302      10303      10314      10313  
     10182      10183      10194      10193      10303      10304      10315      10314  
     10183      10184      10195      10194      10304      10305      10316      10315  
     10184      10185      10196      10195      10305      10306      10317      10316  
     10185      10186      10197      10196      10306      10307      10318      10317  
     10187      10188      10199      10198      10308      10309      10320      10319  
     10188      10189      10200      10199      10309      10310      10321      10320  
     10189      10190      10201      10200      10310      10311      10322      10321  
     10190      10191      10202      10201      10311      10312      10323      10322  
     10191      10192      10203      10202      10312      10313      10324      10323  
     10192      10193      10204      10203      10313      10314      10325      10324  
     10193      10194      10205      10204      10314      10315      10326      10325  
     10194      10195      10206      10205      10315      10316      10327      10326  
     10195      10196      10207      10206      10316      10317      10328      10327  
     10196      10197      10208      10207      10317      10318      10329      10328  
     10198      10199      10210      10209      10319      10320      10331      10330  
     10199      10200      10211      10210      10320      10321      10332      10331  
     10200      10201      10212      10211      10321      10322      10333      10332  
     10201      10202      10213      10212      10322      10323      10334      10333  
     10202      10203      10214      10213      10323      10324      10335      10334  
     10203      10204      10215      10214      10324      10325      10336      10335  
     10204      10205      10216      10215      10325      10326      10337      10336  
     10205      10206      10217      10216      10326      10327      10338      10337  
     10206      10207      10218      10217      10327      10328      10339      10338  
     10207      10208      10219      10218      10328      10329      10340      10339  
     10209      10210      10221      10220      10330      10331      10342      10341  
     10210      10211      10222      10221      10331      10332      10343      10342  
     10211      10212      10223      10222      10332      10333      10344      10343  
     10212      10213      10224      10223      10333      10334      10345      10344  
     10213      10214      10225      10224      10334      10335      10346      10345  
     10214      10215      10226      10225      10335      10336      10347      10346  
     10215      10216      10227      10226      10336      10337      10348      10347  
     10216      10217      10228      10227      10337      10338      10349      10348  
     10217      10218      10229      10228      10338      10339      10350      10349  
     10218      10219      10230      10229      10339      10340      10351      10350  
     10220      10221      10232      10231      10341      10342      10353      10352  
     10221      10222      10233      10232      10342      10343      10354      10353  
     10222      10223      10234      10233      10343      10344      10355      10354  
     10223      10224      10235      10234      10344      10345      10356      10355  
     10224      10225      10236      10235      10345      10346      10357      10356  
     10225      10226      10237      10236      10346      10347      10358      10357  
     10226      10227      10238      10237      10347      10348      10359      10358  
     10227      10228      10239      10238      10348      10349      10360      10359  
     10228      10229      10240      10239      10349      10350      10361      10360  
     10229      10230      10241      10240      10350      10351      10362      10361  
     10231      10232      10243      10242      10352      10353      10364      10363  
     10232      10233      10244      10243      10353      10354      10365      10364  
     10233      10234      10245      10244      10354      10355      10366      10365  
     10234      10235      10246      10245      10355      10356      10367      10366  
     10235      10236      10247      10246      10356      10357      10368      10367  
     10236      10237      10248      10247      10357      10358      10369      10368  
     10237      10238      10249      10248      10358      10359      10370      10369  
     10238      10239      10250      10249      10359      10360      10371      10370  
     10239      10240      10251      10250      10360      10361      10372      10371  
     10240      10241      10252      10251      10361      10362      10373      10372  
     10242      10243      10254      10253      10363      10364      10375      10374  
     10243      10244      10255      10254      10364      10365      10376      10375  
     10244      10245      10256      10255      10365      10366      10377      10376  
     10245      10246      10257      10256      10366      10367      10378      10377  
     10246      10247      10258      10257      10367      10368      10379      10378  
     10247      10248      10259      10258      10368      10369      10380      10379  
     10248      10249      10260      10259      10369      10370      10381      10380  
     10249      10250      10261      10260      10370      10371      10382      10381  
     10250      10251      10262      10261      10371      10372      10383      10382  
     10251      10252      10263      10262      10372      10373      10384      10383  
     10253      10254      10265      10264      10374      10375      10386      10385  
     10254      10255      10266      10265      10375      10376      10387      10386  
     10255      10256      10267      10266      10376      10377      10388      10387  
     10256      10257      10268      10267      10377      10378      10389      10388  
     10257      10258      10269      10268      10378      10379      10390      10389  
     10258      10259      10270      10269      10379      10380      10391      10390  
     10259      10260      10271      10270      10380      10381      10392      10391  
     10260      10261      10272      10271      10381      10382      10393      10392  
     10261      10262      10273      10272      10382      10383      10394      10393  
     10262      10263      10274      10273      10383      10384      10395      10394  
     10264      10265      10276      10275      10385      10386      10397      10396  
     10265      10266      10277      10276      10386      10387      10398      10397  
     10266      10267      10278      10277      10387      10388      10399      10398  
     10267      10268      10279      10278      10388      10389      10400      10399  
     10268      10269      10280      10279      10389      10390      10401      10400  
     10269      10270      10281      10280      10390      10391      10402      10401  
     10270      10271      10282      10281      10391      10392      10403      10402  
     10271      10272      10283      10282      10392      10393      10404      10403  
     10272      10273      10284      10283      10393      10394      10405      10404  
     10273      10274      10285      10284      10394      10395      10406      10405  
     10286      10287      10298      10297      10407      10408      10419      10418  
     10287      10288      10299      10298      10408      10409      10420      10419  
     10288      10289      10300      10299      10409      10410      10421      10420  
     10289      10290      10301      10300      10410      10411      10422      10421  
     10290      10291      10302      10301      10411      10412      10423      10422  
     10291      10292      10303      10302      10412      10413      10424      10423  
     10292      10293      10304      10303      10413      10414      10425      10424  
     10293      10294      10305      10304      10414      10415      10426      10425  
     10294      10295      10306      10305      10415      10416      10427      10426  
     10295      10296      10307      10306      10416      10417      10428      10427  
     10297      10298      10309      10308      10418      10419      10430      10429  
     10298      10299      10310      10309      10419      10420      10431      10430  
     10299      10300      10311      10310      10420      10421      10432      10431  
     10300      10301      10312      10311      10421      10422      10433      10432  
     10301      10302      10313      10312      10422      10423      10434      10433  
     10302      10303      10314      10313      10423      10424      10435      10434  
     10303      10304      10315      10314      10424      10425      10436      10435  
     10304      10305      10316      10315      10425      10426      10437      10436  
     10305      10306      10317      10316      10426      10427      10438      10437  
     10306      10307      10318      10317      10427      10428      10439      10438  
     10308      10309      10320      10319      10429      10430      10441      10440  
     10309      10310      10321      10320      10430      10431      10442      10441  
     10310      10311      10322      10321      10431      10432      10443      10442  
     10311      10312      10323      10322      10432      10433      10444      10443  
     10312      10313      10324      10323      10433      10434      10445      10444  
     10313      10314      10325      10324      10434      10435      10446      10445  
     10314      10315      10326      10325      10435      10436      10447      10446  
     10315      10316      10327      10326      10436      10437      10448      10447  
     10316      10317      10328      10327      10437      10438      10449      10448  
     10317      10318      10329      10328      10438      10439      10450      10449  
     10319      10320      10331      10330      10440      10441      10452      10451  
     10320      10321      10332      10331      10441      10442      10453      10452  
     10321      10322      10333      10332      10442      10443      10454      10453  
     10322      10323      10334      10333      10443      10444      10455      10454  
     10323      10324      10335      10334      10444      10445      10456      10455  
     10324      10325      10336      10335      10445      10446      10457      10456  
     10325      10326      10337      10336      10446      10447      10458      10457  
     10326      10327      10338      10337      10447      10448      10459      10458  
     10327      10328      10339      10338      10448      10449      10460      10459  
     10328      10329      10340      10339      10449      10450      10461      10460  
     10330      10331      10342      10341      10451      10452      10463      10462  
     10331      10332      10343      10342      10452      10453      10464      10463  
     10332      10333      10344      10343      10453      10454      10465      10464  
     10333      10334      10345      10344      10454      10455      10466      10465  
     10334      10335      10346      10345      10455      10456      10467      10466  
     10335      10336      10347      10346      10456      10457      10468      10467  
     10336      10337      10348      10347      10457      10458      10469      10468  
     10337      10338      10349      10348      10458      10459      10470      10469  
     10338      10339      10350      10349      10459      10460      10471      10470  
     10339      10340      10351      10350      10460      10461      10472      10471  
     10341      10342      10353      10352      10462      10463      10474      10473  
     10342      10343      10354      10353      10463      10464      10475      10474  
     10343      10344      10355      10354      10464      10465      10476      10475  
     10344      10345      10356      10355      10465      10466      10477      10476  
     10345      10346      10357      10356      10466      10467      10478      10477  
     10346      10347      10358      10357      10467      10468      10479      10478  
     10347      10348      10359      10358      10468      10469      10480      10479  
     10348      10349      10360      10359      10469      10470      10481      10480  
     10349      10350      10361      10360      10470      10471      10482      10481  
     10350      10351      10362      10361      10471      10472      10483      10482  
     10352      10353      10364      10363      10473      10474      10485      10484  
     10353      10354      10365      10364      10474      10475      10486      10485  
     10354      10355      10366      10365      10475      10476      10487      10486  
     10355      10356      10367      10366      10476      10477      10488      10487  
     10356      10357      10368      10367      10477      10478      10489      10488  
     10357      10358      10369      10368      10478      10479      10490      10489  
     10358      10359      10370      10369      10479      10480      10491      10490  
     10359      10360      10371      10370      10480      10481      10492      10491  
     10360      10361      10372      10371      10481      10482      10493      10492  
     10361      10362      10373      10372      10482      10483      10494      10493  
     10363      10364      10375      10374      10484      10485      10496      10495  
     10364      10365      10376      10375      10485      10486      10497      10496  
     10365      10366      10377      10376      10486      10487      10498      10497  
     10366      10367      10378      10377      10487      10488      10499      10498  
     10367      10368      10379      10378      10488      10489      10500      10499  
     10368      10369      10380      10379      10489      10490      10501      10500  
     10369      10370      10381      10380      10490      10491      10502      10501  
     10370      10371      10382      10381      10491      10492      10503      10502  
     10371      10372      10383      10382      10492      10493      10504      10503  
     10372      10373      10384      10383      10493      10494      10505      10504  
     10374      10375      10386      10385      10495      10496      10507      10506  
     10375      10376      10387      10386      10496      10497      10508      10507  
     10376      10377      10388      10387      10497      10498      10509      10508  
     10377      10378      10389      10388      10498      10499      10510      10509  
     10378      10379      10390      10389      10499      10500      10511      10510  
     10379      10380      10391      10390      10500      10501      10512      10511  
     10380      10381      10392      10391      10501      10502      10513      10512  
     10381      10382      10393      10392      10502      10503      10514      10513  
     10382      10383      10394      10393      10503      10504      10515      10514  
     10383      10384      10395      10394      10504      10505      10516      10515  
     10385      10386      10397      10396      10506      10507      10518      10517  
     10386      10387      10398      10397      10507      10508      10519      10518  
     10387      10388      10399      10398      10508      10509      10520      10519  
     10388      10389      10400      10399      10509      10510      10521      10520  
     10389      10390      10401      10400      10510      10511      10522      10521  
     10390      10391      10402      10401      10511      10512      10523      10522  
     10391      10392      10403      10402      10512      10513      10524      10523  
     10392      10393      10404      10403      10513      10514      10525      10524  
     10393      10394      10405      10404      10514      10515      10526      10525  
     10394      10395      10406      10405      10515      10516      10527      10526  
     10407      10408      10419      10418      10528      10529      10540      10539  
     10408      10409      10420      10419      10529      10530      10541      10540  
     10409      10410      10421      10420      10530      10531      10542      10541  
     10410      10411      10422      10421      10531      10532      10543      10542  
     10411      10412      10423      10422      10532      10533      10544      10543  
     10412      10413      10424      10423      10533      10534      10545      10544  
     10413      10414      10425      10424      10534      10535      10546      10545  
     10414      10415      10426      10425      10535      10536      10547      10546  
     10415      10416      10427      10426      10536      10537      10548      10547  
     10416      10417      10428      10427      10537      10538      10549      10548  
     10418      10419      10430      10429      10539      10540      10551      10550  
     10419      10420      10431      10430      10540      10541      10552      10551  
     10420      10421      10432      10431      10541      10542      10553      10552  
     10421      10422      10433      10432      10542      10543      10554      10553  
     10422      10423      10434      10433      10543      10544      10555      10554  
     10423      10424      10435      10434      10544      10545      10556      10555  
     10424      10425      10436      10435      10545      10546      10557      10556  
     10425      10426      10437      10436      10546      10547      10558      10557  
     10426      10427      10438      10437      10547      10548      10559      10558  
     10427      10428      10439      10438      10548      10549      10560      10559  
     10429      10430      10441      10440      10550      10551      10562      10561  
     10430      10431      10442      10441      10551      10552      10563      10562  
     10431      10432      10443      10442      10552      10553      10564      10563  
     10432      10433      10444      10443      10553      10554      10565      10564  
     10433      10434      10445      10444      10554      10555      10566      10565  
     10434      10435      10446      10445      10555      10556      10567      10566  
     10435      10436      10447      10446      10556      10557      10568      10567  
     10436      10437      10448      10447      10557      10558      10569      10568  
     10437      10438      10449      10448      10558      10559      10570      10569  
     10438      10439      10450      10449      10559      10560      10571      10570  
     10440      10441      10452      10451      10561      10562      10573      10572  
     10441      10442      10453      10452      10562      10563      10574      10573  
     10442      10443      10454      10453      10563      10564      10575      10574  
     10443      10444      10455      10454      10564      10565      10576      10575  
     10444      10445      10456      10455      10565      10566      10577      10576  
     10445      10446      10457      10456      10566      10567      10578      10577  
     10446      10447      10458      10457      10567      10568      10579      10578  
     10447      10448      10459      10458      10568      10569      10580      10579  
     10448      10449      10460      10459      10569      10570      10581      10580  
     10449      10450      10461      10460      10570      10571      10582      10581  
     10451      10452      10463      10462      10572      10573      10584      10583  
     10452      10453      10464      10463      10573      10574      10585      10584  
     10453      10454      10465      10464      10574      10575      10586      10585  
     10454      10455      10466      10465      10575      10576      10587      10586  
     10455      10456      10467      10466      10576      10577      10588      10587  
     10456      10457      10468      10467      10577      10578      10589      10588  
     10457      10458      10469      10468      10578      10579      10590      10589  
     10458      10459      10470      10469      10579      10580      10591      10590  
     10459      10460      10471      10470      10580      10581      10592      10591  
     10460      10461      10472      10471      10581      10582      10593      10592  
     10462      10463      10474      10473      10583      10584      10595      10594  
     10463      10464      10475      10474      10584      10585      10596      10595  
     10464      10465      10476      10475      10585      10586      10597      10596  
     10465      10466      10477      10476      10586      10587      10598      10597  
     10466      10467      10478      10477      10587      10588      10599      10598  
     10467      10468      10479      10478      10588      10589      10600      10599  
     10468      10469      10480      10479      10589      10590      10601      10600  
     10469      10470      10481      10480      10590      10591      10602      10601  
     10470      10471      10482      10481      10591      10592      10603      10602  
     10471      10472      10483      10482      10592      10593      10604      10603  
     10473      10474      10485      10484      10594      10595      10606      10605  
     10474      10475      10486      10485      10595      10596      10607      10606  
     10475      10476      10487      10486      10596      10597      10608      10607  
     10476      10477      10488      10487      10597      10598      10609      10608  
     10477      10478      10489      10488      10598      10599      10610      10609  
     10478      10479      10490      10489      10599      10600      10611      10610  
     10479      10480      10491      10490      10600      10601      10612      10611  
     10480      10481      10492      10491      10601      10602      10613      10612  
     10481      10482      10493      10492      10602      10603      10614      10613  
     10482      10483      10494      10493      10603      10604      10615      10614  
     10484      10485      10496      10495      10605      10606      10617      10616  
     10485      10486      10497      10496      10606      10607      10618      10617  
     10486      10487      10498      10497      10607      10608      10619      10618  
     10487      10488      10499      10498      10608      10609      10620      10619  
     10488      10489      10500      10499      10609      10610      10621      10620  
     10489      10490      10501      10500      10610      10611      10622      10621  
     10490      10491      10502      10501      10611      10612      10623      10622  
     10491      10492      10503      10502      10612      10613      10624      10623  
     10492      10493      10504      10503      10613      10614      10625      10624  
     10493      10494      10505      10504      10614      10615      10626      10625  
     10495      10496      10507      10506      10616      10617      10628      10627  
     10496      10497      10508      10507      10617      10618      10629      10628  
     10497      10498      10509      10508      10618      10619      10630      10629  
     10498      10499      10510      10509      10619      10620      10631      10630  
     10499      10500      10511      10510      10620      10621      10632      10631  
     10500      10501      10512      10511      10621      10622      10633      10632  
     10501      10502      10513      10512      10622      10623      10634      10633  
     10502      10503      10514      10513      10623      10624      10635      10634  
     10503      10504      10515      10514      10624      10625      10636      10635  
     10504      10505      10516      10515      10625      10626      10637      10636  
     10506      10507      10518      10517      10627      10628      10639      10638  
     10507      10508      10519      10518      10628      10629      10640      10639  
     10508      10509      10520      10519      10629      10630      10641      10640  
     10509      10510      10521      10520      10630      10631      10642      10641  
     10510      10511      10522      10521      10631      10632      10643      10642  
     10511      10512      10523      10522      10632      10633      10644      10643  
     10512      10513      10524      10523      10633      10634      10645      10644  
     10513      10514      10525      10524      10634      10635      10646      10645  
     10514      10515      10526      10525      10635      10636      10647      10646  
     10515      10516      10527      10526      10636      10637      10648      10647  
     10528      10529      10540      10539      10649      10650      10661      10660  
     10529      10530      10541      10540      10650      10651      10662      10661  
     10530      10531      10542      10541      10651      10652      10663      10662  
     10531      10532      10543      10542      10652      10653      10664      10663  
     10532      10533      10544      10543      10653      10654      10665      10664  
     10533      10534      10545      10544      10654      10655      10666      10665  
     10534      10535      10546      10545      10655      10656      10667      10666  
     10535      10536      10547      10546      10656      10657      10668      10667  
     10536      10537      10548      10547      10657      10658      10669      10668  
     10537      10538      10549      10548      10658      10659      10670      10669  
     10539      10540      10551      10550      10660      10661      10672      10671  
     10540      10541      10552      10551      10661      10662      10673      10672  
     10541      10542      10553      10552      10662      10663      10674      10673  
     10542      10543      10554      10553      10663      10664      10675      10674  
     10543      10544      10555      10554      10664      10665      10676      10675  
     10544      10545      10556      10555      10665      10666      10677      10676  
     10545      10546      10557      10556      10666      10667      10678      10677  
     10546      10547      10558      10557      10667      10668      10679      10678  
     10547      10548      10559      10558      10668      10669      10680      10679  
     10548      10549      10560      10559      10669      10670      10681      10680  
     10550      10551      10562      10561      10671      10672      10683      10682  
     10551      10552      10563      10562      10672      10673      10684      10683  
     10552      10553      10564      10563      10673      10674      10685      10684  
     10553      10554      10565      10564      10674      10675      10686      10685  
     10554      10555      10566      10565      10675      10676      10687      10686  
     10555      10556      10567      10566      10676      10677      10688      10687  
     10556      10557      10568      10567      10677      10678      10689      10688  
     10557      10558      10569      10568      10678      10679      10690      10689  
     10558      10559      10570      10569      10679      10680      10691      10690  
     10559      10560      10571      10570      10680      10681      10692      10691  
     10561      10562      10573      10572      10682      10683      10694      10693  
     10562      10563      10574      10573      10683      10684      10695      10694  
     10563      10564      10575      10574      10684      10685      10696      10695  
     10564      10565      10576      10575      10685      10686      10697      10696  
     10565      10566      10577      10576      10686      10687      10698      10697  
     10566      10567      10578      10577      10687      10688      10699      10698  
     10567      10568      10579      10578      10688      10689      10700      10699  
     10568      10569      10580      10579      10689      10690      10701      10700  
     10569      10570      10581      10580      10690      10691      10702      10701  
     10570      10571      10582      10581      10691      10692      10703      10702  
     10572      10573      10584      10583      10693      10694      10705      10704  
     10573      10574      10585      10584      10694      10695      10706      10705  
     10574      10575      10586      10585      10695      10696      10707      10706  
     10575      10576      10587      10586      10696      10697      10708      10707  
     10576      10577      10588      10587      10697      10698      10709      10708  
     10577      10578      10589      10588      10698      10699      10710      10709  
     10578      10579      10590      10589      10699      10700      10711      10710  
     10579      10580      10591      10590      10700      10701      10712      10711  
     10580      10581      10592      10591      10701      10702      10713      10712  
     10581      10582      10593      10592      10702      10703      10714      10713  
     10583      10584      10595      10594      10704      10705      10716      10715  
     10584      10585      10596      10595      10705      10706      10717      10716  
     10585      10586      10597      10596      10706      10707      10718      10717  
     10586      10587      10598      10597      10707      10708      10719      10718  
     10587      10588      10599      10598      10708      10709      10720      10719  
     10588      10589      10600      10599      10709      10710      10721      10720  
     10589      10590      10601      10600      10710      10711      10722      10721  
     10590      10591      10602      10601      10711      10712      10723      10722  
     10591      10592      10603      10602      10712      10713      10724      10723  
     10592      10593      10604      10603      10713      10714      10725      10724  
     10594      10595      10606      10605      10715      10716      10727      10726  
     10595      10596      10607      10606      10716      10717      10728      10727  
     10596      10597      10608      10607      10717      10718      10729      10728  
     10597      10598      10609      10608      10718      10719      10730      10729  
     10598      10599      10610      10609      10719      10720      10731      10730  
     10599      10600      10611      10610      10720      10721      10732      10731  
     10600      10601      10612      10611      10721      10722      10733      10732  
     10601      10602      10613      10612      10722      10723      10734      10733  
     10602      10603      10614      10613      10723      10724      10735      10734  
     10603      10604      10615      10614      10724      10725      10736      10735  
     10605      10606      10617      10616      10726      10727      10738      10737  
     10606      10607      10618      10617      10727      10728      10739      10738  
     10607      10608      10619      10618      10728      10729      10740      10739  
     10608      10609      10620      10619      10729      10730      10741      10740  
     10609      10610      10621      10620      10730      10731      10742      10741  
     10610      10611      10622      10621      10731      10732      10743      10742  
     10611      10612      10623      10622      10732      10733      10744      10743  
     10612      10613      10624      10623      10733      10734      10745      10744  
     10613      10614      10625      10624      10734      10735      10746      10745  
     10614      10615      10626      10625      10735      10736      10747      10746  
     10616      10617      10628      10627      10737      10738      10749      10748  
     10617      10618      10629      10628      10738      10739      10750      10749  
     10618      10619      10630      10629      10739      10740      10751      10750  
     10619      10620      10631      10630      10740      10741      10752      10751  
     10620      10621      10632      10631      10741      10742      10753      10752  
     10621      10622      10633      10632      10742      10743      10754      10753  
     10622      10623      10634      10633      10743      10744      10755      10754  
     10623      10624      10635      10634      10744      10745      10756      10755  
     10624      10625      10636      10635      10745      10746      10757      10756  
     10625      10626      10637      10636      10746      10747      10758      10757  
     10627      10628      10639      10638      10748      10749      10760      10759  
     10628      10629      10640      10639      10749      10750      10761      10760  
     10629      10630      10641      10640      10750      10751      10762      10761  
     10630      10631      10642      10641      10751      10752      10763      10762  
     10631      10632      10643      10642      10752      10753      10764      10763  
     10632      10633      10644      10643      10753      10754      10765      10764  
     10633      10634      10645      10644      10754      10755      10766      10765  
     10634      10635      10646      10645      10755      10756      10767      10766  
     10635      10636      10647      10646      10756      10757      10768      10767  
     10636      10637      10648      10647      10757      10758      10769      10768  
     10649      10650      10661      10660      10770      10771      10782      10781  
     10650      10651      10662      10661      10771      10772      10783      10782  
     10651      10652      10663      10662      10772      10773      10784      10783  
     10652      10653      10664      10663      10773      10774      10785      10784  
     10653      10654      10665      10664      10774      10775      10786      10785  
     10654      10655      10666      10665      10775      10776      10787      10786  
     10655      10656      10667      10666      10776      10777      10788      10787  
     10656      10657      10668      10667      10777      10778      10789      10788  
     10657      10658      10669      10668      10778      10779      10790      10789  
     10658      10659      10670      10669      10779      10780      10791      10790  
     10660      10661      10672      10671      10781      10782      10793      10792  
     10661      10662      10673      10672      10782      10783      10794      10793  
     10662      10663      10674      10673      10783      10784      10795      10794  
     10663      10664      10675      10674      10784      10785      10796      10795  
     10664      10665      10676      10675      10785      10786      10797      10796  
     10665      10666      10677      10676      10786      10787      10798      10797  
     10666      10667      10678      10677      10787      10788      10799      10798  
     10667      10668      10679      10678      10788      10789      10800      10799  
     10668      10669      10680      10679      10789      10790      10801      10800  
     10669      10670      10681      10680      10790      10791      10802      10801  
     10671      10672      10683      10682      10792      10793      10804      10803  
     10672      10673      10684      10683      10793      10794      10805      10804  
     10673      10674      10685      10684      10794      10795      10806      10805  
     10674      10675      10686      10685      10795      10796      10807      10806  
     10675      10676      10687      10686      10796      10797      10808      10807  
     10676      10677      10688      10687      10797      10798      10809      10808  
     10677      10678      10689      10688      10798      10799      10810      10809  
     10678      10679      10690      10689      10799      10800      10811      10810  
     10679      10680      10691      10690      10800      10801      10812      10811  
     10680      10681      10692      10691      10801      10802      10813      10812  
     10682      10683      10694      10693      10803      10804      10815      10814  
     10683      10684      10695      10694      10804      10805      10816      10815  
     10684      10685      10696      10695      10805      10806      10817      10816  
     10685      10686      10697      10696      10806      10807      10818      10817  
     10686      10687      10698      10697      10807      10808      10819      10818  
     10687      10688      10699      10698      10808      10809      10820      10819  
     10688      10689      10700      10699      10809      10810      10821      10820  
     10689      10690      10701      10700      10810      10811      10822      10821  
     10690      10691      10702      10701      10811      10812      10823      10822  
     10691      10692      10703      10702      10812      10813      10824      10823  
     10693      10694      10705      10704      10814      10815      10826      10825  
     10694      10695      10706      10705      10815      10816      10827      10826  
     10695      10696      10707      10706      10816      10817      10828      10827  
     10696      10697      10708      10707      10817      10818      10829      10828  
     10697      10698      10709      10708      10818      10819      10830      10829  
     10698      10699      10710      10709      10819      10820      10831      10830  
     10699      10700      10711      10710      10820      10821      10832      10831  
     10700      10701      10712      10711      10821      10822      10833      10832  
     10701      10702      10713      10712      10822      10823      10834      10833  
     10702      10703      10714      10713      10823      10824      10835      10834  
     10704      10705      10716      10715      10825      10826      10837      10836  
     10705      10706      10717      10716      10826      10827      10838      10837  
     10706      10707      10718      10717      10827      10828      10839      10838  
     10707      10708      10719      10718      10828      10829      10840      10839  
     10708      10709      10720      10719      10829      10830      10841      10840  
     10709      10710      10721      10720      10830      10831      10842      10841  
     10710      10711      10722      10721      10831      10832      10843      10842  
     10711      10712      10723      10722      10832      10833      10844      10843  
     10712      10713      10724      10723      10833      10834      10845      10844  
     10713      10714      10725      10724      10834      10835      10846      10845  
     10715      10716      10727      10726      10836      10837      10848      10847  
     10716      10717      10728      10727      10837      10838      10849      10848  
     10717      10718      10729      10728      10838      10839      10850      10849  
     10718      10719      10730      10729      10839      10840      10851      10850  
     10719      10720      10731      10730      10840      10841      10852      10851  
     10720      10721      10732      10731      10841      10842      10853      10852  
     10721      10722      10733      10732      10842      10843      10854      10853  
     10722      10723      10734      10733      10843      10844      10855      10854  
     10723      10724      10735      10734      10844      10845      10856      10855  
     10724      10725      10736      10735      10845      10846      10857      10856  
     10726      10727      10738      10737      10847      10848      10859      10858  
     10727      10728      10739      10738      10848      10849      10860      10859  
     10728      10729      10740      10739      10849      10850      10861      10860  
     10729      10730      10741      10740      10850      10851      10862      10861  
     10730      10731      10742      10741      10851      10852      10863      10862  
     10731      10732      10743      10742      10852      10853      10864      10863  
     10732      10733      10744      10743      10853      10854      10865      10864  
     10733      10734      10745      10744      10854      10855      10866      10865  
     10734      10735      10746      10745      10855      10856      10867      10866  
     10735      10736      10747      10746      10856      10857      10868      10867  
     10737      10738      10749      10748      10858      10859      10870      10869  
     10738      10739      10750      10749      10859      10860      10871      10870  
     10739      10740      10751      10750      10860      10861      10872      10871  
     10740      10741      10752      10751      10861      10862      10873      10872  
     10741      10742      10753      10752      10862      10863      10874      10873  
     10742      10743      10754      10753      10863      10864      10875      10874  
     10743      10744      10755      10754      10864      10865      10876      10875  
     10744      10745      10756      10755      10865      10866      10877      10876  
     10745      10746      10757      10756      10866      10867      10878      10877  
     10746      10747      10758      10757      10867      10868      10879      10878  
     10748      10749      10760      10759      10869      10870      10881      10880  
     10749      10750      10761      10760      10870      10871      10882      10881  
     10750      10751      10762      10761      10871      10872      10883      10882  
     10751      10752      10763      10762      10872      10873      10884      10883  
     10752      10753      10764      10763      10873      10874      10885      10884  
     10753      10754      10765      10764      10874      10875      10886      10885  
     10754      10755      10766      10765      10875      10876      10887      10886  
     10755      10756      10767      10766      10876      10877      10888      10887  
     10756      10757      10768      10767      10877      10878      10889      10888  
     10757      10758      10769      10768      10878      10879      10890      10889  
     10770      10771      10782      10781      10891      10892      10903      10902  
     10771      10772      10783      10782      10892      10893      10904      10903  
     10772      10773      10784      10783      10893      10894      10905      10904  
     10773      10774      10785      10784      10894      10895      10906      10905  
     10774      10775      10786      10785      10895      10896      10907      10906  
     10775      10776      10787      10786      10896      10897      10908      10907  
     10776      10777      10788      10787      10897      10898      10909      10908  
     10777      10778      10789      10788      10898      10899      10910      10909  
     10778      10779      10790      10789      10899      10900      10911      10910  
     10779      10780      10791      10790      10900      10901      10912      10911  
     10781      10782      10793      10792      10902      10903      10914      10913  
     10782      10783      10794      10793      10903      10904      10915      10914  
     10783      10784      10795      10794      10904      10905      10916      10915  
     10784      10785      10796      10795      10905      10906      10917      10916  
     10785      10786      10797      10796      10906      10907      10918      10917  
     10786      10787      10798      10797      10907      10908      10919      10918  
     10787      10788      10799      10798      10908      10909      10920      10919  
     10788      10789      10800      10799      10909      10910      10921      10920  
     10789      10790      10801      10800      10910      10911      10922      10921  
     10790      10791      10802      10801      10911      10912      10923      10922  
     10792      10793      10804      10803      10913      10914      10925      10924  
     10793      10794      10805      10804      10914      10915      10926      10925  
     10794      10795      10806      10805      10915      10916      10927      10926  
     10795      10796      10807      10806      10916      10917      10928      10927  
     10796      10797      10808      10807      10917      10918      10929      10928  
     10797      10798      10809      10808      10918      10919      10930      10929  
     10798      10799      10810      10809      10919      10920      10931      10930  
     10799      10800      10811      10810      10920      10921      10932      10931  
     10800      10801      10812      10811      10921      10922      10933      10932  
     10801      10802      10813      10812      10922      10923      10934      10933  
     10803      10804      10815      10814      10924      10925      10936      10935  
     10804      10805      10816      10815      10925      10926      10937      10936  
     10805      10806      10817      10816      10926      10927      10938      10937  
     10806      10807      10818      10817      10927      10928      10939      10938  
     10807      10808      10819      10818      10928      10929      10940      10939  
     10808      10809      10820      10819      10929      10930      10941      10940  
     10809      10810      10821      10820      10930      10931      10942      10941  
     10810      10811      10822      10821      10931      10932      10943      10942  
     10811      10812      10823      10822      10932      10933      10944      10943  
     10812      10813      10824      10823      10933      10934      10945      10944  
     10814      10815      10826      10825      10935      10936      10947      10946  
     10815      10816      10827      10826      10936      10937      10948      10947  
     10816      10817      10828      10827      10937      10938      10949      10948  
     10817      10818      10829      10828      10938      10939      10950      10949  
     10818      10819      10830      10829      10939      10940      10951      10950  
     10819      10820      10831      10830      10940      10941      10952      10951  
     10820      10821      10832      10831      10941      10942      10953      10952  
     10821      10822      10833      10832      10942      10943      10954      10953  
     10822      10823      10834      10833      10943      10944      10955      10954  
     10823      10824      10835      10834      10944      10945      10956      10955  
     10825      10826      10837      10836      10946      10947      10958      10957  
     10826      10827      10838      10837      10947      10948      10959      10958  
     10827      10828      10839      10838      10948      10949      10960      10959  
     10828      10829      10840      10839      10949      10950      10961      10960  
     10829      10830      10841      10840      10950      10951      10962      10961  
     10830      10831      10842      10841      10951      10952      10963      10962  
     10831      10832      10843      10842      10952      10953      10964      10963  
     10832      10833      10844      10843      10953      10954      10965      10964  
     10833      10834      10845      10844      10954      10955      10966      10965  
     10834      10835      10846      10845      10955      10956      10967      10966  
     10836      10837      10848      10847      10957      10958      10969      10968  
     10837      10838      10849      10848      10958      10959      10970      10969  
     10838      10839      10850      10849      10959      10960      10971      10970  
     10839      10840      10851      10850      10960      10961      10972      10971  
     10840      10841      10852      10851      10961      10962      10973      10972  
     10841      10842      10853      10852      10962      10963      10974      10973  
     10842      10843      10854      10853      10963      10964      10975      10974  
     10843      10844      10855      10854      10964      10965      10976      10975  
     10844      10845      10856      10855      10965      10966      10977      10976  
     10845      10846      10857      10856      10966      10967      10978      10977  
     10847      10848      10859      10858      10968      10969      10980      10979  
     10848      10849      10860      10859      10969      10970      10981      10980  
     10849      10850      10861      10860      10970      10971      10982      10981  
     10850      10851      10862      10861      10971      10972      10983      10982  
     10851      10852      10863      10862      10972      10973      10984      10983  
     10852      10853      10864      10863      10973      10974      10985      10984  
     10853      10854      10865      10864      10974      10975      10986      10985  
     10854      10855      10866      10865      10975      10976      10987      10986  
     10855      10856      10867      10866      10976      10977      10988      10987  
     10856      10857      10868      10867      10977      10978      10989      10988  
     10858      10859      10870      10869      10979      10980      10991      10990  
     10859      10860      10871      10870      10980      10981      10992      10991  
     10860      10861      10872      10871      10981      10982      10993      10992  
     10861      10862      10873      10872      10982      10983      10994      10993  
     10862      10863      10874      10873      10983      10984      10995      10994  
     10863      10864      10875      10874      10984      10985      10996      10995  
     10864      10865      10876      10875      10985      10986      10997      10996  
     10865      10866      10877      10876      10986      10987      10998      10997  
     10866      10867      10878      10877      10987      10988      10999      10998  
     10867      10868      10879      10878      10988      10989      11000      10999  
     10869      10870      10881      10880      10990      10991      11002      11001  
     10870      10871      10882      10881      10991      10992      11003      11002  
     10871      10872      10883      10882      10992      10993      11004      11003  
     10872      10873      10884      10883      10993      10994      11005      11004  
     10873      10874      10885      10884      10994      10995      11006      11005  
     10874      10875      10886      10885      10995      10996      11007      11006  
     10875      10876      10887      10886      10996      10997      11008      11007  
     10876      10877      10888      10887      10997      10998      11009      11008  
     10877      10878      10889      10888      10998      10999      11010      11009  
     10878      10879      10890      10889      10999      11000      11011      11010  
     10891      10892      10903      10902      11012      11013      11024      11023  
     10892      10893      10904      10903      11013      11014      11025      11024  
     10893      10894      10905      10904      11014      11015      11026      11025  
     10894      10895      10906      10905      11015      11016      11027      11026  
     10895      10896      10907      10906      11016      11017      11028      11027  
     10896      10897      10908      10907      11017      11018      11029      11028  
     10897      10898      10909      10908      11018      11019      11030      11029  
     10898      10899      10910      10909      11019      11020      11031      11030  
     10899      10900      10911      10910      11020      11021      11032      11031  
     10900      10901      10912      10911      11021      11022      11033      11032  
     10902      10903      10914      10913      11023      11024      11035      11034  
     10903      10904      10915      10914      11024      11025      11036      11035  
     10904      10905      10916      10915      11025      11026      11037      11036  
     10905      10906      10917      10916      11026      11027      11038      11037  
     10906      10907      10918      10917      11027      11028      11039      11038  
     10907      10908      10919      10918      11028      11029      11040      11039  
     10908      10909      10920      10919      11029      11030      11041      11040  
     10909      10910      10921      10920      11030      11031      11042      11041  
     10910      10911      10922      10921      11031      11032      11043      11042  
     10911      10912      10923      10922      11032      11033      11044      11043  
     10913      10914      10925      10924      11034      11035      11046      11045  
     10914      10915      10926      10925      11035      11036      11047      11046  
     10915      10916      10927      10926      11036      11037      11048      11047  
     10916      10917      10928      10927      11037      11038      11049      11048  
     10917      10918      10929      10928      11038      11039      11050      11049  
     10918      10919      10930      10929      11039      11040      11051      11050  
     10919      10920      10931      10930      11040      11041      11052      11051  
     10920      10921      10932      10931      11041      11042      11053      11052  
     10921      10922      10933      10932      11042      11043      11054      11053  
     10922      10923      10934      10933      11043      11044      11055      11054  
     10924      10925      10936      10935      11045      11046      11057      11056  
     10925      10926      10937      10936      11046      11047      11058      11057  
     10926      10927      10938      10937      11047      11048      11059      11058  
     10927      10928      10939      10938      11048      11049      11060      11059  
     10928      10929      10940      10939      11049      11050      11061      11060  
     10929      10930      10941      10940      11050      11051      11062      11061  
     10930      10931      10942      10941      11051      11052      11063      11062  
     10931      10932      10943      10942      11052      11053      11064      11063  
     10932      10933      10944      10943      11053      11054      11065      11064  
     10933      10934      10945      10944      11054      11055      11066      11065  
     10935      10936      10947      10946      11056      11057      11068      11067  
     10936      10937      10948      10947      11057      11058      11069      11068  
     10937      10938      10949      10948      11058      11059      11070      11069  
     10938      10939      10950      10949      11059      11060      11071      11070  
     10939      10940      10951      10950      11060      11061      11072      11071  
     10940      10941      10952      10951      11061      11062      11073      11072  
     10941      10942      10953      10952      11062      11063      11074      11073  
     10942      10943      10954      10953      11063      11064      11075      11074  
     10943      10944      10955      10954      11064      11065      11076      11075  
     10944      10945      10956      10955      11065      11066      11077      11076  
     10946      10947      10958      10957      11067      11068      11079      11078  
     10947      10948      10959      10958      11068      11069      11080      11079  
     10948      10949      10960      10959      11069      11070      11081      11080  
     10949      10950      10961      10960      11070      11071      11082      11081  
     10950      10951      10962      10961      11071      11072      11083      11082  
     10951      10952      10963      10962      11072      11073      11084      11083  
     10952      10953      10964      10963      11073      11074      11085      11084  
     10953      10954      10965      10964      11074      11075      11086      11085  
     10954      10955      10966      10965      11075      11076      11087      11086  
     10955      10956      10967      10966      11076      11077      11088      11087  
     10957      10958      10969      10968      11078      11079      11090      11089  
     10958      10959      10970      10969      11079      11080      11091      11090  
     10959      10960      10971      10970      11080      11081      11092      11091  
     10960      10961      10972      10971      11081      11082      11093      11092  
     10961      10962      10973      10972      11082      11083      11094      11093  
     10962      10963      10974      10973      11083      11084      11095      11094  
     10963      10964      10975      10974      11084      11085      11096      11095  
     10964      10965      10976      10975      11085      11086      11097      11096  
     10965      10966      10977      10976      11086      11087      11098      11097  
     10966      10967      10978      10977      11087      11088      11099      11098  
     10968      10969      10980      10979      11089      11090      11101      11100  
     10969      10970      10981      10980      11090      11091      11102      11101  
     10970      10971      10982      10981      11091      11092      11103      11102  
     10971      10972      10983      10982      11092      11093      11104      11103  
     10972      10973      10984      10983      11093      11094      11105      11104  
     10973      10974      10985      10984      11094      11095      11106      11105  
     10974      10975      10986      10985      11095      11096      11107      11106  
     10975      10976      10987      10986      11096      11097      11108      11107  
     10976      10977      10988      10987      11097      11098      11109      11108  
     10977      10978      10989      10988      11098      11099      11110      11109  
     10979      10980      10991      10990      11100      11101      11112      11111  
     10980      10981      10992      10991      11101      11102      11113      11112  
     10981      10982      10993      10992      11102      11103      11114      11113  
     10982      10983      10994      10993      11103      11104      11115      11114  
     10983      10984      10995      10994      11104      11105      11116      11115  
     10984      10985      10996      10995      11105      11106      11117      11116  
     10985      10986      10997      10996      11106      11107      11118      11117  
     10986      10987      10998      10997      11107      11108      11119      11118  
     10987      10988      10999      10998      11108      11109      11120      11119  
     10988      10989      11000      10999      11109      11110      11121      11120  
     10990      10991      11002      11001      11111      11112      11123      11122  
     10991      10992      11003      11002      11112      11113      11124      11123  
     10992      10993      11004      11003      11113      11114      11125      11124  
     10993      10994      11005      11004      11114      11115      11126      11125  
     10994      10995      11006      11005      11115      11116      11127      11126  
     10995      10996      11007      11006      11116      11117      11128      11127  
     10996      10997      11008      11007      11117      11118      11129      11128  
     10997      10998      11009      11008      11118      11119      11130      11129  
     10998      10999      11010      11009      11119      11120      11131      11130  
     10999      11000      11011      11010      11120      11121      11132      11131  
     11012      11013      11024      11023      11133      11134      11145      11144  
     11013      11014      11025      11024      11134      11135      11146      11145  
     11014      11015      11026      11025      11135      11136      11147      11146  
     11015      11016      11027      11026      11136      11137      11148      11147  
     11016      11017      11028      11027      11137      11138      11149      11148  
     11017      11018      11029      11028      11138      11139      11150      11149  
     11018      11019      11030      11029      11139      11140      11151      11150  
     11019      11020      11031      11030      11140      11141      11152      11151  
     11020      11021      11032      11031      11141      11142      11153      11152  
     11021      11022      11033      11032      11142      11143      11154      11153  
     11023      11024      11035      11034      11144      11145      11156      11155  
     11024      11025      11036      11035      11145      11146      11157      11156  
     11025      11026      11037      11036      11146      11147      11158      11157  
     11026      11027      11038      11037      11147      11148      11159      11158  
     11027      11028      11039      11038      11148      11149      11160      11159  
     11028      11029      11040      11039      11149      11150      11161      11160  
     11029      11030      11041      11040      11150      11151      11162      11161  
     11030      11031      11042      11041      11151      11152      11163      11162  
     11031      11032      11043      11042      11152      11153      11164      11163  
     11032      11033      11044      11043      11153      11154      11165      11164  
     11034      11035      11046      11045      11155      11156      11167      11166  
     11035      11036      11047      11046      11156      11157      11168      11167  
     11036      11037      11048      11047      11157      11158      11169      11168  
     11037      11038      11049      11048      11158      11159      11170      11169  
     11038      11039      11050      11049      11159      11160      11171      11170  
     11039      11040      11051      11050      11160      11161      11172      11171  
     11040      11041      11052      11051      11161      11162      11173      11172  
     11041      11042      11053      11052      11162      11163      11174      11173  
     11042      11043      11054      11053      11163      11164      11175      11174  
     11043      11044      11055      11054      11164      11165      11176      11175  
     11045      11046      11057      11056      11166      11167      11178      11177  
     11046      11047      11058      11057      11167      11168      11179      11178  
     11047      11048      11059      11058      11168      11169      11180      11179  
     11048      11049      11060      11059      11169      11170      11181      11180  
     11049      11050      11061      11060      11170      11171      11182      11181  
     11050      11051      11062      11061      11171      11172      11183      11182  
     11051      11052      11063      11062      11172      11173      11184      11183  
     11052      11053      11064      11063      11173      11174      11185      11184  
     11053      11054      11065      11064      11174      11175      11186      11185  
     11054      11055      11066      11065      11175      11176      11187      11186  
     11056      11057      11068      11067      11177      11178      11189      11188  
     11057      11058      11069      11068      11178      11179      11190      11189  
     11058      11059      11070      11069      11179      11180      11191      11190  
     11059      11060      11071      11070      11180      11181      11192      11191  
     11060      11061      11072      11071      11181      11182      11193      11192  
     11061      11062      11073      11072      11182      11183      11194      11193  
     11062      11063      11074      11073      11183      11184      11195      11194  
     11063      11064      11075      11074      11184      11185      11196      11195  
     11064      11065      11076      11075      11185      11186      11197      11196  
     11065      11066      11077      11076      11186      11187      11198      11197  
     11067      11068      11079      11078      11188      11189      11200      11199  
     11068      11069      11080      11079      11189      11190      11201      11200  
     11069      11070      11081      11080      11190      11191      11202      11201  
     11070      11071      11082      11081      11191      11192      11203      11202  
     11071      11072      11083      11082      11192      11193      11204      11203  
     11072      11073      11084      11083      11193      11194      11205      11204  
     11073      11074      11085      11084      11194      11195      11206      11205  
     11074      11075      11086      11085      11195      11196      11207      11206  
     11075      11076      11087      11086      11196      11197      11208      11207  
     11076      11077      11088      11087      11197      11198      11209      11208  
     11078      11079      11090      11089      11199      11200      11211      11210  
     11079      11080      11091      11090      11200      11201      11212      11211  
     11080      11081      11092      11091      11201      11202      11213      11212  
     11081      11082      11093      11092      11202      11203      11214      11213  
     11082      11083      11094      11093      11203      11204      11215      11214  
     11083      11084      11095      11094      11204      11205      11216      11215  
     11084      11085      11096      11095      11205      11206      11217      11216  
     11085      11086      11097      11096      11206      11207      11218      11217  
     11086      11087      11098      11097      11207      11208      11219      11218  
     11087      11088      11099      11098      11208      11209      11220      11219  
     11089      11090      11101      11100      11210      11211      11222      11221  
     11090      11091      11102      11101      11211      11212      11223      11222  
     11091      11092      11103      11102      11212      11213      11224      11223  
     11092      11093      11104      11103      11213      11214      11225      11224  
     11093      11094      11105      11104      11214      11215      11226      11225  
     11094      11095      11106      11105      11215      11216      11227      11226  
     11095      11096      11107      11106      11216      11217      11228      11227  
     11096      11097      11108      11107      11217      11218      11229      11228  
     11097      11098      11109      11108      11218      11219      11230      11229  
     11098      11099      11110      11109      11219      11220      11231      11230  
     11100      11101      11112      11111      11221      11222      11233      11232  
     11101      11102      11113      11112      11222      11223      11234      11233  
     11102      11103      11114      11113      11223      11224      11235      11234  
     11103      11104      11115      11114      11224      11225      11236      11235  
     11104      11105      11116      11115      11225      11226      11237      11236  
     11105      11106      11117      11116      11226      11227      11238      11237  
     11106      11107      11118      11117      11227      11228      11239      11238  
     11107      11108      11119      11118      11228      11229      11240      11239  
     11108      11109      11120      11119      11229      11230      11241      11240  
     11109      11110      11121      11120      11230      11231      11242      11241  
     11111      11112      11123      11122      11232      11233      11244      11243  
     11112      11113      11124      11123      11233      11234      11245      11244  
     11113      11114      11125      11124      11234      11235      11246      11245  
     11114      11115      11126      11125      11235      11236      11247      11246  
     11115      11116      11127      11126      11236      11237      11248      11247  
     11116      11117      11128      11127      11237      11238      11249      11248  
     11117      11118      11129      11128      11238      11239      11250      11249  
     11118      11119      11130      11129      11239      11240      11251      11250  
     11119      11120      11131      11130      11240      11241      11252      11251  
     11120      11121      11132      11131      11241      11242      11253      11252  
     11133      11134      11145      11144      11254      11255      11266      11265  
     11134      11135      11146      11145      11255      11256      11267      11266  
     11135      11136      11147      11146      11256      11257      11268      11267  
     11136      11137      11148      11147      11257      11258      11269      11268  
     11137      11138      11149      11148      11258      11259      11270      11269  
     11138      11139      11150      11149      11259      11260      11271      11270  
     11139      11140      11151      11150      11260      11261      11272      11271  
     11140      11141      11152      11151      11261      11262      11273      11272  
     11141      11142      11153      11152      11262      11263      11274      11273  
     11142      11143      11154      11153      11263      11264      11275      11274  
     11144      11145      11156      11155      11265      11266      11277      11276  
     11145      11146      11157      11156      11266      11267      11278      11277  
     11146      11147      11158      11157      11267      11268      11279      11278  
     11147      11148      11159      11158      11268      11269      11280      11279  
     11148      11149      11160      11159      11269      11270      11281      11280  
     11149      11150      11161      11160      11270      11271      11282      11281  
     11150      11151      11162      11161      11271      11272      11283      11282  
     11151      11152      11163      11162      11272      11273      11284      11283  
     11152      11153      11164      11163      11273      11274      11285      11284  
     11153      11154      11165      11164      11274      11275      11286      11285  
     11155      11156      11167      11166      11276      11277      11288      11287  
     11156      11157      11168      11167      11277      11278      11289      11288  
     11157      11158      11169      11168      11278      11279      11290      11289  
     11158      11159      11170      11169      11279      11280      11291      11290  
     11159      11160      11171      11170      11280      11281      11292      11291  
     11160      11161      11172      11171      11281      11282      11293      11292  
     11161      11162      11173      11172      11282      11283      11294      11293  
     11162      11163      11174      11173      11283      11284      11295      11294  
     11163      11164      11175      11174      11284      11285      11296      11295  
     11164      11165      11176      11175      11285      11286      11297      11296  
     11166      11167      11178      11177      11287      11288      11299      11298  
     11167      11168      11179      11178      11288      11289      11300      11299  
     11168      11169      11180      11179      11289      11290      11301      11300  
     11169      11170      11181      11180      11290      11291      11302      11301  
     11170      11171      11182      11181      11291      11292      11303      11302  
     11171      11172      11183      11182      11292      11293      11304      11303  
     11172      11173      11184      11183      11293      11294      11305      11304  
     11173      11174      11185      11184      11294      11295      11306      11305  
     11174      11175      11186      11185      11295      11296      11307      11306  
     11175      11176      11187      11186      11296      11297      11308      11307  
     11177      11178      11189      11188      11298      11299      11310      11309  
     11178      11179      11190      11189      11299      11300      11311      11310  
     11179      11180      11191      11190      11300      11301      11312      11311  
     11180      11181      11192      11191      11301      11302      11313      11312  
     11181      11182      11193      11192      11302      11303      11314      11313  
     11182      11183      11194      11193      11303      11304      11315      11314  
     11183      11184      11195      11194      11304      11305      11316      11315  
     11184      11185      11196      11195      11305      11306      11317      11316  
     11185      11186      11197      11196      11306      11307      11318      11317  
     11186      11187      11198      11197      11307      11308      11319      11318  
     11188      11189      11200      11199      11309      11310      11321      11320  
     11189      11190      11201      11200      11310      11311      11322      11321  
     11190      11191      11202      11201      11311      11312      11323      11322  
     11191      11192      11203      11202      11312      11313      11324      11323  
     11192      11193      11204      11203      11313      11314      11325      11324  
     11193      11194      11205      11204      11314      11315      11326      11325  
     11194      11195      11206      11205      11315      11316      11327      11326  
     11195      11196      11207      11206      11316      11317      11328      11327  
     11196      11197      11208      11207      11317      11318      11329      11328  
     11197      11198      11209      11208      11318      11319      11330      11329  
     11199      11200      11211      11210      11320      11321      11332      11331  
     11200      11201      11212      11211      11321      11322      11333      11332  
     11201      11202      11213      11212      11322      11323      11334      11333  
     11202      11203      11214      11213      11323      11324      11335      11334  
     11203      11204      11215      11214      11324      11325      11336      11335  
     11204      11205      11216      11215      11325      11326      11337      11336  
     11205      11206      11217      11216      11326      11327      11338      11337  
     11206      11207      11218      11217      11327      11328      11339      11338  
     11207      11208      11219      11218      11328      11329      11340      11339  
     11208      11209      11220      11219      11329      11330      11341      11340  
     11210      11211      11222      11221      11331      11332      11343      11342  
     11211      11212      11223      11222      11332      11333      11344      11343  
     11212      11213      11224      11223      11333      11334      11345      11344  
     11213      11214      11225      11224      11334      11335      11346      11345  
     11214      11215      11226      11225      11335      11336      11347      11346  
     11215      11216      11227      11226      11336      11337      11348      11347  
     11216      11217      11228      11227      11337      11338      11349      11348  
     11217      11218      11229      11228      11338      11339      11350      11349  
     11218      11219      11230      11229      11339      11340      11351      11350  
     11219      11220      11231      11230      11340      11341      11352      11351  
     11221      11222      11233      11232      11342      11343      11354      11353  
     11222      11223      11234      11233      11343      11344      11355      11354  
     11223      11224      11235      11234      11344      11345      11356      11355  
     11224      11225      11236      11235      11345      11346      11357      11356  
     11225      11226      11237      11236      11346      11347      11358      11357  
     11226      11227      11238      11237      11347      11348      11359      11358  
     11227      11228      11239      11238      11348      11349      11360      11359  
     11228      11229      11240      11239      11349      11350      11361      11360  
     11229      11230      11241      11240      11350      11351      11362      11361  
     11230      11231      11242      11241      11351      11352      11363      11362  
     11232      11233      11244      11243      11353      11354      11365      11364  
     11233      11234      11245      11244      11354      11355      11366      11365  
     11234      11235      11246      11245      11355      11356      11367      11366  
     11235      11236      11247      11246      11356      11357      11368      11367  
     11236      11237      11248      11247      11357      11358      11369      11368  
     11237      11238      11249      11248      11358      11359      11370      11369  
     11238      11239      11250      11249      11359      11360      11371      11370  
     11239      11240      11251      11250      11360      11361      11372      11371  
     11240      11241      11252      11251      11361      11362      11373      11372  
     11241      11242      11253      11252      11362      11363      11374      11373  
     11254      11255      11266      11265      11375      11376      11387      11386  
     11255      11256      11267      11266      11376      11377      11388      11387  
     11256      11257      11268      11267      11377      11378      11389      11388  
     11257      11258      11269      11268      11378      11379      11390      11389  
     11258      11259      11270      11269      11379      11380      11391      11390  
     11259      11260      11271      11270      11380      11381      11392      11391  
     11260      11261      11272      11271      11381      11382      11393      11392  
     11261      11262      11273      11272      11382      11383      11394      11393  
     11262      11263      11274      11273      11383      11384      11395      11394  
     11263      11264      11275      11274      11384      11385      11396      11395  
     11265      11266      11277      11276      11386      11387      11398      11397  
     11266      11267      11278      11277      11387      11388      11399      11398  
     11267      11268      11279      11278      11388      11389      11400      11399  
     11268      11269      11280      11279      11389      11390      11401      11400  
     11269      11270      11281      11280      11390      11391      11402      11401  
     11270      11271      11282      11281      11391      11392      11403      11402  
     11271      11272      11283      11282      11392      11393      11404      11403  
     11272      11273      11284      11283      11393      11394      11405      11404  
     11273      11274      11285      11284      11394      11395      11406      11405  
     11274      11275      11286      11285      11395      11396      11407      11406  
     11276      11277      11288      11287      11397      11398      11409      11408  
     11277      11278      11289      11288      11398      11399      11410      11409  
     11278      11279      11290      11289      11399      11400      11411      11410  
     11279      11280      11291      11290      11400      11401      11412      11411  
     11280      11281      11292      11291      11401      11402      11413      11412  
     11281      11282      11293      11292      11402      11403      11414      11413  
     11282      11283      11294      11293      11403      11404      11415      11414  
     11283      11284      11295      11294      11404      11405      11416      11415  
     11284      11285      11296      11295      11405      11406      11417      11416  
     11285      11286      11297      11296      11406      11407      11418      11417  
     11287      11288      11299      11298      11408      11409      11420      11419  
     11288      11289      11300      11299      11409      11410      11421      11420  
     11289      11290      11301      11300      11410      11411      11422      11421  
     11290      11291      11302      11301      11411      11412      11423      11422  
     11291      11292      11303      11302      11412      11413      11424      11423  
     11292      11293      11304      11303      11413      11414      11425      11424  
     11293      11294      11305      11304      11414      11415      11426      11425  
     11294      11295      11306      11305      11415      11416      11427      11426  
     11295      11296      11307      11306      11416      11417      11428      11427  
     11296      11297      11308      11307      11417      11418      11429      11428  
     11298      11299      11310      11309      11419      11420      11431      11430  
     11299      11300      11311      11310      11420      11421      11432      11431  
     11300      11301      11312      11311      11421      11422      11433      11432  
     11301      11302      11313      11312      11422      11423      11434      11433  
     11302      11303      11314      11313      11423      11424      11435      11434  
     11303      11304      11315      11314      11424      11425      11436      11435  
     11304      11305      11316      11315      11425      11426      11437      11436  
     11305      11306      11317      11316      11426      11427      11438      11437  
     11306      11307      11318      11317      11427      11428      11439      11438  
     11307      11308      11319      11318      11428      11429      11440      11439  
     11309      11310      11321      11320      11430      11431      11442      11441  
     11310      11311      11322      11321      11431      11432      11443      11442  
     11311      11312      11323      11322      11432      11433      11444      11443  
     11312      11313      11324      11323      11433      11434      11445      11444  
     11313      11314      11325      11324      11434      11435      11446      11445  
     11314      11315      11326      11325      11435      11436      11447      11446  
     11315      11316      11327      11326      11436      11437      11448      11447  
     11316      11317      11328      11327      11437      11438      11449      11448  
     11317      11318      11329      11328      11438      11439      11450      11449  
     11318      11319      11330      11329      11439      11440      11451      11450  
     11320      11321      11332      11331      11441      11442      11453      11452  
     11321      11322      11333      11332      11442      11443      11454      11453  
     11322      11323      11334      11333      11443      11444      11455      11454  
     11323      11324      11335      11334      11444      11445      11456      11455  
     11324      11325      11336      11335      11445      11446      11457      11456  
     11325      11326      11337      11336      11446      11447      11458      11457  
     11326      11327      11338      11337      11447      11448      11459      11458  
     11327      11328      11339      11338      11448      11449      11460      11459  
     11328      11329      11340      11339      11449      11450      11461      11460  
     11329      11330      11341      11340      11450      11451      11462      11461  
     11331      11332      11343      11342      11452      11453      11464      11463  
     11332      11333      11344      11343      11453      11454      11465      11464  
     11333      11334      11345      11344      11454      11455      11466      11465  
     11334      11335      11346      11345      11455      11456      11467      11466  
     11335      11336      11347      11346      11456      11457      11468      11467  
     11336      11337      11348      11347      11457      11458      11469      11468  
     11337      11338      11349      11348      11458      11459      11470      11469  
     11338      11339      11350      11349      11459      11460      11471      11470  
     11339      11340      11351      11350      11460      11461      11472      11471  
     11340      11341      11352      11351      11461      11462      11473      11472  
     11342      11343      11354      11353      11463      11464      11475      11474  
     11343      11344      11355      11354      11464      11465      11476      11475  
     11344      11345      11356      11355      11465      11466      11477      11476  
     11345      11346      11357      11356      11466      11467      11478      11477  
     11346      11347      11358      11357      11467      11468      11479      11478  
     11347      11348      11359      11358      11468      11469      11480      11479  
     11348      11349      11360      11359      11469      11470      11481      11480  
     11349      11350      11361      11360      11470      11471      11482      11481  
     11350      11351      11362      11361      11471      11472      11483      11482  
     11351      11352      11363      11362      11472      11473      11484      11483  
     11353      11354      11365      11364      11474      11475      11486      11485  
     11354      11355      11366      11365      11475      11476      11487      11486  
     11355      11356      11367      11366      11476      11477      11488      11487  
     11356      11357      11368      11367      11477      11478      11489      11488  
     11357      11358      11369      11368      11478      11479      11490      11489  
     11358      11359      11370      11369      11479      11480      11491      11490  
     11359      11360      11371      11370      11480      11481      11492      11491  
     11360      11361      11372      11371      11481      11482      11493      11492  
     11361      11362      11373      11372      11482      11483      11494      11493  
     11362      11363      11374      11373      11483      11484      11495      11494  
     11375      11376      11387      11386      11496      11497      11508      11507  
     11376      11377      11388      11387      11497      11498      11509      11508  
     11377      11378      11389      11388      11498      11499      11510      11509  
     11378      11379      11390      11389      11499      11500      11511      11510  
     11379      11380      11391      11390      11500      11501      11512      11511  
     11380      11381      11392      11391      11501      11502      11513      11512  
     11381      11382      11393      11392      11502      11503      11514      11513  
     11382      11383      11394      11393      11503      11504      11515      11514  
     11383      11384      11395      11394      11504      11505      11516      11515  
     11384      11385      11396      11395      11505      11506      11517      11516  
     11386      11387      11398      11397      11507      11508      11519      11518  
     11387      11388      11399      11398      11508      11509      11520      11519  
     11388      11389      11400      11399      11509      11510      11521      11520  
     11389      11390      11401      11400      11510      11511      11522      11521  
     11390      11391      11402      11401      11511      11512      11523      11522  
     11391      11392      11403      11402      11512      11513      11524      11523  
     11392      11393      11404      11403      11513      11514      11525      11524  
     11393      11394      11405      11404      11514      11515      11526      11525  
     11394      11395      11406      11405      11515      11516      11527      11526  
     11395      11396      11407      11406      11516      11517      11528      11527  
     11397      11398      11409      11408      11518      11519      11530      11529  
     11398      11399      11410      11409      11519      11520      11531      11530  
     11399      11400      11411      11410      11520      11521      11532      11531  
     11400      11401      11412      11411      11521      11522      11533      11532  
     11401      11402      11413      11412      11522      11523      11534      11533  
     11402      11403      11414      11413      11523      11524      11535      11534  
     11403      11404      11415      11414      11524      11525      11536      11535  
     11404      11405      11416      11415      11525      11526      11537      11536  
     11405      11406      11417      11416      11526      11527      11538      11537  
     11406      11407      11418      11417      11527      11528      11539      11538  
     11408      11409      11420      11419      11529      11530      11541      11540  
     11409      11410      11421      11420      11530      11531      11542      11541  
     11410      11411      11422      11421      11531      11532      11543      11542  
     11411      11412      11423      11422      11532      11533      11544      11543  
     11412      11413      11424      11423      11533      11534      11545      11544  
     11413      11414      11425      11424      11534      11535      11546      11545  
     11414      11415      11426      11425      11535      11536      11547      11546  
     11415      11416      11427      11426      11536      11537      11548      11547  
     11416      11417      11428      11427      11537      11538      11549      11548  
     11417      11418      11429      11428      11538      11539      11550      11549  
     11419      11420      11431      11430      11540      11541      11552      11551  
     11420      11421      11432      11431      11541      11542      11553      11552  
     11421      11422      11433      11432      11542      11543      11554      11553  
     11422      11423      11434      11433      11543      11544      11555      11554  
     11423      11424      11435      11434      11544      11545      11556      11555  
     11424      11425      11436      11435      11545      11546      11557      11556  
     11425      11426      11437      11436      11546      11547      11558      11557  
     11426      11427      11438      11437      11547      11548      11559      11558  
     11427      11428      11439      11438      11548      11549      11560      11559  
     11428      11429      11440      11439      11549      11550      11561      11560  
     11430      11431      11442      11441      11551      11552      11563      11562  
     11431      11432      11443      11442      11552      11553      11564      11563  
     11432      11433      11444      11443      11553      11554      11565      11564  
     11433      11434      11445      11444      11554      11555      11566      11565  
     11434      11435      11446      11445      11555      11556      11567      11566  
     11435      11436      11447      11446      11556      11557      11568      11567  
     11436      11437      11448      11447      11557      11558      11569      11568  
     11437      11438      11449      11448      11558      11559      11570      11569  
     11438      11439      11450      11449      11559      11560      11571      11570  
     11439      11440      11451      11450      11560      11561      11572      11571  
     11441      11442      11453      11452      11562      11563      11574      11573  
     11442      11443      11454      11453      11563      11564      11575      11574  
     11443      11444      11455      11454      11564      11565      11576      11575  
     11444      11445      11456      11455      11565      11566      11577      11576  
     11445      11446      11457      11456      11566      11567      11578      11577  
     11446      11447      11458      11457      11567      11568      11579      11578  
     11447      11448      11459      11458      11568      11569      11580      11579  
     11448      11449      11460      11459      11569      11570      11581      11580  
     11449      11450      11461      11460      11570      11571      11582      11581  
     11450      11451      11462      11461      11571      11572      11583      11582  
     11452      11453      11464      11463      11573      11574      11585      11584  
     11453      11454      11465      11464      11574      11575      11586      11585  
     11454      11455      11466      11465      11575      11576      11587      11586  
     11455      11456      11467      11466      11576      11577      11588      11587  
     11456      11457      11468      11467      11577      11578      11589      11588  
     11457      11458      11469      11468      11578      11579      11590      11589  
     11458      11459      11470      11469      11579      11580      11591      11590  
     11459      11460      11471      11470      11580      11581      11592      11591  
     11460      11461      11472      11471      11581      11582      11593      11592  
     11461      11462      11473      11472      11582      11583      11594      11593  
     11463      11464      11475      11474      11584      11585      11596      11595  
     11464      11465      11476      11475      11585      11586      11597      11596  
     11465      11466      11477      11476      11586      11587      11598      11597  
     11466      11467      11478      11477      11587      11588      11599      11598  
     11467      11468      11479      11478      11588      11589      11600      11599  
     11468      11469      11480      11479      11589      11590      11601      11600  
     11469      11470      11481      11480      11590      11591      11602      11601  
     11470      11471      11482      11481      11591      11592      11603      11602  
     11471      11472      11483      11482      11592      11593      11604      11603  
     11472      11473      11484      11483      11593      11594      11605      11604  
     11474      11475      11486      11485      11595      11596      11607      11606  
     11475      11476      11487      11486      11596      11597      11608      11607  
     11476      11477      11488      11487      11597      11598      11609      11608  
     11477      11478      11489      11488      11598      11599      11610      11609  
     11478      11479      11490      11489      11599      11600      11611      11610  
     11479      11480      11491      11490      11600      11601      11612      11611  
     11480      11481      11492      11491      11601      11602      11613      11612  
     11481      11482      11493      11492      11602      11603      11614      11613  
     11482      11483      11494      11493      11603      11604      11615      11614  
     11483      11484      11495      11494      11604      11605      11616      11615  
     11496      11497      11508      11507      11617      11618      11629      11628  
     11497      11498      11509      11508      11618      11619      11630      11629  
     11498      11499      11510      11509      11619      11620      11631      11630  
     11499      11500      11511      11510      11620      11621      11632      11631  
     11500      11501      11512      11511      11621      11622      11633      11632  
     11501      11502      11513      11512      11622      11623      11634      11633  
     11502      11503      11514      11513      11623      11624      11635      11634  
     11503      11504      11515      11514      11624      11625      11636      11635  
     11504      11505      11516      11515      11625      11626      11637      11636  
     11505      11506      11517      11516      11626      11627      11638      11637  
     11507      11508      11519      11518      11628      11629      11640      11639  
     11508      11509      11520      11519      11629      11630      11641      11640  
     11509      11510      11521      11520      11630      11631      11642      11641  
     11510      11511      11522      11521      11631      11632      11643      11642  
     11511      11512      11523      11522      11632      11633      11644      11643  
     11512      11513      11524      11523      11633      11634      11645      11644  
     11513      11514      11525      11524      11634      11635      11646      11645  
     11514      11515      11526      11525      11635      11636      11647      11646  
     11515      11516      11527      11526      11636      11637      11648      11647  
     11516      11517      11528      11527      11637      11638      11649      11648  
     11518      11519      11530      11529      11639      11640      11651      11650  
     11519      11520      11531      11530      11640      11641      11652      11651  
     11520      11521      11532      11531      11641      11642      11653      11652  
     11521      11522      11533      11532      11642      11643      11654      11653  
     11522      11523      11534      11533      11643      11644      11655      11654  
     11523      11524      11535      11534      11644      11645      11656      11655  
     11524      11525      11536      11535      11645      11646      11657      11656  
     11525      11526      11537      11536      11646      11647      11658      11657  
     11526      11527      11538      11537      11647      11648      11659      11658  
     11527      11528      11539      11538      11648      11649      11660      11659  
     11529      11530      11541      11540      11650      11651      11662      11661  
     11530      11531      11542      11541      11651      11652      11663      11662  
     11531      11532      11543      11542      11652      11653      11664      11663  
     11532      11533      11544      11543      11653      11654      11665      11664  
     11533      11534      11545      11544      11654      11655      11666      11665  
     11534      11535      11546      11545      11655      11656      11667      11666  
     11535      11536      11547      11546      11656      11657      11668      11667  
     11536      11537      11548      11547      11657      11658      11669      11668  
     11537      11538      11549      11548      11658      11659      11670      11669  
     11538      11539      11550      11549      11659      11660      11671      11670  
     11540      11541      11552      11551      11661      11662      11673      11672  
     11541      11542      11553      11552      11662      11663      11674      11673  
     11542      11543      11554      11553      11663      11664      11675      11674  
     11543      11544      11555      11554      11664      11665      11676      11675  
     11544      11545      11556      11555      11665      11666      11677      11676  
     11545      11546      11557      11556      11666      11667      11678      11677  
     11546      11547      11558      11557      11667      11668      11679      11678  
     11547      11548      11559      11558      11668      11669      11680      11679  
     11548      11549      11560      11559      11669      11670      11681      11680  
     11549      11550      11561      11560      11670      11671      11682      11681  
     11551      11552      11563      11562      11672      11673      11684      11683  
     11552      11553      11564      11563      11673      11674      11685      11684  
     11553      11554      11565      11564      11674      11675      11686      11685  
     11554      11555      11566      11565      11675      11676      11687      11686  
     11555      11556      11567      11566      11676      11677      11688      11687  
     11556      11557      11568      11567      11677      11678      11689      11688  
     11557      11558      11569      11568      11678      11679      11690      11689  
     11558      11559      11570      11569      11679      11680      11691      11690  
     11559      11560      11571      11570      11680      11681      11692      11691  
     11560      11561      11572      11571      11681      11682      11693      11692  
     11562      11563      11574      11573      11683      11684      11695      11694  
     11563      11564      11575      11574      11684      11685      11696      11695  
     11564      11565      11576      11575      11685      11686      11697      11696  
     11565      11566      11577      11576      11686      11687      11698      11697  
     11566      11567      11578      11577      11687      11688      11699      11698  
     11567      11568      11579      11578      11688      11689      11700      11699  
     11568      11569      11580      11579      11689      11690      11701      11700  
     11569      11570      11581      11580      11690      11691      11702      11701  
     11570      11571      11582      11581      11691      11692      11703      11702  
     11571      11572      11583      11582      11692      11693      11704      11703  
     11573      11574      11585      11584      11694      11695      11706      11705  
     11574      11575      11586      11585      11695      11696      11707      11706  
     11575      11576      11587      11586      11696      11697      11708      11707  
     11576      11577      11588      11587      11697      11698      11709      11708  
     11577      11578      11589      11588      11698      11699      11710      11709  
     11578      11579      11590      11589      11699      11700      11711      11710  
     11579      11580      11591      11590      11700      11701      11712      11711  
     11580      11581      11592      11591      11701      11702      11713      11712  
     11581      11582      11593      11592      11702      11703      11714      11713  
     11582      11583      11594      11593      11703      11704      11715      11714  
     11584      11585      11596      11595      11705      11706      11717      11716  
     11585      11586      11597      11596      11706      11707      11718      11717  
     11586      11587      11598      11597      11707      11708      11719      11718  
     11587      11588      11599      11598      11708      11709      11720      11719  
     11588      11589      11600      11599      11709      11710      11721      11720  
     11589      11590      11601      11600      11710      11711      11722      11721  
     11590      11591      11602      11601      11711      11712      11723      11722  
     11591      11592      11603      11602      11712      11713      11724      11723  
     11592      11593      11604      11603      11713      11714      11725      11724  
     11593      11594      11605      11604      11714      11715      11726      11725  
     11595      11596      11607      11606      11716      11717      11728      11727  
     11596      11597      11608      11607      11717      11718      11729      11728  
     11597      11598      11609      11608      11718      11719      11730      11729  
     11598      11599      11610      11609      11719      11720      11731      11730  
     11599      11600      11611      11610      11720      11721      11732      11731  
     11600      11601      11612      11611      11721      11722      11733      11732  
     11601      11602      11613      11612      11722      11723      11734      11733  
     11602      11603      11614      11613      11723      11724      11735      11734  
     11603      11604      11615      11614      11724      11725      11736      11735  
     11604      11605      11616      11615      11725      11726      11737      11736  
     11617      11618      11629      11628      11738      11739      11750      11749  
     11618      11619      11630      11629      11739      11740      11751      11750  
     11619      11620      11631      11630      11740      11741      11752      11751  
     11620      11621      11632      11631      11741      11742      11753      11752  
     11621      11622      11633      11632      11742      11743      11754      11753  
     11622      11623      11634      11633      11743      11744      11755      11754  
     11623      11624      11635      11634      11744      11745      11756      11755  
     11624      11625      11636      11635      11745      11746      11757      11756  
     11625      11626      11637      11636      11746      11747      11758      11757  
     11626      11627      11638      11637      11747      11748      11759      11758  
     11628      11629      11640      11639      11749      11750      11761      11760  
     11629      11630      11641      11640      11750      11751      11762      11761  
     11630      11631      11642      11641      11751      11752      11763      11762  
     11631      11632      11643      11642      11752      11753      11764      11763  
     11632      11633      11644      11643      11753      11754      11765      11764  
     11633      11634      11645      11644      11754      11755      11766      11765  
     11634      11635      11646      11645      11755      11756      11767      11766  
     11635      11636      11647      11646      11756      11757      11768      11767  
     11636      11637      11648      11647      11757      11758      11769      11768  
     11637      11638      11649      11648      11758      11759      11770      11769  
     11639      11640      11651      11650      11760      11761      11772      11771  
     11640      11641      11652      11651      11761      11762      11773      11772  
     11641      11642      11653      11652      11762      11763      11774      11773  
     11642      11643      11654      11653      11763      11764      11775      11774  
     11643      11644      11655      11654      11764      11765      11776      11775  
     11644      11645      11656      11655      11765      11766      11777      11776  
     11645      11646      11657      11656      11766      11767      11778      11777  
     11646      11647      11658      11657      11767      11768      11779      11778  
     11647      11648      11659      11658      11768      11769      11780      11779  
     11648      11649      11660      11659      11769      11770      11781      11780  
     11650      11651      11662      11661      11771      11772      11783      11782  
     11651      11652      11663      11662      11772      11773      11784      11783  
     11652      11653      11664      11663      11773      11774      11785      11784  
     11653      11654      11665      11664      11774      11775      11786      11785  
     11654      11655      11666      11665      11775      11776      11787      11786  
     11655      11656      11667      11666      11776      11777      11788      11787  
     11656      11657      11668      11667      11777      11778      11789      11788  
     11657      11658      11669      11668      11778      11779      11790      11789  
     11658      11659      11670      11669      11779      11780      11791      11790  
     11659      11660      11671      11670      11780      11781      11792      11791  
     11661      11662      11673      11672      11782      11783      11794      11793  
     11662      11663      11674      11673      11783      11784      11795      11794  
     11663      11664      11675      11674      11784      11785      11796      11795  
     11664      11665      11676      11675      11785      11786      11797      11796  
     11665      11666      11677      11676      11786      11787      11798      11797  
     11666      11667      11678      11677      11787      11788      11799      11798  
     11667      11668      11679      11678      11788      11789      11800      11799  
     11668      11669      11680      11679      11789      11790      11801      11800  
     11669      11670      11681      11680      11790      11791      11802      11801  
     11670      11671      11682      11681      11791      11792      11803      11802  
     11672      11673      11684      11683      11793      11794      11805      11804  
     11673      11674      11685      11684      11794      11795      11806      11805  
     11674      11675      11686      11685      11795      11796      11807      11806  
     11675      11676      11687      11686      11796      11797      11808      11807  
     11676      11677      11688      11687      11797      11798      11809      11808  
     11677      11678      11689      11688      11798      11799      11810      11809  
     11678      11679      11690      11689      11799      11800      11811      11810  
     11679      11680      11691      11690      11800      11801      11812      11811  
     11680      11681      11692      11691      11801      11802      11813      11812  
     11681      11682      11693      11692      11802      11803      11814      11813  
     11683      11684      11695      11694      11804      11805      11816      11815  
     11684      11685      11696      11695      11805      11806      11817      11816  
     11685      11686      11697      11696      11806      11807      11818      11817  
     11686      11687      11698      11697      11807      11808      11819      11818  
     11687      11688      11699      11698      11808      11809      11820      11819  
     11688      11689      11700      11699      11809      11810      11821      11820  
     11689      11690      11701      11700      11810      11811      11822      11821  
     11690      11691      11702      11701      11811      11812      11823      11822  
     11691      11692      11703      11702      11812      11813      11824      11823  
     11692      11693      11704      11703      11813      11814      11825      11824  
     11694      11695      11706      11705      11815      11816      11827      11826  
     11695      11696      11707      11706      11816      11817      11828      11827  
     11696      11697      11708      11707      11817      11818      11829      11828  
     11697      11698      11709      11708      11818      11819      11830      11829  
     11698      11699      11710      11709      11819      11820      11831      11830  
     11699      11700      11711      11710      11820      11821      11832      11831  
     11700      11701      11712      11711      11821      11822      11833      11832  
     11701      11702      11713      11712      11822      11823      11834      11833  
     11702      11703      11714      11713      11823      11824      11835      11834  
     11703      11704      11715      11714      11824      11825      11836      11835  
     11705      11706      11717      11716      11826      11827      11838      11837  
     11706      11707      11718      11717      11827      11828      11839      11838  
     11707      11708      11719      11718      11828      11829      11840      11839  
     11708      11709      11720      11719      11829      11830      11841      11840  
     11709      11710      11721      11720      11830      11831      11842      11841  
     11710      11711      11722      11721      11831      11832      11843      11842  
     11711      11712      11723      11722      11832      11833      11844      11843  
     11712      11713      11724      11723      11833      11834      11845      11844  
     11713      11714      11725      11724      11834      11835      11846      11845  
     11714      11715      11726      11725      11835      11836      11847      11846  
     11716      11717      11728      11727      11837      11838      11849      11848  
     11717      11718      11729      11728      11838      11839      11850      11849  
     11718      11719      11730      11729      11839      11840      11851      11850  
     11719      11720      11731      11730      11840      11841      11852      11851  
     11720      11721      11732      11731      11841      11842      11853      11852  
     11721      11722      11733      11732      11842      11843      11854      11853  
     11722      11723      11734      11733      11843      11844      11855      11854  
     11723      11724      11735      11734      11844      11845      11856      11855  
     11724      11725      11736      11735      11845      11846      11857      11856  
     11725      11726      11737      11736      11846      11847      11858      11857  
     11738      11739      11750      11749      11859      11860      11871      11870  
     11739      11740      11751      11750      11860      11861      11872      11871  
     11740      11741      11752      11751      11861      11862      11873      11872  
     11741      11742      11753      11752      11862      11863      11874      11873  
     11742      11743      11754      11753      11863      11864      11875      11874  
     11743      11744      11755      11754      11864      11865      11876      11875  
     11744      11745      11756      11755      11865      11866      11877      11876  
     11745      11746      11757      11756      11866      11867      11878      11877  
     11746      11747      11758      11757      11867      11868      11879      11878  
     11747      11748      11759      11758      11868      11869      11880      11879  
     11749      11750      11761      11760      11870      11871      11882      11881  
     11750      11751      11762      11761      11871      11872      11883      11882  
     11751      11752      11763      11762      11872      11873      11884      11883  
     11752      11753      11764      11763      11873      11874      11885      11884  
     11753      11754      11765      11764      11874      11875      11886      11885  
     11754      11755      11766      11765      11875      11876      11887      11886  
     11755      11756      11767      11766      11876      11877      11888      11887  
     11756      11757      11768      11767      11877      11878      11889      11888  
     11757      11758      11769      11768      11878      11879      11890      11889  
     11758      11759      11770      11769      11879      11880      11891      11890  
     11760      11761      11772      11771      11881      11882      11893      11892  
     11761      11762      11773      11772      11882      11883      11894      11893  
     11762      11763      11774      11773      11883      11884      11895      11894  
     11763      11764      11775      11774      11884      11885      11896      11895  
     11764      11765      11776      11775      11885      11886      11897      11896  
     11765      11766      11777      11776      11886      11887      11898      11897  
     11766      11767      11778      11777      11887      11888      11899      11898  
     11767      11768      11779      11778      11888      11889      11900      11899  
     11768      11769      11780      11779      11889      11890      11901      11900  
     11769      11770      11781      11780      11890      11891      11902      11901  
     11771      11772      11783      11782      11892      11893      11904      11903  
     11772      11773      11784      11783      11893      11894      11905      11904  
     11773      11774      11785      11784      11894      11895      11906      11905  
     11774      11775      11786      11785      11895      11896      11907      11906  
     11775      11776      11787      11786      11896      11897      11908      11907  
     11776      11777      11788      11787      11897      11898      11909      11908  
     11777      11778      11789      11788      11898      11899      11910      11909  
     11778      11779      11790      11789      11899      11900      11911      11910  
     11779      11780      11791      11790      11900      11901      11912      11911  
     11780      11781      11792      11791      11901      11902      11913      11912  
     11782      11783      11794      11793      11903      11904      11915      11914  
     11783      11784      11795      11794      11904      11905      11916      11915  
     11784      11785      11796      11795      11905      11906      11917      11916  
     11785      11786      11797      11796      11906      11907      11918      11917  
     11786      11787      11798      11797      11907      11908      11919      11918  
     11787      11788      11799      11798      11908      11909      11920      11919  
     11788      11789      11800      11799      11909      11910      11921      11920  
     11789      11790      11801      11800      11910      11911      11922      11921  
     11790      11791      11802      11801      11911      11912      11923      11922  
     11791      11792      11803      11802      11912      11913      11924      11923  
     11793      11794      11805      11804      11914      11915      11926      11925  
     11794      11795      11806      11805      11915      11916      11927      11926  
     11795      11796      11807      11806      11916      11917      11928      11927  
     11796      11797      11808      11807      11917      11918      11929      11928  
     11797      11798      11809      11808      11918      11919      11930      11929  
     11798      11799      11810      11809      11919      11920      11931      11930  
     11799      11800      11811      11810      11920      11921      11932      11931  
     11800      11801      11812      11811      11921      11922      11933      11932  
     11801      11802      11813      11812      11922      11923      11934      11933  
     11802      11803      11814      11813      11923      11924      11935      11934  
     11804      11805      11816      11815      11925      11926      11937      11936  
     11805      11806      11817      11816      11926      11927      11938      11937  
     11806      11807      11818      11817      11927      11928      11939      11938  
     11807      11808      11819      11818      11928      11929      11940      11939  
     11808      11809      11820      11819      11929      11930      11941      11940  
     11809      11810      11821      11820      11930      11931      11942      11941  
     11810      11811      11822      11821      11931      11932      11943      11942  
     11811      11812      11823      11822      11932      11933      11944      11943  
     11812      11813      11824      11823      11933      11934      11945      11944  
     11813      11814      11825      11824      11934      11935      11946      11945  
     11815      11816      11827      11826      11936      11937      11948      11947  
     11816      11817      11828      11827      11937      11938      11949      11948  
     11817      11818      11829      11828      11938      11939      11950      11949  
     11818      11819      11830      11829      11939      11940      11951      11950  
     11819      11820      11831      11830      11940      11941      11952      11951  
     11820      11821      11832      11831      11941      11942      11953      11952  
     11821      11822      11833      11832      11942      11943      11954      11953  
     11822      11823      11834      11833      11943      11944      11955      11954  
     11823      11824      11835      11834      11944      11945      11956      11955  
     11824      11825      11836      11835      11945      11946      11957      11956  
     11826      11827      11838      11837      11947      11948      11959      11958  
     11827      11828      11839      11838      11948      11949      11960      11959  
     11828      11829      11840      11839      11949      11950      11961      11960  
     11829      11830      11841      11840      11950      11951      11962      11961  
     11830      11831      11842      11841      11951      11952      11963      11962  
     11831      11832      11843      11842      11952      11953      11964      11963  
     11832      11833      11844      11843      11953      11954      11965      11964  
     11833      11834      11845      11844      11954      11955      11966      11965  
     11834      11835      11846      11845      11955      11956      11967      11966  
     11835      11836      11847      11846      11956      11957      11968      11967  
     11837      11838      11849      11848      11958      11959      11970      11969  
     11838      11839      11850      11849      11959      11960      11971      11970  
     11839      11840      11851      11850      11960      11961      11972      11971  
     11840      11841      11852      11851      11961      11962      11973      11972  
     11841      11842      11853      11852      11962      11963      11974      11973  
     11842      11843      11854      11853      11963      11964      11975      11974  
     11843      11844      11855      11854      11964      11965      11976      11975  
     11844      11845      11856      11855      11965      11966      11977      11976  
     11845      11846      11857      11856      11966      11967      11978      11977  
     11846      11847      11858      11857      11967      11968      11979      11978  
     11859      11860      11871      11870      11980      11981      11992      11991  
     11860      11861      11872      11871      11981      11982      11993      11992  
     11861      11862      11873      11872      11982      11983      11994      11993  
     11862      11863      11874      11873      11983      11984      11995      11994  
     11863      11864      11875      11874      11984      11985      11996      11995  
     11864      11865      11876      11875      11985      11986      11997      11996  
     11865      11866      11877      11876      11986      11987      11998      11997  
     11866      11867      11878      11877      11987      11988      11999      11998  
     11867      11868      11879      11878      11988      11989      12000      11999  
     11868      11869      11880      11879      11989      11990      12001      12000  
     11870      11871      11882      11881      11991      11992      12003      12002  
     11871      11872      11883      11882      11992      11993      12004      12003  
     11872      11873      11884      11883      11993      11994      12005      12004  
     11873      11874      11885      11884      11994      11995      12006      12005  
     11874      11875      11886      11885      11995      11996      12007      12006  
     11875      11876      11887      11886      11996      11997      12008      12007  
     11876      11877      11888      11887      11997      11998      12009      12008  
     11877      11878      11889      11888      11998      11999      12010      12009  
     11878      11879      11890      11889      11999      12000      12011      12010  
     11879      11880      11891      11890      12000      12001      12012      12011  
     11881      11882      11893      11892      12002      12003      12014      12013  
     11882      11883      11894      11893      12003      12004      12015      12014  
     11883      11884      11895      11894      12004      12005      12016      12015  
     11884      11885      11896      11895      12005      12006      12017      12016  
     11885      11886      11897      11896      12006      12007      12018      12017  
     11886      11887      11898      11897      12007      12008      12019      12018  
     11887      11888      11899      11898      12008      12009      12020      12019  
     11888      11889      11900      11899      12009      12010      12021      12020  
     11889      11890      11901      11900      12010      12011      12022      12021  
     11890      11891      11902      11901      12011      12012      12023      12022  
     11892      11893      11904      11903      12013      12014      12025      12024  
     11893      11894      11905      11904      12014      12015      12026      12025  
     11894      11895      11906      11905      12015      12016      12027      12026  
     11895      11896      11907      11906      12016      12017      12028      12027  
     11896      11897      11908      11907      12017      12018      12029      12028  
     11897      11898      11909      11908      12018      12019      12030      12029  
     11898      11899      11910      11909      12019      12020      12031      12030  
     11899      11900      11911      11910      12020      12021      12032      12031  
     11900      11901      11912      11911      12021      12022      12033      12032  
     11901      11902      11913      11912      12022      12023      12034      12033  
     11903      11904      11915      11914      12024      12025      12036      12035  
     11904      11905      11916      11915      12025      12026      12037      12036  
     11905      11906      11917      11916      12026      12027      12038      12037  
     11906      11907      11918      11917      12027      12028      12039      12038  
     11907      11908      11919      11918      12028      12029      12040      12039  
     11908      11909      11920      11919      12029      12030      12041      12040  
     11909      11910      11921      11920      12030      12031      12042      12041  
     11910      11911      11922      11921      12031      12032      12043      12042  
     11911      11912      11923      11922      12032      12033      12044      12043  
     11912      11913      11924      11923      12033      12034      12045      12044  
     11914      11915      11926      11925      12035      12036      12047      12046  
     11915      11916      11927      11926      12036      12037      12048      12047  
     11916      11917      11928      11927      12037      12038      12049      12048  
     11917      11918      11929      11928      12038      12039      12050      12049  
     11918      11919      11930      11929      12039      12040      12051      12050  
     11919      11920      11931      11930      12040      12041      12052      12051  
     11920      11921      11932      11931      12041      12042      12053      12052  
     11921      11922      11933      11932      12042      12043      12054      12053  
     11922      11923      11934      11933      12043      12044      12055      12054  
     11923      11924      11935      11934      12044      12045      12056      12055  
     11925      11926      11937      11936      12046      12047      12058      12057  
     11926      11927      11938      11937      12047      12048      12059      12058  
     11927      11928      11939      11938      12048      12049      12060      12059  
     11928      11929      11940      11939      12049      12050      12061      12060  
     11929      11930      11941      11940      12050      12051      12062      12061  
     11930      11931      11942      11941      12051      12052      12063      12062  
     11931      11932      11943      11942      12052      12053      12064      12063  
     11932      11933      11944      11943      12053      12054      12065      12064  
     11933      11934      11945      11944      12054      12055      12066      12065  
     11934      11935      11946      11945      12055      12056      12067      12066  
     11936      11937      11948      11947      12057      12058      12069      12068  
     11937      11938      11949      11948      12058      12059      12070      12069  
     11938      11939      11950      11949      12059      12060      12071      12070  
     11939      11940      11951      11950      12060      12061      12072      12071  
     11940      11941      11952      11951      12061      12062      12073      12072  
     11941      11942      11953      11952      12062      12063      12074      12073  
     11942      11943      11954      11953      12063      12064      12075      12074  
     11943      11944      11955      11954      12064      12065      12076      12075  
     11944      11945      11956      11955      12065      12066      12077      12076  
     11945      11946      11957      11956      12066      12067      12078      12077  
     11947      11948      11959      11958      12068      12069      12080      12079  
     11948      11949      11960      11959      12069      12070      12081      12080  
     11949      11950      11961      11960      12070      12071      12082      12081  
     11950      11951      11962      11961      12071      12072      12083      12082  
     11951      11952      11963      11962      12072      12073      12084      12083  
     11952      11953      11964      11963      12073      12074      12085      12084  
     11953      11954      11965      11964      12074      12075      12086      12085  
     11954      11955      11966      11965      12075      12076      12087      12086  
     11955      11956      11967      11966      12076      12077      12088      12087  
     11956      11957      11968      11967      12077      12078      12089      12088  
     11958      11959      11970      11969      12079      12080      12091      12090  
     11959      11960      11971      11970      12080      12081      12092      12091  
     11960      11961      11972      11971      12081      12082      12093      12092  
     11961      11962      11973      11972      12082      12083      12094      12093  
     11962      11963      11974      11973      12083      12084      12095      12094  
     11963      11964      11975      11974      12084      12085      12096      12095  
     11964      11965      11976      11975      12085      12086      12097      12096  
     11965      11966      11977      11976      12086      12087      12098      12097  
     11966      11967      11978      11977      12087      12088      12099      12098  
     11967      11968      11979      11978      12088      12089      12100      12099  
     11980      11981      11992      11991      12101      12102      12113      12112  
     11981      11982      11993      11992      12102      12103      12114      12113  
     11982      11983      11994      11993      12103      12104      12115      12114  
     11983      11984      11995      11994      12104      12105      12116      12115  
     11984      11985      11996      11995      12105      12106      12117      12116  
     11985      11986      11997      11996      12106      12107      12118      12117  
     11986      11987      11998      11997      12107      12108      12119      12118  
     11987      11988      11999      11998      12108      12109      12120      12119  
     11988      11989      12000      11999      12109      12110      12121      12120  
     11989      11990      12001      12000      12110      12111      12122      12121  
     11991      11992      12003      12002      12112      12113      12124      12123  
     11992      11993      12004      12003      12113      12114      12125      12124  
     11993      11994      12005      12004      12114      12115      12126      12125  
     11994      11995      12006      12005      12115      12116      12127      12126  
     11995      11996      12007      12006      12116      12117      12128      12127  
     11996      11997      12008      12007      12117      12118      12129      12128  
     11997      11998      12009      12008      12118      12119      12130      12129  
     11998      11999      12010      12009      12119      12120      12131      12130  
     11999      12000      12011      12010      12120      12121      12132      12131  
     12000      12001      12012      12011      12121      12122      12133      12132  
     12002      12003      12014      12013      12123      12124      12135      12134  
     12003      12004      12015      12014      12124      12125      12136      12135  
     12004      12005      12016      12015      12125      12126      12137      12136  
     12005      12006      12017      12016      12126      12127      12138      12137  
     12006      12007      12018      12017      12127      12128      12139      12138  
     12007      12008      12019      12018      12128      12129      12140      12139  
     12008      12009      12020      12019      12129      12130      12141      12140  
     12009      12010      12021      12020      12130      12131      12142      12141  
     12010      12011      12022      12021      12131      12132      12143      12142  
     12011      12012      12023      12022      12132      12133      12144      12143  
     12013      12014      12025      12024      12134      12135      12146      12145  
     12014      12015      12026      12025      12135      12136      12147      12146  
     12015      12016      12027      12026      12136      12137      12148      12147  
     12016      12017      12028      12027      12137      12138      12149      12148  
     12017      12018      12029      12028      12138      12139      12150      12149  
     12018      12019      12030      12029      12139      12140      12151      12150  
     12019      12020      12031      12030      12140      12141      12152      12151  
     12020      12021      12032      12031      12141      12142      12153      12152  
     12021      12022      12033      12032      12142      12143      12154      12153  
     12022      12023      12034      12033      12143      12144      12155      12154  
     12024      12025      12036      12035      12145      12146      12157      12156  
     12025      12026      12037      12036      12146      12147      12158      12157  
     12026      12027      12038      12037      12147      12148      12159      12158  
     12027      12028      12039      12038      12148      12149      12160      12159  
     12028      12029      12040      12039      12149      12150      12161      12160  
     12029      12030      12041      12040      12150      12151      12162      12161  
     12030      12031      12042      12041      12151      12152      12163      12162  
     12031      12032      12043      12042      12152      12153      12164      12163  
     12032      12033      12044      12043      12153      12154      12165      12164  
     12033      12034      12045      12044      12154      12155      12166      12165  
     12035      12036      12047      12046      12156      12157      12168      12167  
     12036      12037      12048      12047      12157      12158      12169      12168  
     12037      12038      12049      12048      12158      12159      12170      12169  
     12038      12039      12050      12049      12159      12160      12171      12170  
     12039      12040      12051      12050      12160      12161      12172      12171  
     12040      12041      12052      12051      12161      12162      12173      12172  
     12041      12042      12053      12052      12162      12163      12174      12173  
     12042      12043      12054      12053      12163      12164      12175      12174  
     12043      12044      12055      12054      12164      12165      12176      12175  
     12044      12045      12056      12055      12165      12166      12177      12176  
     12046      12047      12058      12057      12167      12168      12179      12178  
     12047      12048      12059      12058      12168      12169      12180      12179  
     12048      12049      12060      12059      12169      12170      12181      12180  
     12049      12050      12061      12060      12170      12171      12182      12181  
     12050      12051      12062      12061      12171      12172      12183      12182  
     12051      12052      12063      12062      12172      12173      12184      12183  
     12052      12053      12064      12063      12173      12174      12185      12184  
     12053      12054      12065      12064      12174      12175      12186      12185  
     12054      12055      12066      12065      12175      12176      12187      12186  
     12055      12056      12067      12066      12176      12177      12188      12187  
     12057      12058      12069      12068      12178      12179      12190      12189  
     12058      12059      12070      12069      12179      12180      12191      12190  
     12059      12060      12071      12070      12180      12181      12192      12191  
     12060      12061      12072      12071      12181      12182      12193      12192  
     12061      12062      12073      12072      12182      12183      12194      12193  
     12062      12063      12074      12073      12183      12184      12195      12194  
     12063      12064      12075      12074      12184      12185      12196      12195  
     12064      12065      12076      12075      12185      12186      12197      12196  
     12065      12066      12077      12076      12186      12187      12198      12197  
     12066      12067      12078      12077      12187      12188      12199      12198  
     12068      12069      12080      12079      12189      12190      12201      12200  
     12069      12070      12081      12080      12190      12191      12202      12201  
     12070      12071      12082      12081      12191      12192      12203      12202  
     12071      12072      12083      12082      12192      12193      12204      12203  
     12072      12073      12084      12083      12193      12194      12205      12204  
     12073      12074      12085      12084      12194      12195      12206      12205  
     12074      12075      12086      12085      12195      12196      12207      12206  
     12075      12076      12087      12086      12196      12197      12208      12207  
     12076      12077      12088      12087      12197      12198      12209      12208  
     12077      12078      12089      12088      12198      12199      12210      12209  
     12079      12080      12091      12090      12200      12201      12212      12211  
     12080      12081      12092      12091      12201      12202      12213      12212  
     12081      12082      12093      12092      12202      12203      12214      12213  
     12082      12083      12094      12093      12203      12204      12215      12214  
     12083      12084      12095      12094      12204      12205      12216      12215  
     12084      12085      12096      12095      12205      12206      12217      12216  
     12085      12086      12097      12096      12206      12207      12218      12217  
     12086      12087      12098      12097      12207      12208      12219      12218  
     12087      12088      12099      12098      12208      12209      12220      12219  
     12088      12089      12100      12099      12209      12210      12221      12220  
