TITLE="results for TO code"
VARIABLES = "x", "y", "z", "density", "sigmaxx", "sigmayy", "sigmazz", "sigmaxy", "sigmaxz", "sigmayz"
ZONE T="load step 1", NODES= 12221, ELEMENTS= 10000, DATAPACKING=POINT, ZONETYPE=FEBRICK
               0.00000000                0.00000000                0.00000000                1.00000000                0.00000000               -0.00000000                1.83466287               -0.00000000                0.53498297                1.10012658
               1.00000000                0.00000000                0.00000000                1.00000000                0.00000000                0.00000000                1.26007299               -0.00000000                0.02993163                0.74792476
               2.00000000                0.00000000                0.00000000                1.00000000               -0.00000000               -0.00000000                0.66883091               -0.00000000               -0.16152955                0.37975804
               3.00000000                0.00000000                0.00000000                1.00000000               -0.00000000                0.00000000                0.14498106                0.00000000               -0.14557520                0.08645893
               4.00000000                0.00000000                0.00000000                1.00000000                0.00000000                0.00000000               -0.01396037               -0.00000000               -0.03214046               -0.00751039
               5.00000000                0.00000000                0.00000000                1.00000000                0.00000000               -0.00000000               -0.00586425               -0.00000000                0.00172450               -0.00513335
               6.00000000                0.00000000                0.00000000                1.00000000               -0.00000000                0.00000000               -0.01410383               -0.00000000               -0.00439038               -0.00156524
               7.00000000                0.00000000                0.00000000                1.00000000                0.00000000               -0.00000000               -0.08663845                0.00000000               -0.05324286               -0.09107163
               8.00000000                0.00000000                0.00000000                1.00000000                0.00000000                0.00000000               -0.76294543               -0.00000000               -0.05053907               -0.47063154
               9.00000000                0.00000000                0.00000000                1.00000000               -0.00000000               -0.00000000               -1.56395366               -0.00000000                0.24233892               -0.86818222
              10.00000000                0.00000000                0.00000000                1.00000000               -0.00000000                0.00000000               -2.25076049                0.00000000                0.86672013               -1.20737659
               0.00000000                1.00000000                0.00000000                1.00000000               -0.00000000                0.00000000                1.48678209                0.00000000                0.73923507                0.58801368
               1.00000000                1.00000000                0.00000000                1.00000000                0.00000000               -0.00000000                0.93256643               -0.00000000                0.26601820                0.36812284
               2.00000000                1.00000000                0.00000000                1.00000000               -0.00000000                0.00000000                0.40493776                0.00000000                0.05480183                0.12097099
               3.00000000                1.00000000                0.00000000                1.00000000                0.00000000               -0.00000000                0.04605876                0.00000000                0.00937338               -0.00665422
               4.00000000                1.00000000                0.00000000                1.00000000               -0.00000000               -0.00000000               -0.00113295               -0.00000000                0.00452834               -0.01455008
               5.00000000                1.00000000                0.00000000                1.00000000                0.00000000               -0.00000000               -0.00089874                0.00000000                0.00709386               -0.00373384
               6.00000000                1.00000000                0.00000000                1.00000000                0.00000000                0.00000000               -0.00743468               -0.00000000                0.02324421                0.00378032
               7.00000000                1.00000000                0.00000000                1.00000000               -0.00000000                0.00000000               -0.00851064               -0.00000000                0.06667118               -0.01847856
               8.00000000                1.00000000                0.00000000                1.00000000               -0.00000000               -0.00000000               -0.37698815               -0.00000000                0.15340639               -0.15721991
               9.00000000                1.00000000                0.00000000                1.00000000               -0.00000000                0.00000000               -1.08495083                0.00000000                0.45815729               -0.38963884
              10.00000000                1.00000000                0.00000000                1.00000000                0.00000000               -0.00000000               -1.86327014                0.00000000                1.04573035               -0.56913518
               0.00000000                2.00000000                0.00000000                1.00000000                0.00000000               -0.00000000                1.44200052               -0.00000000                0.81513210                0.31044627
               1.00000000                2.00000000                0.00000000                1.00000000               -0.00000000               -0.00000000                0.78913142                0.00000000                0.32700294                0.17007061
               2.00000000                2.00000000                0.00000000                1.00000000               -0.00000000                0.00000000                0.17997413               -0.00000000                0.11416616                0.01259254
               3.00000000                2.00000000                0.00000000                1.00000000               -0.00000000               -0.00000000               -0.01656030               -0.00000000                0.04936155               -0.01081622
               4.00000000                2.00000000                0.00000000                1.00000000                0.00000000               -0.00000000                0.00355767                0.00000000                0.01973697               -0.00890312
               5.00000000                2.00000000                0.00000000                1.00000000               -0.00000000                0.00000000               -0.00055118               -0.00000000                0.01272482               -0.00384443
               6.00000000                2.00000000                0.00000000                1.00000000               -0.00000000               -0.00000000               -0.00146326                0.00000000                0.02530333               -0.00302652
               7.00000000                2.00000000                0.00000000                1.00000000               -0.00000000                0.00000000               -0.00004357               -0.00000000                0.06407964               -0.01920000
               8.00000000                2.00000000                0.00000000                1.00000000               -0.00000000               -0.00000000               -0.06685960                0.00000000                0.15574990               -0.02685784
               9.00000000                2.00000000                0.00000000                1.00000000               -0.00000000                0.00000000               -0.69578446                0.00000000                0.43283455               -0.13476649
              10.00000000                2.00000000                0.00000000                1.00000000                0.00000000                0.00000000               -1.76179909                0.00000000                1.03994301               -0.20789998
               0.00000000                3.00000000                0.00000000                1.00000000                0.00000000                0.00000000                1.38462140                0.00000000                0.80996065                0.13493908
               1.00000000                3.00000000                0.00000000                1.00000000               -0.00000000               -0.00000000                0.65481571               -0.00000000                0.33483602                0.05488801
               2.00000000                3.00000000                0.00000000                1.00000000                0.00000000               -0.00000000                0.03973631                0.00000000                0.15726961               -0.03596653
               3.00000000                3.00000000                0.00000000                1.00000000               -0.00000000               -0.00000000                0.00329237               -0.00000000                0.06257560               -0.00957991
               4.00000000                3.00000000                0.00000000                1.00000000               -0.00000000               -0.00000000                0.00118081                0.00000000                0.02538918               -0.00449390
               5.00000000                3.00000000                0.00000000                1.00000000               -0.00000000                0.00000000               -0.00000305                0.00000000                0.01509858               -0.00309592
               6.00000000                3.00000000                0.00000000                1.00000000               -0.00000000                0.00000000               -0.00064324               -0.00000000                0.02205582               -0.00531428
               7.00000000                3.00000000                0.00000000                1.00000000                0.00000000               -0.00000000               -0.00894658                0.00000000                0.04908072               -0.01156217
               8.00000000                3.00000000                0.00000000                1.00000000               -0.00000000                0.00000000                0.03153387               -0.00000000                0.11955003               -0.02288954
               9.00000000                3.00000000                0.00000000                1.00000000                0.00000000                0.00000000               -0.41150629               -0.00000000                0.32649818               -0.04302622
              10.00000000                3.00000000                0.00000000                1.00000000               -0.00000000               -0.00000000               -1.57197510                0.00000000                0.88581926               -0.00651250
               0.00000000                4.00000000                0.00000000                1.00000000               -0.00000000               -0.00000000                1.31884917                0.00000000                0.77673874                0.01643181
               1.00000000                4.00000000                0.00000000                1.00000000               -0.00000000                0.00000000                0.51072339                0.00000000                0.32568002               -0.02295107
               2.00000000                4.00000000                0.00000000                1.00000000               -0.00000000                0.00000000               -0.07260810                0.00000000                0.17836726               -0.05004258
               3.00000000                4.00000000                0.00000000                1.00000000                0.00000000               -0.00000000                0.01272472                0.00000000                0.06981747               -0.00554955
               4.00000000                4.00000000                0.00000000                1.00000000                0.00000000               -0.00000000                0.00091745               -0.00000000                0.02677332               -0.00206028
               5.00000000                4.00000000                0.00000000                1.00000000               -0.00000000               -0.00000000                0.00024104               -0.00000000                0.01478974               -0.00212527
               6.00000000                4.00000000                0.00000000                1.00000000               -0.00000000               -0.00000000               -0.00093417                0.00000000                0.01815620               -0.00414589
               7.00000000                4.00000000                0.00000000                1.00000000               -0.00000000               -0.00000000               -0.00415458                0.00000000                0.04008921               -0.00914947
               8.00000000                4.00000000                0.00000000                1.00000000                0.00000000                0.00000000                0.01383883                0.00000000                0.09793773               -0.01626199
               9.00000000                4.00000000                0.00000000                1.00000000               -0.00000000                0.00000000               -0.30547166                0.00000000                0.27359737                0.01023504
              10.00000000                4.00000000                0.00000000                1.00000000                0.00000000               -0.00000000               -1.38554960                0.00000000                0.75302673                0.08371380
               0.00000000                5.00000000                0.00000000                1.00000000               -0.00000000                0.00000000                1.24028157                0.00000000                0.72247675               -0.06900532
               1.00000000                5.00000000                0.00000000                1.00000000                0.00000000                0.00000000                0.34270042                0.00000000                0.29380483               -0.06618385
               2.00000000                5.00000000                0.00000000                1.00000000               -0.00000000               -0.00000000               -0.11731423                0.00000000                0.16603752               -0.03869561
               3.00000000                5.00000000                0.00000000                1.00000000               -0.00000000                0.00000000                0.01587739               -0.00000000                0.06684471               -0.00195781
               4.00000000                5.00000000                0.00000000                1.00000000               -0.00000000                0.00000000                0.00063451                0.00000000                0.02589090               -0.00024992
               5.00000000                5.00000000                0.00000000                1.00000000               -0.00000000               -0.00000000                0.00035365                0.00000000                0.01354572               -0.00121745
               6.00000000                5.00000000                0.00000000                1.00000000               -0.00000000                0.00000000               -0.00054887               -0.00000000                0.01500036               -0.00325779
               7.00000000                5.00000000                0.00000000                1.00000000               -0.00000000               -0.00000000               -0.00352178                0.00000000                0.03130500               -0.00777960
               8.00000000                5.00000000                0.00000000                1.00000000               -0.00000000               -0.00000000                0.00943320                0.00000000                0.07751903               -0.01366766
               9.00000000                5.00000000                0.00000000                1.00000000               -0.00000000               -0.00000000               -0.20804174               -0.00000000                0.22232311                0.04554567
              10.00000000                5.00000000                0.00000000                1.00000000                0.00000000                0.00000000               -1.19803305                0.00000000                0.64553696                0.15022972
               0.00000000                6.00000000                0.00000000                1.00000000               -0.00000000               -0.00000000                1.13109267               -0.00000000                0.64596041               -0.12476508
               1.00000000                6.00000000                0.00000000                1.00000000               -0.00000000               -0.00000000                0.20360406                0.00000000                0.25614116               -0.08360805
               2.00000000                6.00000000                0.00000000                1.00000000               -0.00000000               -0.00000000               -0.11063837               -0.00000000                0.14488539               -0.02851279
               3.00000000                6.00000000                0.00000000                1.00000000                0.00000000                0.00000000                0.01375466                0.00000000                0.06092464               -0.00065059
               4.00000000                6.00000000                0.00000000                1.00000000                0.00000000                0.00000000                0.00077263                0.00000000                0.02401287                0.00063877
               5.00000000                6.00000000                0.00000000                1.00000000                0.00000000               -0.00000000                0.00039147               -0.00000000                0.01209636               -0.00056555
               6.00000000                6.00000000                0.00000000                1.00000000                0.00000000               -0.00000000               -0.00041285                0.00000000                0.01209007               -0.00244437
               7.00000000                6.00000000                0.00000000                1.00000000               -0.00000000                0.00000000               -0.00219759               -0.00000000                0.02319553               -0.00587713
               8.00000000                6.00000000                0.00000000                1.00000000               -0.00000000               -0.00000000                0.00400494                0.00000000                0.05251219               -0.00944103
               9.00000000                6.00000000                0.00000000                1.00000000                0.00000000                0.00000000               -0.11546035                0.00000000                0.14383741                0.05704085
              10.00000000                6.00000000                0.00000000                1.00000000               -0.00000000               -0.00000000               -0.88301930                0.00000000                0.51714623                0.20468758
               0.00000000                7.00000000                0.00000000                1.00000000                0.00000000                0.00000000                0.99855513               -0.00000000                0.56567172               -0.15692631
               1.00000000                7.00000000                0.00000000                1.00000000                0.00000000               -0.00000000                0.10477638                0.00000000                0.23067939               -0.08853484
               2.00000000                7.00000000                0.00000000                1.00000000               -0.00000000                0.00000000               -0.11629629                0.00000000                0.13988381               -0.02145171
               3.00000000                7.00000000                0.00000000                1.00000000               -0.00000000               -0.00000000                0.01309225               -0.00000000                0.05865465                0.00079122
               4.00000000                7.00000000                0.00000000                1.00000000               -0.00000000                0.00000000                0.00068647               -0.00000000                0.02231295                0.00163593
               5.00000000                7.00000000                0.00000000                1.00000000                0.00000000               -0.00000000                0.00040153               -0.00000000                0.01048082               -0.00000511
               6.00000000                7.00000000                0.00000000                1.00000000               -0.00000000                0.00000000               -0.00028690                0.00000000                0.00963538               -0.00190596
               7.00000000                7.00000000                0.00000000                1.00000000               -0.00000000               -0.00000000               -0.00123704                0.00000000                0.01771362               -0.00351391
               8.00000000                7.00000000                0.00000000                1.00000000               -0.00000000                0.00000000               -0.00033585                0.00000000                0.03655060                0.00081320
               9.00000000                7.00000000                0.00000000                1.00000000                0.00000000               -0.00000000               -0.04413736               -0.00000000                0.08521057                0.06149768
              10.00000000                7.00000000                0.00000000                1.00000000               -0.00000000                0.00000000               -0.52658738                0.00000000                0.35324960                0.17769680
               0.00000000                8.00000000                0.00000000                1.00000000                0.00000000               -0.00000000                0.85948118               -0.00000000                0.49486455               -0.18941193
               1.00000000                8.00000000                0.00000000                1.00000000               -0.00000000                0.00000000                0.02653018                0.00000000                0.21539977               -0.07879752
               2.00000000                8.00000000                0.00000000                1.00000000               -0.00000000               -0.00000000               -0.15166810               -0.00000000                0.15043421               -0.00039627
               3.00000000                8.00000000                0.00000000                1.00000000               -0.00000000                0.00000000                0.01100329                0.00000000                0.06120017                0.01047809
               4.00000000                8.00000000                0.00000000                1.00000000                0.00000000               -0.00000000                0.00006635               -0.00000000                0.02026673                0.00473442
               5.00000000                8.00000000                0.00000000                1.00000000               -0.00000000               -0.00000000                0.00052688                0.00000000                0.00870972                0.00025823
               6.00000000                8.00000000                0.00000000                1.00000000                0.00000000                0.00000000               -0.00015663                0.00000000                0.00769385               -0.00195733
               7.00000000                8.00000000                0.00000000                1.00000000                0.00000000                0.00000000               -0.00091603               -0.00000000                0.01449751               -0.00345973
               8.00000000                8.00000000                0.00000000                1.00000000               -0.00000000               -0.00000000               -0.00146160               -0.00000000                0.03747474                0.00702088
               9.00000000                8.00000000                0.00000000                1.00000000                0.00000000                0.00000000               -0.00721088                0.00000000                0.08109268                0.08177605
              10.00000000                8.00000000                0.00000000                1.00000000               -0.00000000                0.00000000               -0.40126037               -0.00000000                0.27040451                0.14588834
               0.00000000                9.00000000                0.00000000                1.00000000               -0.00000000               -0.00000000                0.69300896                0.00000000                0.39215215               -0.26705635
               1.00000000                9.00000000                0.00000000                1.00000000               -0.00000000                0.00000000               -0.03637041               -0.00000000                0.19211251               -0.04279143
               2.00000000                9.00000000                0.00000000                1.00000000               -0.00000000               -0.00000000               -0.28470254                0.00000000                0.17087767                0.08440369
               3.00000000                9.00000000                0.00000000                1.00000000                0.00000000                0.00000000               -0.02462163                0.00000000                0.06934239                0.05040888
               4.00000000                9.00000000                0.00000000                1.00000000                0.00000000               -0.00000000                0.00351970               -0.00000000                0.01894927                0.00971283
               5.00000000                9.00000000                0.00000000                1.00000000               -0.00000000                0.00000000                0.00029274                0.00000000                0.00961876               -0.00083891
               6.00000000                9.00000000                0.00000000                1.00000000               -0.00000000               -0.00000000               -0.00005331               -0.00000000                0.00684646               -0.00183870
               7.00000000                9.00000000                0.00000000                1.00000000                0.00000000                0.00000000               -0.00037762                0.00000000                0.01003561               -0.00560903
               8.00000000                9.00000000                0.00000000                1.00000000                0.00000000                0.00000000               -0.00407612                0.00000000                0.03553046               -0.00771119
               9.00000000                9.00000000                0.00000000                1.00000000               -0.00000000               -0.00000000                0.08073040               -0.00000000                0.11880631                0.08910951
              10.00000000                9.00000000                0.00000000                1.00000000               -0.00000000                0.00000000               -0.45568253               -0.00000000                0.26536500                0.20308485
               0.00000000               10.00000000                0.00000000                1.00000000                0.00000000                0.00000000                0.65210116               -0.00000000                0.10536694               -0.44844809
               1.00000000               10.00000000                0.00000000                1.00000000               -0.00000000               -0.00000000               -0.07736952                0.00000000               -0.01478325                0.01386469
               2.00000000               10.00000000                0.00000000                1.00000000                0.00000000               -0.00000000               -0.50667439               -0.00000000                0.10125418                0.33725581
               3.00000000               10.00000000                0.00000000                1.00000000               -0.00000000                0.00000000               -0.13840703                0.00000000                0.12885923                0.16006068
               4.00000000               10.00000000                0.00000000                1.00000000               -0.00000000               -0.00000000               -0.00008270                0.00000000                0.05200117                0.02104419
               5.00000000               10.00000000                0.00000000                1.00000000               -0.00000000               -0.00000000               -0.00093750               -0.00000000                0.01774698                0.00256152
               6.00000000               10.00000000                0.00000000                1.00000000                0.00000000               -0.00000000                0.00082635                0.00000000                0.00938472               -0.00168110
               7.00000000               10.00000000                0.00000000                1.00000000               -0.00000000               -0.00000000                0.00261412               -0.00000000                0.01161195               -0.00794527
               8.00000000               10.00000000                0.00000000                1.00000000                0.00000000                0.00000000                0.01337178               -0.00000000                0.01526116               -0.02890175
               9.00000000               10.00000000                0.00000000                1.00000000                0.00000000                0.00000000                0.10536232               -0.00000000                0.01131318                0.01894694
              10.00000000               10.00000000                0.00000000                1.00000000                0.00000000               -0.00000000               -0.57378455                0.00000000                0.07748030                0.38656722
               0.00534983                0.01100127                1.01834663                1.00000000               -0.50505134               -0.51211290                1.78122052               -0.14794972               -0.05334454                0.50188672
               1.00029932                0.00747925                1.01260073                1.00000000               -0.34825626               -0.37980192                1.26454601               -0.12409770               -0.27683849                0.24957499
               1.99838470                0.00379758                1.00668831                0.88292638               -0.08775341               -0.25878706                0.72591415               -0.11440153               -0.39778622                0.02781469
               2.99854425                0.00086459                1.00144981                0.46534838                0.06469454               -0.09311315                0.23407405               -0.03868563               -0.24931087               -0.09234178
               3.99967860               -0.00007510                0.99986040                0.37941666                0.07364985               -0.00703969               -0.04189955               -0.00912734                0.17510119               -0.08920927
               5.00001724               -0.00005133                0.99994136                0.38197893                0.01387504                0.00139951               -0.12902543                0.00834193                0.38939028               -0.07739410
               5.99995610               -0.00001565                0.99985896                0.43884682               -0.02748368                0.00534556               -0.25637121               -0.01533455                0.32623402               -0.06896756
               6.99946757               -0.00091072                0.99913362                0.61282308               -0.02307434                0.07259307               -0.54140224               -0.11461911               -0.06724967               -0.12147967
               7.99949461               -0.00470632                0.99237055                1.00000000                0.14779089                0.31341162               -0.94759346               -0.18460984               -0.35163266               -0.04407217
               9.00242339               -0.00868182                0.98436046                1.00000000                0.45862960                0.47854338               -1.53348233               -0.15255416               -0.15996082               -0.19359083
              10.00866720               -0.01207377                0.97749240                1.00000000                0.62438122                0.63824141               -2.15412325               -0.16018415                0.14991681               -0.51822087
               0.00739235                1.00588014                1.01486782                1.00000000               -0.47321687               -0.39484015                1.57805677               -0.07981628                0.18922566                0.40861103
               1.00266018                1.00368123                1.00932566                1.00000000               -0.34221662               -0.28892708                1.05381629               -0.08498569               -0.00792172                0.16374795
               2.00054802                1.00120971                1.00404938                0.39549151               -0.12832241               -0.18358275                0.56785814               -0.04954067               -0.04441321               -0.06767479
               3.00009373                0.99993346                1.00046059                0.00010000               -0.02513675               -0.04863757                0.18871331                0.02970784                0.14951444               -0.13501905
               4.00004528                0.99985450                0.99998867                0.00010000               -0.00113976               -0.00069637                0.01160706                0.02739890                0.31440284               -0.13809199
               5.00007094                0.99996266                0.99999101                0.00010000                0.00935793                0.00064446               -0.05393510                0.01466536                0.36824011               -0.05575494
               6.00023244                1.00003780                0.99992565                0.00010000                0.02978866               -0.00073064               -0.16878962                0.00747450                0.43177958                0.03897669
               7.00066671                0.99981521                0.99991489                0.01130471                0.06508109                0.03593582               -0.39692279               -0.02183886                0.33309460                0.00738735
               8.00153406                0.99842780                0.99623012                0.82577845                0.19574306                0.22188685               -0.77001601               -0.08243565                0.05908746                0.09125391
               9.00458157                0.99610361                0.98915049                1.00000000                0.44616198                0.36670787               -1.33384741               -0.11070982                0.04553357               -0.02595331
              10.01045730                0.99430865                0.98136730                1.00000000                0.58757307                0.49973830               -1.89280951               -0.09288491                0.26136942               -0.37661776
               0.00815132                2.00310446                1.01442001                1.00000000               -0.48812917               -0.22653730                1.48278260               -0.10501287                0.21553314                0.34474866
               1.00327003                2.00170071                1.00789131                1.00000000               -0.35048297               -0.15661742                0.88775917               -0.11451796                0.03319276                0.11138493
               2.00114166                2.00012593                1.00179974                0.05679078               -0.13882069               -0.07846876                0.30063041               -0.03920952                0.14809214               -0.10160498
               3.00049362                1.99989184                0.99983440                0.00010000               -0.04721460               -0.00146285                0.02658151                0.01585328                0.55484837               -0.17795918
               4.00019737                1.99991097                1.00003558                0.00010000               -0.01831837                0.00502809               -0.01437265                0.01391631                0.64455924               -0.11093713
               5.00012725                1.99996156                0.99999449                0.00010000                0.00278318                0.00031896               -0.07607015                0.00694066                0.62255391               -0.07411111
               6.00025303                1.99996973                0.99998537                0.00010000                0.02567741               -0.00454730               -0.14309788               -0.00827198                0.68656784               -0.02826358
               7.00064080                1.99980800                0.99999956                0.00010000                0.06522328                0.00345819               -0.37532747               -0.02071089                0.80039082                0.02382973
               8.00155750                1.99973142                0.99933140                0.15271799                0.18437746                0.06716519               -0.62730359               -0.07471142                0.43481830                0.10780290
               9.00432835                1.99865234                0.99304216                1.00000000                0.44209655                0.17330631               -1.08249933               -0.15635062                0.07020295                0.05765794
              10.01039943                1.99792100                0.98238201                1.00000000                0.60710845                0.28131134               -1.70339557               -0.15308904                0.08169586               -0.21905844
               0.00809961                3.00134939                1.01384621                1.00000000               -0.47512464               -0.14700723                1.41204552               -0.09924776                0.20561197                0.18771365
               1.00334836                3.00054888                1.00654816                1.00000000               -0.32634552               -0.09651084                0.74128177               -0.08611426                0.06382225                0.00879355
               2.00157270                2.99964033                1.00039736                0.00010000               -0.13613021               -0.03131756                0.06224253               -0.00013341                0.33071863               -0.10855591
               3.00062576                2.99990420                1.00003292                0.00010000               -0.06594022                0.00263334               -0.27475316                0.02596428                0.79723636               -0.19214403
               4.00025389                2.99995506                1.00001181                0.00010000               -0.02373851                0.00342142               -0.03931716                0.00676017                0.81973648               -0.07339967
               5.00015099                2.99996904                0.99999997                0.00010000               -0.00166668                0.00085958               -0.08261195                0.00062227                0.82224450               -0.06474312
               6.00022056                2.99994686                0.99999357                0.00010000                0.01699107               -0.00055968               -0.13862263               -0.00780670                0.83655610               -0.03771731
               7.00049081                2.99988438                0.99991053                0.00010000                0.04874711                0.00502527               -0.15229053               -0.02078285                0.89181618                0.00478577
               8.00119550                2.99977110                1.00031534                0.03760028                0.13870873                0.00529793               -0.61672717               -0.04463811                0.85321183                0.04565104
               9.00326498                2.99956974                0.99588494                1.00000000                0.38313462                0.07250076               -0.72343540               -0.07143007                0.11951016                0.02452245
              10.00885819                2.99993488                0.98428025                1.00000000                0.55932109                0.14580689               -1.54698025               -0.10694442               -0.01934127                0.01097642
               0.00776739                4.00016432                1.01318849                1.00000000               -0.45105872               -0.10197220                1.33173405               -0.08312483                0.16504307                0.07444516
               1.00325680                3.99977049                1.00510723                0.89663543               -0.29918574               -0.06053593                0.60888838               -0.05375279                0.09163069               -0.08022398
               2.00178367                3.99949957                0.99927392                0.00010000               -0.12793127               -0.00136454               -0.13007396                0.01308472                0.49761681               -0.10346750
               3.00069817                3.99994450                1.00012725                0.00010000               -0.07579697                0.00381105               -0.08116304                0.02612570                0.90724079               -0.07767718
               4.00026773                3.99997940                1.00000917                0.00010000               -0.02751387                0.00212199               -0.09138051                0.00196300                0.93523341               -0.06993098
               5.00014790                3.99997875                1.00000241                0.00010000               -0.00430856                0.00093923               -0.08629415               -0.00181923                0.97506019               -0.04566139
               6.00018156                3.99995854                0.99999066                0.00010000                0.01264973                0.00102825               -0.09586547               -0.00703982                0.98561383               -0.01968400
               7.00040089                3.99990851                0.99995845                0.00010000                0.03989077                0.00189129               -0.10031939               -0.01494591                1.01104952                0.00860030
               8.00097938                3.99983738                1.00013839                0.02444424                0.11675408                0.00461094               -0.03773290               -0.01132324                0.81455186                0.09364386
               9.00273597                4.00010235                0.99694528                1.00000000                0.32754450                0.04428595               -0.51931066               -0.00209964                0.19950414                0.01963717
              10.00753027                4.00083714                0.98614450                1.00000000                0.47942935                0.07837111               -1.37803124               -0.04666240                0.00485973                0.12274387
               0.00722477                4.99930995                1.01240282                1.00000000               -0.42867192               -0.07059844                1.23656177               -0.06256769                0.09518227               -0.02337705
               1.00293805                4.99933816                1.00342700                0.73610101               -0.27821961               -0.03032849                0.47588739               -0.01961458                0.14845638               -0.12952549
               2.00166038                4.99961304                0.99882686                0.00010000               -0.11348006                0.01076490               -0.34078220                0.01537209                0.66023279               -0.07173222
               3.00066845                4.99998042                1.00015877                0.00010000               -0.07007331                0.00244948               -0.19544252                0.01477642                1.06851464               -0.11670784
               4.00025891                4.99999750                1.00000635                0.00010000               -0.02664949                0.00134953               -0.12622949               -0.00101005                1.07380142               -0.06060351
               5.00013546                4.99998783                1.00000354                0.00010000               -0.00544527                0.00077986               -0.08648335               -0.00285062                1.10635556               -0.03030209
               6.00015000                4.99996742                0.99999451                0.00010000                0.00887964                0.00085076               -0.05627018               -0.00631413                1.11055399               -0.00822025
               7.00031305                4.99992220                0.99996478                0.00010000                0.03125934                0.00163617                0.00417239               -0.01365178                1.08022439                0.02522408
               8.00077519                4.99986332                1.00009433                0.03019139                0.09550905                0.00341048                0.40234141                0.00394986                0.79249143                0.14482784
               9.00222323                5.00045546                0.99791958                0.93793666                0.28400896                0.02340290               -0.36497083                0.01706871                0.26407545                0.08388741
              10.00645537                5.00150230                0.98801967                1.00000000                0.42321385                0.06048689               -1.26141575               -0.01325620                0.03676932                0.27170598
               0.00645960                5.99875235                1.01131093                1.00000000               -0.38981926               -0.04396050                1.13071973               -0.03724549                0.06103448               -0.11024634
               1.00256141                5.99916392                1.00203604                0.66147803               -0.25053751               -0.01117550                0.31517379                0.01656343                0.22944034               -0.12738976
               2.00144885                5.99971487                0.99889362                0.08026638               -0.09760826                0.00862195               -0.57685241                0.02840188                0.78044008               -0.05622164
               3.00060925                5.99999349                1.00013755                0.00010000               -0.06043626                0.00137452               -0.80852281                0.01048075                1.21052488               -0.10036885
               4.00024013                6.00000639                1.00000773                0.00010000               -0.02441414                0.00094292               -0.14762376               -0.00174646                1.20143673               -0.03395161
               5.00012096                5.99999434                1.00000391                0.00010000               -0.00596140                0.00060617               -0.09070408               -0.00307402                1.21743664               -0.01291454
               6.00012090                5.99997556                0.99999587                0.00010000                0.00554958                0.00067592               -0.01627882               -0.00533828                1.20892617                0.00189575
               7.00023196                5.99994123                0.99997802                0.00010000                0.02021106                0.00213284                0.09313130               -0.01029402                1.13684561                0.03132093
               8.00052512                5.99990559                1.00004005                0.04760890                0.06032094                0.00724043                0.80215412                0.01097477                0.76928524                0.16576469
               9.00143837                6.00057041                0.99884540                0.76817678                0.23231702                0.00797601               -0.24228292                0.03850804                0.37966889                0.13212308
              10.00517146                6.00204688                0.99116981                1.00000000                0.37330882                0.01373354               -1.22430750                0.00150305                0.18890172                0.43674349
               0.00565672                6.99843074                1.00998555                1.00000000               -0.33499232               -0.03232343                1.01387367               -0.00715647                0.06441533               -0.17394636
               1.00230679                6.99911465                1.00104776                0.65834930               -0.21289395                0.00240527                0.15805947                0.04736660                0.28906531               -0.10725882
               2.00139884                6.99978548                0.99883704                0.18383535               -0.08601237                0.01405826               -0.76995613                0.04743744                0.85026778               -0.04021095
               3.00058655                7.00000791                1.00013092                0.00010000               -0.05878543                0.00556434               -1.23488728                0.01168159                1.26470155                0.05204182
               4.00022313                7.00001636                1.00000686                0.00010000               -0.02408691                0.00204783               -0.18042442               -0.00227124                1.28080553                0.00866733
               5.00010481                6.99999995                1.00000402                0.00010000               -0.00633878                0.00041189               -0.10113408               -0.00346427                1.29982763                0.01075909
               6.00009635                6.99998094                0.99999713                0.00010000                0.00361640                0.00024352                0.01609961               -0.00395251                1.28822553                0.00757350
               7.00017714                6.99996486                0.99998763                0.00010000                0.01345761                0.00120870                0.16896135               -0.00298943                1.17911537                0.02331333
               8.00036551                7.00000813                0.99999664                0.08080685                0.03374847                0.00823096                1.16180615                0.02498707                0.74288799                0.14324573
               9.00085211                7.00061498                0.99955863                0.69856842                0.15834950                0.01236760               -0.08243477                0.05706944                0.51948116                0.15676137
              10.00353250                7.00177697                0.99473413                1.00000000                0.26803904               -0.02939962               -1.17518813               -0.00717174                0.39162168                0.38698032
               0.00494865                7.99810588                1.00859481                1.00000000               -0.27946478               -0.05506502                0.88620675                0.02385463                0.06865020               -0.24000558
               1.00215400                7.99921202                1.00026530                0.72365619               -0.17221517                0.02287171                0.04022375                0.07522439                0.31438702               -0.08149563
               2.00150434                7.99999604                0.99848332                0.31372804               -0.07709980                0.05292770               -0.88389029                0.06013474                0.88487391               -0.02214499
               3.00061200                8.00010478                1.00011003                0.00010000               -0.06508374                0.02480883               -1.17440692                0.00790921                1.31657106                0.15003767
               4.00020267                8.00004734                1.00000066                0.00010000               -0.02624523                0.00403845               -0.22493647               -0.00679177                1.29752691                0.08328448
               5.00008710                8.00000258                1.00000527                0.00010000               -0.00628644               -0.00041690               -0.11976980               -0.00377691                1.35546066                0.03704140
               6.00007694                7.99998043                0.99999843                0.00010000                0.00289390                0.00003363                0.04149091               -0.00325344                1.34878351                0.00670254
               7.00014498                7.99996540                0.99999084                0.00010000                0.01489045               -0.00104756                0.22612650                0.00065010                1.21584691                0.00458706
               8.00037475                8.00007021                0.99998538                0.14698819                0.03329759               -0.00426220                1.41481309                0.04210783                0.73185705                0.04949301
               9.00081093                8.00081776                0.99992789                0.75584392                0.11646489                0.01380592                0.11984679                0.08623160                0.55845656                0.18621138
              10.00270405                8.00145888                0.99598740                1.00000000                0.18931183                0.01269403               -0.98310608                0.02016998                0.43205787                0.19756150
               0.00392152                8.99732944                1.00693009                1.00000000               -0.20003963               -0.12951808                0.75208775                0.02951612                0.06261006               -0.26323697
               1.00192113                8.99957209                0.99963630                0.88775876               -0.11063724                0.04633111               -0.04934938                0.06063851                0.24870056               -0.04369418
               2.00170878                9.00084404                0.99715297                0.52137408               -0.06138506                0.16882604               -0.85643291                0.02201014                0.84694356               -0.01503382
               3.00069342                9.00050409                0.99975378                0.00010000               -0.07596420                0.07479129               -1.11056975               -0.00351590                1.27618453                0.19529057
               4.00018949                9.00009713                1.00003520                0.00010000               -0.02986181                0.00815488               -0.26676706               -0.00975668                1.27968996                0.16889269
               5.00009619                8.99999161                1.00000293                0.00010000               -0.00605141                0.00115164               -0.14243817               -0.00125714                1.39766165                0.06423293
               6.00006846                8.99998161                0.99999947                0.00010000                0.00020843                0.00013812                0.05875632               -0.00153962                1.39764626                0.00370727
               7.00010036                8.99994391                0.99999622                0.00010000                0.01434200               -0.00224277                0.27952743               -0.00437903                1.23219463               -0.04038906
               8.00035530                8.99992289                0.99995924                0.31152956                0.05438535               -0.01796132                1.48472056                0.03625249                0.77287386               -0.02860713
               9.00118806                9.00089110                1.00080730                1.00000000                0.11491727               -0.03141456                0.25113105                0.07050827                0.50827656                0.14556259
              10.00265365                9.00203085                0.99544317                1.00000000                0.14655869                0.12033944               -0.69152476                0.01751323                0.23860810                0.09759410
               0.00105367                9.99551552                1.00652101                1.00000000               -0.12015019               -0.18139174                0.65360351                0.17552757               -0.16179242               -0.29238206
               0.99985217               10.00013865                0.99922630                1.00000000               -0.00205638                0.05665612               -0.13293005                0.18595619               -0.03426098               -0.00430164
               2.00101254               10.00337256                0.99493326                0.84044701                0.07182124                0.25285212               -0.89033263                0.00347450                0.64155203                0.07797577
               3.00128859               10.00160061                0.99861593                0.37166400               -0.02462650                0.10965180               -1.25229245               -0.09858897                1.25685729                0.31012261
               4.00052001               10.00021044                0.99999917                0.35039586               -0.05555613                0.01133136               -0.32359763               -0.04569768                1.37703417                0.27603040
               5.00017747               10.00002562                0.99999063                0.36425350               -0.02130823                0.00340043               -0.18010339               -0.00323443                1.48224910                0.10695571
               6.00009385                9.99998319                1.00000826                0.39931924               -0.00306751                0.00015761                0.06167723               -0.00271514                1.47138805                0.00430279
               7.00011612                9.99992055                1.00002614                0.46948887                0.00293822               -0.00233624                0.31121693               -0.01203399                1.26843672               -0.10393527
               8.00015261                9.99971098                1.00013372                0.74193359               -0.00014939               -0.02119056                1.58457217               -0.00682320                0.68677274               -0.10782555
               9.00011313               10.00018947                1.00105362                1.00000000                0.03110957               -0.07016258                0.29530432                0.10024135                0.30342778                0.03175988
              10.00077480               10.00386567                0.99426215                1.00000000                0.06616712                0.18348237               -0.55469561                0.17973559               -0.08260374                0.13716206
               0.01042491                0.01699535                2.03562441                1.00000000               -0.43033570               -0.48965058                1.72799152               -0.10097996               -0.25349939                0.23619130
               1.00612155                0.01154163                2.02529092                1.00000000               -0.36148559               -0.35572562                1.26362034               -0.10421375               -0.24656577                0.01258395
               2.00319519                0.00583416                2.01451828                0.95512045               -0.21399272               -0.22990849                0.76582598               -0.09233927               -0.26700099               -0.09689207
               3.00184170                0.00013161                2.00468148                0.49668513                0.09076409               -0.12165777                0.29632897                0.12718552               -0.06904294               -0.11707815
               4.00501048               -0.00204073                1.99916201                0.40682487                0.29737724               -0.08962865               -0.01173012                0.08577540                0.45992201               -0.05391454
               5.00778924               -0.00164719                1.99741949                0.41313126                0.11609728                0.04789627               -0.22510621               -0.00974210                0.78407391               -0.01173799
               6.00733242               -0.00151273                1.99487258                0.48791038               -0.08229088                0.21658624               -0.49898506                0.02068094                0.60547491                0.00998416
               7.00614342               -0.00399215                1.98917196                0.70505902                0.02040383                0.32739478               -0.82452025                0.06700769                0.30804169                0.02743392
               8.00774050               -0.00860059                1.98104813                1.00000000                0.27677559                0.34648089               -1.13220280               -0.05242096                0.08545006                0.00089306
               9.01167893               -0.01345187                1.96933035                1.00000000                0.44969870                0.42511149               -1.52443672               -0.06622607               -0.08836552               -0.08769453
              10.01673447               -0.01811422                1.95691754                1.00000000                0.50555387                0.56922552               -1.99611575               -0.06030494               -0.17635610               -0.11450997
               0.01486883                1.01209884                2.03156114                1.00000000               -0.42088174               -0.45393849                1.65691486               -0.06429006               -0.04115893                0.34645724
               1.01066001                1.00798437                2.02107633                1.00000000               -0.34460069               -0.32682125                1.16884291               -0.07006016                0.02361220                0.06535045
               2.00797681                1.00353507                2.01135716                0.62617866               -0.18045064               -0.21071209                0.69515471               -0.06228885                0.14208379               -0.18863742
               3.00705100                0.99891503                2.00377427                0.00010000               -0.06095903               -0.16315650                0.24969411                0.22736721                0.41394232               -0.22922889
               4.00675763                0.99706298                2.00023214                0.00010000                0.01884117               -0.01005731                0.01941320                0.38186774                0.71154955               -0.19896137
               5.00742782                0.99883177                1.99892130                0.00010000                0.09770393                0.00780065               -0.14136557                0.41510979                0.81722243               -0.11285482
               6.00871171                1.00065313                1.99662421                0.00010000                0.14648037                0.04397741               -0.37200703                0.34219429                0.75397416                0.03073799
               7.01035743                0.99928180                1.99206154                0.20616885                0.16172202                0.22365519               -0.70264085                0.23647246                0.58793800               -0.02198458
               8.01194615                0.99486422                1.98459968                1.00000000                0.27080322                0.33357134               -1.04538085               -0.02846402                0.33170739               -0.03010046
               9.01577349                0.99079924                1.97332305                1.00000000                0.44238119                0.39352933               -1.48139076               -0.03058347                0.16537680               -0.06007399
              10.02079377                0.98757803                1.96214381                1.00000000                0.50202835                0.54100526               -1.89697465               -0.01113425                0.12082138               -0.22284756
               0.01736804                2.00791658                2.02965565                1.00000000               -0.40839257               -0.35565288                1.53205931               -0.09916107                0.02098582                0.39620703
               1.01328412                2.00500521                2.01775518                1.00000000               -0.31746423               -0.25122117                0.99485820               -0.11156891                0.07451856                0.07231317
               2.01101876                2.00161991                2.00601261                0.22096402               -0.02114935               -0.15901839                0.44759099               -0.14919661                0.39160615               -0.30842635
               3.01286113                1.99686848                2.00053163                0.00010000                0.08561667               -0.15253817               -0.00472801                0.27087456                0.91910091               -0.49436349
               4.01273109                1.99775812                1.99971255                0.00010000               -0.01799222                0.07477145               -0.04577779                0.56551962                1.25470977               -0.20875291
               5.01250129                1.99850882                1.99847860                0.00010000                0.04975936               -0.00672776               -0.16789291                0.53220026                1.27436998               -0.18394877
               6.01372628                1.99936681                1.99713804                0.00010000                0.20802462               -0.07063827               -0.34818091                0.50404900                1.18791021               -0.09768739
               7.01666178                2.00048095                1.99249345                0.00010000                0.09637471                0.04275136               -0.42969195                0.29305748                1.02160163                0.17853079
               8.01565377                1.99807084                1.98745393                0.43760928                0.08458370                0.26209082               -0.89612949                0.15407210                0.80280643               -0.13985114
               9.01835345                1.99441871                1.97835001                1.00000000                0.36502175                0.28940395               -1.34992103               -0.13565777                0.43503676                0.15065872
              10.02295421                1.99270588                1.96593209                1.00000000                0.46007559                0.44395013               -1.67972069               -0.06984447                0.19287558               -0.25169552
               0.01870835                3.00498579                2.02824091                1.00000000               -0.39830573               -0.24921393                1.43313032               -0.09781692                0.04505066                0.32012072
               1.01472530                3.00295995                2.01482564                1.00000000               -0.27893736               -0.17442663                0.82521071               -0.10840075                0.09123289                0.03851759
               2.01312961                3.00035470                2.00124485                0.07564307                0.08024932               -0.10593798                0.15364367               -0.15910596                0.43460836               -0.28426827
               3.01633028                2.99586427                1.99450494                0.00010000                0.16490390                0.07260630               -0.37328659                0.13760665                1.40434026               -0.15438226
               4.01642768                2.99855841                1.99921366                0.00010000                0.00664241                0.04243617               -0.14402099                0.44656789                1.86103692               -0.19935155
               5.01646313                2.99869722                1.99834776                0.00010000                0.01964367                0.02871922               -0.19185197                0.38501933                1.63787359               -0.13904976
               6.01682056                2.99924036                1.99722755                0.00010000                0.05257111                0.01192811               -0.26521137                0.37347810                1.69196419               -0.06768428
               7.01751455                3.00013683                1.99695419                0.00010000                0.21346383               -0.01815981               -0.42999545                0.21385771                1.32028195                0.14759213
               8.02108983                3.00010604                1.98766546                0.29929919                0.04553702                0.20115230               -0.54800563                0.00504643                1.08077642                0.38209373
               9.01842529                2.99658732                1.98553129                1.00000000                0.08663586                0.19696922               -1.05977050               -0.20092449                0.75887062                0.19414410
              10.02282255                2.99645703                1.96906039                1.00000000                0.43972579                0.30047881               -1.51202249               -0.07580156               -0.02857084               -0.15015807
               0.01946338                4.00293230                2.02663468                1.00000000               -0.37161905               -0.17878813                1.33561936               -0.08421704                0.08415741                0.21729078
               1.01574719                4.00151667                2.01217777                1.00000000               -0.22655270               -0.12396338                0.67158974               -0.08056782                0.12930003               -0.00125965
               2.01493232                3.99950116                1.99739852                0.05723135                0.08311870               -0.07045229               -0.11223631                0.00736065                0.92811541               -0.29524204
               3.01740956                3.99832061                1.99837674                0.00010000                0.19485911                0.08956373               -0.24659454                0.14831055                1.84993907                0.05564867
               4.01882951                3.99860684                1.99817239                0.00010000                0.10550799                0.01154847               -0.22220060                0.29830905                1.93216991               -0.15859998
               5.01951972                3.99908321                1.99827412                0.00010000                0.04633638                0.03476193               -0.20024235                0.33371737                1.99818155               -0.09411735
               6.01975623                3.99960538                1.99808269                0.00010000                0.02767701                0.02950095               -0.20257270                0.32319148                2.00685507               -0.01639403
               7.02007326                4.00011776                1.99799361                0.00010000               -0.02260124                0.01740432               -0.18298864                0.32393111                2.03005102                0.06137648
               8.01930421                4.00209388                1.99924534                0.29182058               -0.10446467                0.14444296               -0.01445134               -0.24772327                1.36791666                0.86761773
               9.01798397                3.99835810                1.98961379                1.00000000                0.11972727                0.15951571               -0.77826173               -0.22237742                0.43624916                0.08824208
              10.02169875                3.99871546                1.97243938                1.00000000                0.37147864                0.19758915               -1.35977143               -0.07863102               -0.00101396               -0.06561162
               0.01985527                5.00141002                2.02473124                1.00000000               -0.33101828               -0.13599819                1.23075277               -0.07757981                0.12624610                0.12400667
               1.01654509                5.00048068                2.00951775                1.00000000               -0.16911911               -0.08426141                0.52560628               -0.06027175                0.14345852               -0.07111551
               2.01647289                4.99894566                1.99318436                0.09725935                0.18228598               -0.03178838               -0.39521471               -0.01250836                1.09567897               -0.35450989
               3.02019081                4.99765554                1.99609115                0.00010000                0.25791899               -0.01500659               -0.41866189                0.27652735                2.16771716               -0.65894786
               4.02163127                4.99878938                1.99747541                0.00010000                0.09740698                0.03568024               -0.29785622                0.35348858                2.23503753               -0.06556812
               5.02213894                4.99939245                1.99827033                0.00010000                0.03092841                0.03290126               -0.20489582                0.29409356                2.29249879               -0.05710735
               6.02224983                4.99983038                1.99887460                0.00010000               -0.03171389                0.02149595               -0.11452157                0.27703195                2.31569018                0.00786945
               7.02150467                5.00048491                2.00008345                0.00010000               -0.21774029                0.02429066                0.06682175                0.28919939                2.56687434                0.12393485
               8.01789503                5.00299490                2.00804683                0.30294241               -0.20742478                0.06595501                0.45438860               -0.17465762                1.50877781                0.75441716
               9.01735617                4.99977764                1.99270058                1.00000000                0.13200921                0.13226599               -0.54858893               -0.20532131                0.17606005                0.09387673
              10.02053521                5.00040882                1.97477168                1.00000000                0.31790410                0.16524780               -1.25749083               -0.06535886               -0.02012065               -0.10057281
               0.01977046                6.00021234                2.02261439                1.00000000               -0.27643445               -0.10864182                1.12044728               -0.07265859                0.10687136                0.03584238
               1.01700612                5.99983145                2.00630348                0.92498970               -0.11315830               -0.04275605                0.35470385               -0.04811076                0.10643467               -0.12840306
               2.01750730                5.99886539                1.98846295                0.17433372                0.30451353                0.03302100               -0.68059112               -0.01808300                0.75172161               -0.32417251
               3.02309639                5.99802047                1.98382954                0.00010000                0.33275355                0.17064031               -0.97289821                0.21942292                2.30222825               -0.90147738
               4.02416237                5.99932045                1.99704752                0.00010000                0.06321000                0.06955156               -0.42745627                0.29162540                2.93153645               -0.01652756
               5.02436059                5.99974123                1.99818592                0.00010000                0.00210237                0.04106869               -0.21319653                0.22910943                2.52466290               -0.02991542
               6.02420441                6.00003530                1.99967442                0.00010000               -0.08339267                0.01592630               -0.03127500                0.21967014                2.57359864                0.02376682
               7.02269273                6.00060357                2.00186263                0.00010000               -0.38430408               -0.00157304                0.29801582                0.27279093                3.02994848                0.11448755
               8.01651833                6.00341298                2.01604308                0.32793092               -0.31145571               -0.00376578                0.86690575               -0.11042093                1.61910109                0.70729425
               9.01646362                6.00100342                1.99515434                1.00000000                0.13054405                0.11375488               -0.33971815               -0.15483021               -0.11434054                0.16440734
              10.01912921                6.00202041                1.97551385                1.00000000                0.26655932                0.12566003               -1.22095820               -0.05098941               -0.13873557               -0.10276920
               0.01916388                6.99923719                2.02027747                1.00000000               -0.22340612               -0.09784939                1.00737195               -0.04808440                0.06599402               -0.05363108
               1.01692982                6.99962556                2.00316119                0.90821436               -0.06208424               -0.00249449                0.17255668               -0.01189965                0.06477669               -0.10828585
               2.01792220                6.99960608                1.98460088                0.27725248                0.35971915                0.11878874               -0.92889915                0.08941195                0.53127351               -0.17877062
               3.02412420                7.00106835                1.97530225                0.00010000                0.39104106                0.26787089               -1.35256709                0.11460099                2.36664703               -0.26503686
               4.02574302                7.00018041                1.99639151                0.00010000                0.09410415                0.11584545               -0.58174332                0.05192068                3.39145928                0.00720306
               5.02600629                7.00021383                1.99797732                0.00010000                0.00189391                0.05003428               -0.23943885                0.13596769                2.72178894               -0.01192093
               6.02578090                7.00014891                2.00032199                0.00010000               -0.12117447                0.00482097                0.03809732                0.15126543                2.79123760                0.02663843
               7.02358280                7.00045345                2.00337923                0.00010000               -0.52470666               -0.02602121                0.50074498                0.22039630                3.43673523                0.08414994
               8.01528676                7.00291958                2.02323612                0.37084735               -0.39653292               -0.11928607                1.24559840               -0.01094806                1.75490583                0.55541508
               9.01565214                7.00205273                1.99835130                1.00000000                0.10973354                0.07360661               -0.11743166               -0.06470321               -0.37774434                0.27129544
              10.01748143                7.00292202                1.97649624                1.00000000                0.18292954                0.06108843               -1.18152311               -0.04342486               -0.29691465                0.11399816
               0.01803202                7.99825535                2.01772413                1.00000000               -0.16327907               -0.12140634                0.89285275               -0.01358411                0.05733185               -0.13333384
               1.01639923                7.99978156                2.00080448                0.97949790               -0.00896385                0.02697754                0.02101432                0.04035593                0.04626306               -0.05589932
               2.01785275                8.00124116                1.98232219                0.41373711                0.42074216                0.18216541               -1.05230908                0.12477618                0.67595282                0.07573205
               3.02481408                8.00337789                1.97651186                0.00010000                0.41012777                0.21657823               -1.33587551               -0.05432704                2.31244107                0.31989290
               4.02605530                8.00163736                1.99550127                0.00010000                0.11486832                0.15994676               -0.74377119               -0.15171694                3.36799623                0.04723694
               5.02711144                8.00074192                1.99760460                0.00010000                0.04673985                0.05427373               -0.28074861                0.02385171                2.90114239                0.01216104
               6.02699010                8.00013171                2.00082982                0.00010000               -0.13907276               -0.00422961                0.09348705                0.07599818                2.97400483                0.02314779
               7.02432999                8.00008315                2.00452253                0.01662585               -0.61450049               -0.06482669                0.66459531                0.09984360                3.72300883                0.03992569
               8.01470009                8.00102726                2.02829626                0.44909557               -0.45814345               -0.18200282                1.53315647                0.08760184                1.91278627                0.23291836
               9.01516712                8.00247555                2.00239694                1.00000000                0.09110287               -0.01336064                0.12314988                0.06221877               -0.45509062                0.23794995
              10.01652215                8.00324218                1.98033788                1.00000000                0.13550282                0.03775534               -0.99634970               -0.02238751               -0.31763723                0.40253238
               0.01583979                8.99680906                2.01504176                1.00000000               -0.10886624               -0.16424176                0.79154242                0.00168231                0.05484113               -0.14963927
               1.01475113                9.00016511                1.99901301                1.00000000                0.04907974                0.04761970               -0.10480229                0.04718142                0.09470719               -0.02502989
               2.01682138                9.00324939                1.98287134                0.63285126                0.39451710                0.23788949               -1.05195346                0.04117350                0.68821664                0.21489479
               3.02264147                9.00539991                1.97778860                0.00010000                0.42616360                0.25501340               -1.28815955               -0.23064450                2.12183213                0.31219924
               4.02534466                9.00337934                1.99466466                0.00010000                0.26737474                0.19776494               -0.91718408               -0.19949633                3.35044738                0.10411278
               5.02798896                9.00129930                1.99715124                0.00010000                0.13074867                0.07109015               -0.32319503               -0.03952902                3.06884760                0.02929819
               6.02795963                9.00006432                2.00117513                0.00010000               -0.16524211               -0.00316261                0.13411629                0.01298801                3.14779843                0.01731168
               7.02468412                8.99915692                2.00559055                0.04662916               -0.66566159               -0.11108436                0.80670324                0.00642502                3.80497738               -0.00745916
               8.01464640                8.99927952                2.02969441                0.61050623               -0.50012628               -0.17663659                1.61442984                0.03182430                1.91681529                0.00706322
               9.01468160                9.00178552                2.00502262                1.00000000                0.04270119               -0.11664953                0.31176169                0.05853002               -0.33854366                0.06759507
              10.01550042                9.00367712                1.98616950                1.00000000                0.08188254                0.09315500               -0.73412915               -0.04040382               -0.09558778                0.37876616
               0.01135357                9.99497051                2.01307207                1.00000000               -0.04510293               -0.18385460                0.62491015                0.12772111               -0.03134972               -0.11465839
               1.01090254               10.00073395                1.99734140                1.00000000                0.10439252                0.05688361               -0.25141607                0.16656284                0.03681010                0.00228127
               2.01344142               10.00599895                1.98219335                0.88939177                0.45843465                0.27495659               -1.06298365                0.04921377                0.46674619                0.18746259
               3.02007123               10.00847816                1.97495415                0.37658328                0.63622862                0.30782456               -1.34210327               -0.27733877                1.94301025                0.16705701
               4.02616599               10.00559266                1.99352805                0.35224940                0.47823313                0.22133115               -1.02022745               -0.23358881                3.54260665                0.08661107
               5.02963589               10.00216372                1.99639793                0.37210805                0.16131283                0.08644165               -0.35604157               -0.11151682                3.24222652                0.04875149
               6.02939224               10.00006846                2.00123354                0.42589866               -0.21963056                0.00041470                0.15357855               -0.07185136                3.31877208                0.02946366
               7.02524328                9.99786146                2.00622434                0.53329330               -0.83421359               -0.12954574                0.89193727               -0.07278065                3.95090602               -0.00397000
               8.01270797                9.99749453                2.03169144                0.86324705               -0.66515806               -0.17849927                1.69099217               -0.07978742                1.83449998                0.01475701
               9.01194012               10.00014256                2.00590609                1.00000000               -0.03885551               -0.16429605                0.49030715                0.10638991               -0.40803453               -0.03064969
              10.01193086               10.00510528                1.98890609                1.00000000               -0.00092563                0.14281578               -0.48690288                0.13931642               -0.01532950                0.20707557
               0.02094682                0.02385164                3.05290646                1.00000000               -0.44726941               -0.50736015                1.73164543               -0.10995570               -0.21581373                0.25298666
               1.01647413                0.01616012                3.03787314                1.00000000               -0.36463493               -0.36361414                1.25957035               -0.09725608               -0.26053615               -0.00659288
               2.01365412                0.00818198                3.02200483                0.92653409               -0.19772325               -0.22393432                0.77339544               -0.08736996               -0.23344335               -0.12525973
               3.01251966                0.00033746                3.00737639                0.50366723                0.12424507               -0.08387254                0.30255840                0.12401191                0.18214451               -0.12809062
               4.01613903               -0.00329366                2.99962579                0.43648455                0.37342465               -0.13816071                0.09093340                0.11766357                0.78018940               -0.00985396
               5.01998816               -0.00328971                2.99543923                0.44922515                0.20870527               -0.00638337               -0.17977171                0.00223775                0.96720266                0.00617936
               6.02031313               -0.00331923                2.98987926                0.51480011               -0.02676530                0.17063293               -0.50120134                0.04327939                0.87750512                0.04158448
               7.01945285               -0.00614122                2.98264321                0.70635337                0.03660409                0.21952434               -0.72230232                0.07609896                0.53937967                0.03380068
               8.02104521               -0.01179155                2.96972649                1.00000000                0.26669121                0.32115467               -1.13247858               -0.02784549                0.10261718                0.15776409
               9.02478667               -0.01842111                2.95387173                1.00000000                0.44602518                0.43035814               -1.53158454               -0.09541768               -0.08164573                0.00226964
              10.02996572               -0.02481651                2.93757008                1.00000000                0.51790415                0.56536584               -1.92826905               -0.11289064               -0.10612547               -0.13889708
               0.02753879                1.01877804                3.04800612                1.00000000               -0.42023930               -0.47514066                1.63277371               -0.05414899               -0.01224547                0.34431855
               1.02333640                1.01252397                3.03270252                1.00000000               -0.34235189               -0.33812279                1.15178772               -0.04530439                0.02289963                0.00203286
               2.02069175                1.00594264                3.01795247                0.58691635               -0.19193984               -0.20561345                0.66988744               -0.02410146                0.16519014               -0.28752824
               3.01949760                0.99949873                3.00545447                0.00010000               -0.07812557               -0.05317795                0.21547847                0.10190645                0.62820455               -0.32056155
               4.01912924                0.99532473                3.00037693                0.00010000                0.02628595                0.00240272                0.04948822                0.41766509                1.08327733               -0.16254728
               5.02002332                0.99664646                2.99716370                0.00010000                0.15212184                0.00729120               -0.16884678                0.56316793                1.12664307               -0.14473323
               6.02217168                0.99838710                2.99248551                0.00010000                0.22133395                0.03659401               -0.43341369                0.45454105                1.01418870               -0.09051042
               7.02445000                0.99605403                2.98586208                0.22242177                0.23675125                0.23135934               -0.66626835                0.21684954                0.78687203                0.12295458
               8.02690670                0.99141999                2.97532250                1.00000000                0.29474896                0.28300873               -0.94232430                0.02701485                0.38291216                0.17298131
               9.03034498                0.98588247                2.95952268                1.00000000                0.41627554                0.39391894               -1.37435839               -0.04093024                0.09138338                0.04802503
              10.03523221                0.98083714                2.94342781                1.00000000                0.48872360                0.53935098               -1.83592293               -0.04817906                0.06085258               -0.17132948
               0.03237197                2.01434883                3.04506119                1.00000000               -0.39685303               -0.40026319                1.52572591               -0.08049797                0.03773220                0.44558071
               1.02840344                2.00939766                3.02778848                1.00000000               -0.30873185               -0.28136633                1.00107509               -0.07232193                0.06420760                0.01415508
               2.02619734                2.00406971                3.01075156                0.21464963               -0.16138747               -0.16867899                0.48319851               -0.01149770                0.37917598               -0.44856998
               3.02517569                1.99927390                2.99973984                0.00010000                0.05736303               -0.02636421                0.00644306                0.19654189                1.06741342               -0.52072701
               4.02734460                1.99675440                2.99912002                0.00010000                0.15067287                0.10917267               -0.08939852                0.60423918                1.56575793               -0.25103237
               5.02818915                1.99685612                2.99663663                0.00010000                0.13258928                0.03730330               -0.20952250                0.77647492                1.46723645               -0.22358042
               6.02999638                1.99741265                2.99302175                0.00010000                0.12838954               -0.03692864               -0.37706580                0.74557939                1.52866971               -0.12108264
               7.03075694                1.99848597                2.99140573                0.00010000                0.08803404                0.06410160               -0.24611686                0.42322562                1.14084067                0.01565172
               8.03175706                1.99386862                2.98140881                0.42621221                0.18969886                0.21007855               -0.68926105               -0.08507397                0.57503379                0.26762738
               9.03455092                1.98945727                2.96604373                1.00000000                0.36678633                0.31531873               -1.22822909               -0.05978203                0.22779170                0.20492087
              10.03909279                1.98597050                2.94878760                1.00000000                0.45418710                0.47936417               -1.69075846               -0.04885871                0.11898107               -0.20314492
               0.03583117                3.01077278                3.04250882                1.00000000               -0.36620917               -0.31645099                1.40933138               -0.08799347                0.05464717                0.41633954
               1.03216908                3.00689665                3.02305237                1.00000000               -0.26228037               -0.21722379                0.82694295               -0.07641016                0.07427228                0.00500502
               2.03058556                3.00256906                3.00347024                0.07875063               -0.07126614               -0.12072412                0.24903848                0.00122352                0.49906091               -0.41975578
               3.03074376                2.99897145                2.99256719                0.00010000                0.15231220                0.00986839               -0.13969115                0.33432614                1.59553771               -0.09966046
               4.03363181                2.99750819                2.99713139                0.00010000                0.20754059                0.08956246               -0.21877578                0.50451171                2.15412460               -0.23697260
               5.03489457                2.99739253                2.99616293                0.00010000                0.09108038                0.06588554               -0.23431894                0.60762058                1.90175295               -0.17279455
               6.03545341                2.99764852                2.99468934                0.00010000                0.07819851                0.02854822               -0.28341290                0.52731590                1.79336875               -0.05893466
               7.03645854                2.99733606                2.99131063                0.00010000               -0.06097438               -0.02395971               -0.42472053                0.35276799                1.74935611               -0.05451087
               8.03423393                2.99562157                2.98935523                0.30636648                0.02944593                0.14698704               -0.15726653               -0.00933709                1.00228770                0.49793867
               9.03704746                2.99218885                2.97468953                1.00000000                0.34973219                0.26203157               -1.07573977               -0.07405675                0.31380166                0.26017948
              10.04122857                2.99042443                2.95403980                1.00000000                0.41811142                0.39215555               -1.50319033               -0.03814094               -0.00846334               -0.18371609
               0.03836436                4.00801981                3.03990088                1.00000000               -0.32854015               -0.24812048                1.30002292               -0.07938772                0.07176342                0.34176634
               1.03507896                4.00505318                3.01853903                1.00000000               -0.21086767               -0.15532523                0.64548644               -0.05897802                0.09555184               -0.01879108
               2.03414701                4.00165523                2.99702919                0.02890322                0.09220631               -0.05553207                0.00426744                0.04165361                1.05896221               -0.36406924
               3.03692309                3.99947127                2.99519536                0.00010000                0.24333722                0.11886068               -0.29656790                0.29391986                2.14854079                0.07848595
               4.03901375                3.99854564                2.99556516                0.00010000                0.16390703                0.11514082               -0.27496811                0.39256165                2.27054362               -0.15447239
               5.04020123                3.99817383                2.99599756                0.00010000                0.07927074                0.07706757               -0.24473330                0.45648235                2.26967201               -0.11745373
               6.04059917                3.99798361                2.99593920                0.00010000               -0.01809833                0.04422773               -0.22025326                0.45151135                2.26374610               -0.04231916
               7.03983926                3.99800678                2.99629868                0.00010000               -0.19408162                0.05979139               -0.16881886                0.24222596                2.38158890                0.21411250
               8.03671754                3.99680836                2.99984936                0.30556118               -0.07861687                0.12661805               -0.05618180                0.03954046                1.37218826                0.54976862
               9.03826692                3.99469790                2.98138005                1.00000000                0.25706378                0.23017951               -0.84155398               -0.05113139                0.22409922                0.15580106
              10.04185881                3.99381362                2.95894908                1.00000000                0.35918876                0.29959695               -1.33978080               -0.05431933                0.00993617               -0.17397580
               0.04017666                5.00581037                3.03701787                1.00000000               -0.28225666               -0.20484248                1.19316069               -0.05929702                0.07333154                0.24645680
               1.03735410                5.00379014                3.01393913                0.95002723               -0.15880559               -0.10503836                0.46909624               -0.02946822                0.10726411               -0.05874777
               2.03700055                5.00145842                2.99092256                0.01080310                0.11888190                0.00798362               -0.19349601                0.11843631                1.28230583               -0.31276294
               3.03973174                5.00134866                2.99178554                0.00010000                0.28899616                0.16407883               -0.35585690               -0.02506303                2.51930105               -0.47870236
               4.04278048                4.99981100                2.99404922                0.00010000                0.24272553                0.11070454               -0.35045531                0.15429732                2.60008250               -0.14158320
               5.04458625                4.99893388                2.99590562                0.00010000                0.09351082                0.07576112               -0.25475277                0.32540848                2.61910004               -0.07819986
               6.04465069                4.99853308                2.99770408                0.00010000               -0.10539708                0.05099427               -0.12196235                0.34575038                2.69057498                0.00494857
               7.04247830                4.99853189                3.00130122                0.00010000               -0.31585407                0.04642121                0.06311730                0.21219266                2.93120858                0.21534227
               8.03833361                4.99815393                3.00918210                0.31584211               -0.17293648                0.10269085                0.03814307                0.05792210                1.64072677                0.45031457
               9.03901958                4.99679244                2.98694780                1.00000000                0.17885712                0.17549667               -0.59741706               -0.01618443                0.11471316                0.11814889
              10.04191075                4.99641637                2.96286985                1.00000000                0.28911782                0.22266619               -1.16000423               -0.04666095                0.00321453               -0.16300735
               0.04121887                6.00392296                3.03371987                1.00000000               -0.23773213               -0.17809958                1.07848279               -0.04542919                0.05716237                0.14893363
               1.03884155                6.00295242                3.00913012                0.81443772               -0.11308254               -0.06711039                0.31424320               -0.00916164                0.11856345               -0.08292627
               2.03895722                6.00181490                2.98528179                0.01403560               -0.03861547                0.04462064               -0.34111566                0.13415577                1.09884286               -0.24493426
               3.03806924                6.00275284                2.98067958                0.00010000                0.27786325                0.03380985               -0.07755536               -0.23290242                2.76202227               -0.67085323
               4.04451448                6.00075974                2.99145860                0.00010000                0.49590422                0.09478356               -0.52354765               -0.02335081                3.24130506               -0.18877167
               5.04798732                5.99968905                2.99573998                0.00010000                0.17008414                0.07044838               -0.27342792                0.21338107                2.97434876               -0.06525962
               6.04791617                5.99900350                2.99937037                0.00010000               -0.17625283                0.04126182               -0.02907881                0.25573275                3.07608353                0.01422011
               7.04446227                5.99893520                3.00593834                0.00989896               -0.41503689                0.02280343                0.28189724                0.16890440                3.39760451                0.19386163
               8.03961543                5.99886218                3.01737816                0.33319124               -0.23907353                0.03546640                0.13040678                0.07152836                1.86755713                0.38156601
               9.03968080                5.99820783                2.99205103                0.93920713                0.10311528                0.10029273               -0.34630095                0.02111442                0.04137264                0.11476562
              10.04167773                5.99826694                2.96675064                1.00000000                0.19969383                0.14082684               -0.90530945               -0.02441029                0.02275755               -0.10900484
               0.04120917                7.00224837                3.03013299                1.00000000               -0.19302417               -0.16240184                0.96321343               -0.04425731                0.03723983                0.06786651
               1.03927892                7.00244794                3.00449890                0.74879492               -0.06629610               -0.03551006                0.15186506               -0.01289475                0.12774917               -0.05677169
               2.03988324                7.00235083                2.98025905                0.03766576               -0.15750353                0.07126567               -0.53163770               -0.00321420                1.04679752               -0.11417148
               3.03612885                7.00202486                2.97307958                0.00010000                0.27470038                0.06317232                0.01510052               -0.25158225                2.98238732               -0.26262971
               4.04537725                7.00170667                2.98837200                0.00010000                0.72406267                0.09796003               -0.72342297                0.01366769                3.69865400               -0.22034154
               5.05061011                7.00034284                2.99521524                0.00010000                0.25709732                0.06914172               -0.31189968                0.12228573                3.32148353               -0.07136149
               6.05051920                6.99935831                3.00075908                0.00010000               -0.23061981                0.02933757                0.05239526                0.16840270                3.42595864                0.01283739
               7.04599771                6.99898796                3.01000253                0.02347196               -0.50138263               -0.01913030                0.48644564                0.10906909                3.82046595                0.15091730
               8.04049154                6.99886325                3.02490861                0.35742540               -0.29803029               -0.02959461                0.22596144                0.04754873                2.08334509                0.29580488
               9.04003710                6.99879829                2.99720999                0.89817304                0.04063962                0.03488046               -0.14142821                0.01781754               -0.01415959                0.11205703
              10.04130434                6.99923290                2.97110366                1.00000000                0.12672328                0.07846622               -0.66115921               -0.01695478                0.06327972               -0.01872313
               0.03993460                8.00067492                3.02645187                1.00000000               -0.14534025               -0.16298296                0.85764572               -0.04993746                0.05018630                0.01360376
               1.03848120                8.00224222                3.00068559                0.75455982               -0.03092951                0.00433144               -0.02380334               -0.03639749                0.19188930               -0.00186224
               2.03931601                8.00324021                2.97743714                0.09015490               -0.23997266                0.14599756               -0.74208762               -0.07058268                1.29577157                0.05280697
               3.03368175                8.00401629                2.97339252                0.00010000                0.35769187                0.31404635               -0.52700253               -0.26566908                3.05290928                0.03790548
               4.04646985                8.00271894                2.98512524                0.00010000                0.95498255                0.12229663               -0.92626189               -0.02429226                3.78901659               -0.22951997
               5.05278140                8.00107189                2.99439030                0.00010000                0.30846297                0.07207008               -0.35585630                0.06119392                3.66095871               -0.06338592
               6.05263911                7.99959025                3.00186817                0.00010000               -0.28213447                0.02829029                0.12062100                0.07733167                3.73685771                0.01255624
               7.04713871                7.99855259                3.01328275                0.03871973               -0.59415209               -0.04475188                0.67520806                0.01814742                4.13552124                0.10644218
               8.04075607                7.99827029                3.03064851                0.39098431               -0.37356053               -0.10971416                0.36662059               -0.04395790                2.26149443                0.07369527
               9.03966750                7.99890544                3.00239089                0.89232814               -0.01433259               -0.00322227                0.01077632               -0.02645162               -0.00852619                0.08315307
              10.04046942                7.99983626                2.97606040                0.97898136                0.08019175                0.09025298               -0.55846762               -0.04972849                0.08124891                0.05193286
               0.03707583                8.99898872                3.02276094                1.00000000               -0.10901474               -0.17566006                0.75821230               -0.04774442                0.09191115               -0.00813670
               1.03598568                9.00253456                2.99754025                0.81264410               -0.01891563                0.06426417               -0.20214316               -0.03660219                0.29685237                0.02390641
               2.03669752                9.00527078                2.97611391                0.17665994               -0.23244664                0.26187925               -1.03394262               -0.04050390                1.48020761                0.11318308
               3.03133675                9.00830578                2.97399059                0.00010000                0.55691460                0.32971833               -1.46952339               -0.29929105                2.97129342                0.02813569
               4.04783581                9.00415261                2.98169152                0.00010000                1.18129613                0.07484753               -1.07488451               -0.15315119                3.87312887               -0.16360051
               5.05496267                9.00178425                2.99353903                0.00010000                0.33746561                0.07176843               -0.39450432                0.01533092                3.99938318               -0.04069250
               6.05458512                8.99992412                3.00268179                0.00010000               -0.36410266                0.04326888                0.17955030                0.01562227                4.03035884                0.02041339
               7.04768062                8.99809292                3.01613029                0.04252192               -0.76627914                0.00104865                0.82171534               -0.08587582                4.23670508                0.07111941
               8.03925954                8.99666897                3.03224784                0.41759744               -0.48692614               -0.11291147                0.58380008               -0.14771379                2.34838407               -0.12263050
               9.03794210                8.99873385                3.00704254                0.95185256               -0.04057058               -0.05479493                0.21889046               -0.02803547                0.13069971                0.03840571
              10.03844813                9.00103796                2.98076059                0.96881237                0.05060304                0.13488770               -0.56638071               -0.06964860                0.06465937                0.03932271
               0.03188802                9.99716172                3.01901921                1.00000000               -0.04209249               -0.18269947                0.58171013                0.11779658                0.11386156               -0.00640540
               1.03146709               10.00352750                2.99419798                0.92876448                0.04233482                0.09929350               -0.39494422                0.11394491                0.34403091                0.05011816
               2.03273471               10.00847780                2.97367358                0.62090637               -0.13264975                0.32070196               -1.25016981               -0.04212252                1.52763290                0.15715972
               3.02881410               10.01061065                2.97177386                0.36502668                0.85968249                0.23048707               -1.61367739               -0.46536083                3.09000717                0.13386779
               4.04992836               10.00421589                2.97959462                0.35077291                1.42512027                0.00632789               -1.17354130               -0.19591459                4.07702179               -0.17295074
               5.05731650               10.00250725                2.99286979                0.37082725                0.33572595                0.07230073               -0.38974513                0.04737007                4.21440772               -0.02655367
               6.05664288               10.00045563                3.00307983                0.41822940               -0.43200809                0.05315056                0.23106362                0.00909184                4.23654061                0.03674853
               7.04867634                9.99857357                3.01786489                0.51057130               -0.97410096                0.04806496                0.92691381               -0.12260615                4.40689144                0.15241418
               8.03716086                9.99601206                3.03395356                0.70060540               -0.69692722               -0.06569126                0.73756956               -0.24806864                2.46436299               -0.20796671
               9.03473780                9.99780954                3.01085977                1.00000000               -0.13463266               -0.09243012                0.48809214                0.00566804                0.23750673                0.02491797
              10.03446821               10.00253402                2.98452410                0.99049429               -0.02695868                0.14960553               -0.41090709                0.07445566                0.06764372               -0.01065197
               0.03617528                0.03185577                4.07025732                1.00000000               -0.43628199               -0.50252826                1.72014437               -0.10489338               -0.23491078                0.27516766
               1.03181246                0.02175100                4.05048233                1.00000000               -0.35761013               -0.36413109                1.26281938               -0.08518542               -0.26273971               -0.01372464
               2.02902307                0.01143368                4.02998619                0.92101189               -0.19744185               -0.23959015                0.81372268               -0.06630881               -0.23471383               -0.15389357
               3.02786362                0.00141364                4.01073265                0.51661399                0.17641733               -0.12732836                0.37254716                0.17401188                0.30297832               -0.13861444
               4.03255142               -0.00374009                4.00098068                0.47437072                0.45081032               -0.19420988                0.16286375                0.09694365                1.00651137               -0.00822525
               5.03687983               -0.00497254                3.99382406                0.49659894                0.25635633               -0.02877501               -0.14884803               -0.01044515                1.06938622                0.00471098
               6.03767855               -0.00589355                3.98484855                0.55025974                0.01019800                0.15939800               -0.50652350                0.02278979                0.95940283                0.03292178
               7.03708379               -0.00975387                3.97472591                0.72745981                0.04428882                0.27322429               -0.80719536                0.08022007                0.61677071                0.01118922
               8.03856432               -0.01663733                3.95839856                1.00000000                0.25593213                0.32788525               -1.13700644               -0.00977836                0.13128004                0.20191791
               9.04220243               -0.02470838                3.93869866                1.00000000                0.43254686                0.42961120               -1.51054903               -0.06917175               -0.07635999                0.02095990
              10.04721526               -0.03260762                3.91835215                1.00000000                0.50128320                0.55415429               -1.90090956               -0.09139341               -0.12084474               -0.14965233
               0.04523111                1.02683048                4.06421661                1.00000000               -0.40594599               -0.47651368                1.59856490               -0.04743738               -0.00604174                0.38214604
               1.04117165                1.01810969                4.04411208                1.00000000               -0.33512198               -0.34062711                1.13575617               -0.03636322                0.04355239               -0.01240952
               2.03852867                1.00903777                4.02475491                0.57480927               -0.19905118               -0.21514628                0.69415266               -0.01707448                0.21456400               -0.35798397
               3.03719062                1.00014035                4.00808384                0.00010000               -0.09073605               -0.10362101                0.29741338                0.16286763                0.82701904               -0.41221804
               4.03671395                0.99431781                4.00122191                0.00010000                0.03307392               -0.01384437                0.12203589                0.45986962                1.35231942               -0.22726096
               5.03785210                0.99473971                3.99554436                0.00010000                0.17915811                0.00052621               -0.14728593                0.62235426                1.32543411               -0.16048668
               6.04029711                0.99570043                3.98795593                0.00010000                0.27028879                0.03174413               -0.46251044                0.50453489                1.16966486               -0.05356619
               7.04325788                0.99297838                3.97873618                0.23857386                0.28233426                0.25496539               -0.72635436                0.24744161                0.95651389                0.27267839
               8.04594379                0.98664152                3.96575319                1.00000000                0.31189882                0.30139958               -0.98217355                0.02807393                0.45353070                0.23895368
               9.04949585                0.97958774                3.94583588                1.00000000                0.41283870                0.40293278               -1.36831459               -0.01897590                0.09024661                0.06209456
              10.05420057                0.97293393                3.92542535                1.00000000                0.47047136                0.53193027               -1.77246648               -0.03383860                0.05205935               -0.17954037
               0.05266811                2.02232549                4.06017017                1.00000000               -0.37902136               -0.41787967                1.48842369               -0.06454893                0.04034200                0.49448921
               1.04887790                2.01493846                4.03777669                1.00000000               -0.30085970               -0.29000946                0.99369190               -0.05585319                0.07099450               -0.01683004
               2.04665092                2.00713075                4.01567658                0.23382793               -0.15184803               -0.16779090                0.50654977               -0.02649529                0.43802875               -0.57214591
               3.04584094                1.99934122                4.00066049                0.00010000                0.02492690               -0.08624071                0.13156238                0.31207643                1.42423219               -0.78018965
               4.04714946                1.99598302                3.99792458                0.00010000                0.10516738                0.15280039               -0.08187982                0.74486282                1.91737434               -0.38087209
               5.04794429                1.99503798                3.99428815                0.00010000                0.11905605                0.05703409               -0.22138454                0.89232250                1.78055273               -0.27651257
               6.04953058                1.99474133                3.98959673                0.00010000                0.15736201               -0.02781081               -0.36329131                0.87752920                1.85260665               -0.10915183
               7.05109153                1.99534544                3.98757111                0.00010000                0.14929308                0.05876384               -0.44346825                0.46136188                1.45835902                0.13478860
               8.05251644                1.98939066                3.97366871                0.43589017                0.22194893                0.24913703               -0.80884241               -0.00911341                0.59579231                0.43415833
               9.05553051                1.98335028                3.95378543                1.00000000                0.36648345                0.34334299               -1.22574827               -0.04193871                0.22096156                0.22952428
              10.05984611                1.97803099                3.93211692                1.00000000                0.43156033                0.48436528               -1.64161754               -0.04432059                0.11541257               -0.19389876
               0.05871419                3.01847289                4.05642754                1.00000000               -0.34648695               -0.35334572                1.37108173               -0.06862730                0.04793409                0.48695251
               1.05524933                3.01230950                4.03136449                1.00000000               -0.25590957               -0.23421829                0.83101409               -0.05694624                0.06194966               -0.02304875
               2.05359600                3.00568196                4.00622562                0.09531473               -0.03347203               -0.11816535                0.29426772               -0.05448210                0.58271761               -0.55103060
               3.05457988                2.99841554                3.99171111                0.00010000                0.11592172                0.06653816               -0.08263014                0.38476620                2.02084057               -0.39996839
               4.05591444                2.99737381                3.99483814                0.00010000                0.11801764                0.13082722               -0.19401669                0.68767813                2.57834908               -0.28401949
               5.05694024                2.99588039                3.99366138                0.00010000                0.08128996                0.09767285               -0.25028706                0.71826152                2.27290620               -0.20552832
               6.05754024                2.99514421                3.99155929                0.00010000                0.04477756                0.05014598               -0.31168062                0.67363587                2.16205881               -0.06815229
               7.05783579                2.99415365                3.98845978                0.00010000                0.01082244               -0.04680119               -0.34811215                0.45917003                2.05600059               -0.00987204
               8.05775669                2.99162426                3.98452013                0.30552951                0.10904820                0.19358587               -0.52083501                0.07255546                1.30370384                0.74349653
               9.06001675                2.98645460                3.96401650                1.00000000                0.30980271                0.29327811               -1.05924611               -0.05836499                0.23351792                0.29924120
              10.06395274                2.98262123                3.93899659                1.00000000                0.39359870                0.41874494               -1.48789952               -0.03767079               -0.01215376               -0.19003240
               0.06362235                4.01525858                4.05263514                1.00000000               -0.30924365               -0.29763615                1.25358180               -0.06218910                0.05686193                0.43526709
               1.06052991                4.01025409                4.02508750                1.00000000               -0.20835532               -0.17974308                0.66182033               -0.04773920                0.07204587               -0.02854972
               2.05945524                4.00476744                3.99748387                0.03644645                0.06572485               -0.06220791                0.07475870                0.05472405                1.18563962               -0.48485142
               3.06184441                4.00067198                3.99244538                0.00010000                0.19914656                0.20908651               -0.25940179                0.33512018                2.50840365               -0.01814466
               4.06343817                3.99859956                3.99267303                0.00010000                0.13473562                0.13452304               -0.26798101                0.49589269                2.74831933               -0.21846487
               5.06453912                3.99699144                3.99337945                0.00010000                0.06459330                0.11028224               -0.26176438                0.55352697                2.72191876               -0.15539189
               6.06473004                3.99574425                3.99367763                0.00010000               -0.03721188                0.06769856               -0.23821811                0.52717375                2.70948583               -0.01018061
               7.06379488                3.99440942                3.99461723                0.00010000               -0.15317154                0.04992233               -0.21245240                0.41665753                2.87178846                0.26448564
               8.06166661                3.99326238                3.99812171                0.30703345               -0.02143217                0.14240609               -0.24358285                0.10563586                1.63037804                0.77202199
               9.06336624                3.98921584                3.97278271                1.00000000                0.25464090                0.25075160               -0.85853586               -0.04552790                0.10813892                0.20484783
              10.06675942                3.98640589                3.94564376                1.00000000                0.33931861                0.33629352               -1.31503073               -0.04086224                0.00177057               -0.21242665
               0.06747938                5.01252017                4.04859445                1.00000000               -0.26937062               -0.25913432                1.14048417               -0.05700909                0.07021772                0.35946713
               1.06478568                5.00871464                4.01889967                0.94483297               -0.16033926               -0.13204705                0.50271128               -0.03984066                0.09133828               -0.05185387
               2.06427260                5.00443780                3.98931444                0.01501454                0.13322468               -0.00686157               -0.12955457                0.11810398                1.54603553               -0.43601833
               3.06745017                5.00259727                3.98897401                0.00010000                0.26201178                0.13186920               -0.24196462                0.29710486                3.09253399               -0.36866376
               4.06951283                5.00006428                3.99046630                0.00010000                0.17079588                0.13113373               -0.31983043                0.29893304                3.16353202               -0.28201849
               5.07086609                4.99808604                3.99317528                0.00010000                0.05764522                0.10674895               -0.26647178                0.39152918                3.18960474               -0.13483733
               6.07066574                4.99649819                3.99643535                0.00010000               -0.11076360                0.07602234               -0.15159061                0.39318770                3.26778392                0.03677729
               7.06865081                4.99515210                4.00134579                0.00693600               -0.28013799                0.06850378               -0.05411281                0.34081744                3.49184614                0.27830889
               8.06506298                4.99447238                4.00880969                0.31915089               -0.13440643                0.10277103               -0.07068490                0.12038531                1.88668081                0.58947927
               9.06596269                4.99146963                3.98075224                1.00000000                0.18462143                0.19103492               -0.63033716               -0.02864628                0.07197830                0.15250779
              10.06875541                4.98934710                3.95157160                1.00000000                0.27927194                0.26003089               -1.12321937               -0.04096657                0.00712220               -0.22280860
               0.07009322                6.01007589                4.04418405                1.00000000               -0.22777542               -0.23288216                1.03179434               -0.06139977                0.07019442                0.28278388
               1.06781546                6.00761315                4.01258834                0.80386445               -0.10792654               -0.08899907                0.34340376               -0.04363071                0.11829260               -0.08088608
               2.06793469                6.00463021                3.98164064                0.01744748                0.21722809                0.03647534               -0.34031297                0.08505402                1.72571803               -0.41512106
               3.07216003                6.00330937                3.98227844                0.00010000                0.29966891                0.02527725               -0.02706076                0.24004310                3.71523852               -0.53547045
               4.07392807                6.00122224                3.98657657                0.00010000                0.18878831                0.10213318               -0.37373464                0.19423315                3.77013609               -0.36960324
               5.07593579                5.99912642                3.99271736                0.00010000                0.07998311                0.10251248               -0.28262413                0.26126269                3.72054197               -0.14105315
               6.07552773                5.99726470                3.99909285                0.00010000               -0.16493804                0.07048332               -0.06478693                0.27500568                3.78671108                0.04122608
               7.07263703                5.99577949                4.00750057                0.01734004               -0.38854732                0.04876467                0.09500191                0.26224342                4.05384162                0.24273611
               8.06775678                5.99531780                4.01865122                0.33665679               -0.23592186                0.05464722                0.11262364                0.09701366                2.11979392                0.51792227
               9.06791859                5.99303654                3.98822832                0.94067071                0.12141816                0.12421948               -0.40430679               -0.02500437                0.03598790                0.13282796
              10.07018515                5.99160651                3.95740766                1.00000000                0.22665507                0.19453466               -0.94092520               -0.03278948                0.02439812               -0.18765426
               0.07117686                7.00786252                4.03954174                1.00000000               -0.18181239               -0.20882068                0.92448718               -0.06903211                0.04989660                0.22849900
               1.06935874                7.00693466                4.00619849                0.72855988               -0.04497000               -0.04550972                0.15879215               -0.06294669                0.12282322               -0.07006752
               2.07027746                7.00516731                3.97396812                0.04298162                0.31501328                0.09061194               -0.61200291               -0.03526432                1.88185625               -0.34427743
               3.07565901                7.00310282                3.97560426                0.00010000                0.36514883               -0.00421876               -0.04771213                0.14818839                4.24321505               -0.57662130
               4.07758044                7.00210694                3.98192305                0.00010000                0.21949361                0.12526015               -0.47809271                0.19716322                4.31924495               -0.38439470
               5.08004888                7.00013629                3.99173932                0.00010000                0.09661688                0.10119946               -0.31121719                0.17264014                4.24666856               -0.13937489
               6.07951278                6.99790785                4.00136990                0.00010000               -0.21031469                0.05977121                0.01578461                0.16490911                4.28139731                0.03377500
               7.07584258                6.99612739                4.01310814                0.02774011               -0.48832887                0.01523697                0.24724053                0.16402594                4.57014384                0.20529362
               8.06974620                6.99556533                4.02775535                0.35807596               -0.33343458               -0.00779285                0.29790148                0.04458397                2.34536882                0.43023835
               9.06917389                6.99395402                3.99552274                0.90039336                0.06067431                0.06347630               -0.19358166               -0.03307108                0.00693688                0.13853479
              10.07095969                6.99323780                3.96327305                1.00000000                0.17857947                0.15087028               -0.79239748               -0.04047462                0.02395010               -0.13049243
               0.07056831                8.00589948                4.03487705                1.00000000               -0.13165584               -0.18917723                0.81816661               -0.07252579                0.05411796                0.19965933
               1.06925175                8.00670296                4.00032841                0.72056892                0.02464685                0.00980941               -0.05668728               -0.07402801                0.15951924               -0.01911411
               2.07106124                8.00644245                3.96748044                0.09926324                0.44662056                0.20546486               -0.97767958               -0.18901192                1.85121073               -0.19127069
               3.07818416                8.00322499                3.96597181                0.00010000                0.48883082                0.22392357               -0.76376431               -0.09421448                4.58407984               -1.08282323
               4.08083786                8.00372744                3.97697603                0.00010000                0.27017612                0.17655053               -0.65043836                0.18018885                4.89075333               -0.28776922
               5.08358768                8.00115041                3.99048748                0.00010000                0.09984720                0.09348348               -0.34185440                0.08350776                4.73585323               -0.11485169
               6.08283480                7.99846012                4.00324224                0.00010000               -0.26638041                0.06765357                0.08818165                0.06982939                4.73403406                0.03048342
               7.07826007                7.99608423                4.01802669                0.03500640               -0.60064846               -0.00651136                0.40853725                0.03557067                5.01619743                0.15560229
               8.07082184                7.99516194                4.03562867                0.38162960               -0.43376840               -0.10217314                0.53378751               -0.04112679                2.57321413                0.26048182
               9.06958471                7.99430607                4.00261246                0.89442776               -0.00068686                0.00653693                0.00339147               -0.04645452                0.02554526                0.13387184
              10.07080810                7.99462391                3.96916853                0.97200637                0.12233919                0.13810441               -0.67995621               -0.04832495                0.01779704               -0.08773589
               0.06811939                9.00407898                4.03020600                1.00000000               -0.07841809               -0.17868120                0.70985423               -0.05956568                0.09232277                0.15193169
               1.06733521                9.00713085                3.99497015                0.76595722                0.09279030                0.08589440               -0.29370744               -0.04626696                0.24631188                0.00710860
               2.06997519                9.00927660                3.96219249                0.17702780                0.45772600                0.37901703               -1.37682407               -0.20963052                1.40184592               -0.07026324
               3.07648973                9.00758129                3.94839814                0.00010000                0.66418026                0.61819914               -1.96262406               -0.29362404                4.67045220               -0.89186263
               4.08325880                9.00563795                3.97316697                0.00010000                0.52483114                0.12999917               -0.79277399                0.00986511                5.76029673               -0.18356874
               5.08698635                9.00200596                3.98926115                0.00010000                0.13583727                0.09103516               -0.36482718                0.02370634                5.12804142               -0.06560156
               6.08597554                8.99926092                4.00476613                0.00010000               -0.35670849                0.07736128                0.15433242                0.01421845                5.13342142                0.03148142
               7.07985218                8.99599716                4.02202486                0.02937740               -0.76368574                0.06781581                0.53932887               -0.07458747                5.35754015                0.07688629
               8.07070183                8.99352187                4.04137041                0.39494136               -0.55346731               -0.26190982                0.93359432               -0.18669450                2.85391479                0.10440947
               9.06878283                8.99408476                4.00940043                0.94250762               -0.06721645               -0.06498023                0.22274687               -0.04934853                0.14175147                0.09438497
              10.06935750                8.99599988                3.97484189                0.95762264                0.05746669                0.13706608               -0.56450510               -0.05113842                0.01227192               -0.07743248
               0.06327326               10.00232585                4.02470627                1.00000000               -0.01444730               -0.17531254                0.53352241                0.12488637                0.19363419                0.12206211
               1.06312879               10.00842085                3.98944251                0.91263835                0.15724671                0.12899995               -0.51691207                0.16420482                0.37567918                0.01451422
               2.06641819               10.01402279                3.95718995                0.61905873                0.64107728                0.47461889               -1.60339310                0.00270630                1.50259029               -0.01179687
               3.07595033               10.01558897                3.94268060                0.35941694                1.00961507                0.80076858               -2.23296683               -0.43870788                4.90748035               -0.28558547
               4.08661049               10.00632742                3.97005722                0.35132752                0.72442520                0.06894739               -0.89199470               -0.29572346                6.11977853               -0.14335349
               5.09043884               10.00297111                3.98860303                0.37266682                0.12587349                0.09651567               -0.36208128                0.02924490                5.45184672               -0.03024458
               6.08912796               10.00000735                4.00585482                0.41960201               -0.39657265                0.07464262                0.21728909                0.03871378                5.43623259                0.03758698
               7.08250738                9.99744055                4.02476261                0.50793621               -1.00638054                0.14433827                0.65357405               -0.23865992                5.72388110                0.07278058
               8.06900035                9.98992375                4.04644283                0.69662441               -0.81938323               -0.35981201                1.22755868               -0.39185184                3.11756916               -0.04051939
               9.06611972                9.99300646                4.01566793                1.00000000               -0.15226388               -0.10782944                0.46232287                0.10576279                0.28381627                0.06734399
              10.06595508                9.99736523                3.98068795                0.98450020               -0.01646422                0.13653488               -0.36530490                0.09563457                0.07895174               -0.08008690
               0.05579859                0.04143641                5.08730935                1.00000000               -0.43081293               -0.49283036                1.68641666               -0.09818716               -0.26302240                0.31310309
               1.05149046                0.02862612                5.06312952                1.00000000               -0.35445326               -0.36446911                1.26370807               -0.07561895               -0.29056701               -0.01417013
               2.04870953                0.01556667                5.03827928                0.92680686               -0.19528583               -0.24740979                0.83960815               -0.05799078               -0.25331936               -0.18039027
               3.04758474                0.00286279                5.01482733                0.53125185                0.22341596               -0.15362670                0.43759494                0.22325991                0.39500364               -0.16619134
               4.05317784               -0.00394062                5.00288307                0.51196671                0.49616321               -0.22237637                0.20861690                0.07878132                1.12724952               -0.01696788
               5.05750801               -0.00663610                4.99246227                0.54391657                0.27107456               -0.03912664               -0.12916914               -0.01775071                1.07837232                0.00446085
               6.05859934               -0.00887557                4.97974879                0.58584855                0.03651227                0.14431622               -0.50628335                0.01228900                0.95619774                0.02957668
               7.05823825               -0.01393797                4.96649930                0.75116565                0.05493618                0.26003593               -0.82389542                0.07513153                0.63761369                0.02670443
               8.05969806               -0.02246246                4.94698636                1.00000000                0.25338128                0.33913833               -1.14855570                0.00103594                0.13117056                0.23842718
               9.06330588               -0.03227635                4.92366075                1.00000000                0.42718894                0.43139485               -1.50133760               -0.05748721               -0.10130828                0.02712153
              10.06824184               -0.04195596                4.89955189                1.00000000                0.49359583                0.54375266               -1.86161870               -0.08269718               -0.14729249               -0.17467467
               0.06762702                1.03650811                5.07997742                1.00000000               -0.39578713               -0.47043646                1.55304442               -0.04430872               -0.00509009                0.43276168
               1.06366914                1.02498143                5.05541765                1.00000000               -0.33078686               -0.34087360                1.12592875               -0.02945373                0.05341312               -0.01535054
               2.06101128                1.01309257                5.03183552                0.58910454               -0.20490779               -0.22052922                0.71852363               -0.01451583                0.25802570               -0.41189657
               3.05957099                1.00132653                5.01140274                0.00010000               -0.11480873               -0.14099843                0.34886501                0.22853202                0.99750195               -0.46815923
               4.05871510                0.99383561                5.00281765                0.00010000                0.01134929               -0.02693304                0.17996946                0.52663466                1.54140368               -0.29711642
               5.05979797                0.99297264                4.99421798                0.02545237                0.18290289               -0.00775282               -0.12402914                0.66760143                1.40646684               -0.18791634
               6.06237316                0.99256759                4.98323530                0.00959839                0.29925216                0.02509112               -0.46961214                0.54279845                1.24470705               -0.03299944
               7.06578302                0.98866239                4.97133499                0.25829875                0.32522250                0.26980551               -0.74445030                0.29876068                1.04973868                0.33428670
               8.06887761                0.98092892                4.95567903                1.00000000                0.33473680                0.31236601               -1.01824285                0.05678684                0.50827105                0.28917833
               9.07247775                0.97203759                4.93215638                1.00000000                0.41084280                0.40717485               -1.36463788               -0.01156446                0.08691127                0.07110462
              10.07709447                0.96348157                4.90797848                1.00000000                0.46167137                0.52386240               -1.72524298               -0.03079083                0.04669049               -0.20728527
               0.07796578                2.03202768                5.07482967                1.00000000               -0.36488584               -0.42306263                1.44281533               -0.05745781                0.04196398                0.55834392
               1.07431693                2.02180864                5.04766232                1.00000000               -0.29458390               -0.29282821                0.98354689               -0.04653780                0.07443188               -0.02855307
               2.07207411                2.01115608                5.02088256                0.25123329               -0.14522928               -0.16757085                0.53607639               -0.04419011                0.50496058               -0.66822063
               3.07141234                2.00004283                5.00237108                0.00010000               -0.00048386               -0.10696693                0.19108176                0.36708455                1.60657462               -0.90466285
               4.07206443                1.99552072                4.99748242                0.00010000                0.03578583                0.16218658               -0.00258856                0.88497177                2.20392891               -0.50443903
               5.07212806                1.99320885                4.99220894                0.00010000                0.08505606                0.06090095               -0.15983608                0.99695527                2.04818952               -0.33215022
               6.07376555                1.99162626                4.98575592                0.00010000                0.18620429               -0.01815080               -0.43217562                0.98861635                2.14476853               -0.07562754
               7.07585214                1.99145814                4.98253636                0.00010000                0.18465210                0.07150533               -0.52824307                0.54966482                1.64145354                0.21589142
               8.07745859                1.98378486                4.96523197                0.42719604                0.23348983                0.25547886               -0.85946593                0.01413374                0.63234758                0.54797211
               9.08052194                1.97586714                4.94152877                1.00000000                0.36397375                0.35694006               -1.22212627               -0.02499831                0.22244867                0.24937648
              10.08473807                1.96852129                4.91595524                1.00000000                0.42161281                0.48076841               -1.59731782               -0.03804284                0.12025944               -0.21995537
               0.08691594                3.02804686                5.06993045                1.00000000               -0.33059497               -0.37347225                1.32935635               -0.06064447                0.04150663                0.55912029
               1.08360999                3.01912486                5.03967265                1.00000000               -0.25113218               -0.24308167                0.82879348               -0.04757410                0.05299642               -0.03931908
               2.08189329                3.00974115                5.00935559                0.10166247               -0.05309716               -0.11433498                0.32918012               -0.07549311                0.63807985               -0.65965622
               3.08254805                2.99918719                4.99091459                0.00010000                0.06776121                0.09013242               -0.05449818                0.39139274                2.24155447               -0.49572015
               4.08324852                2.99707935                4.99325105                0.00010000                0.05417484                0.15137331               -0.13498287                0.79925535                2.97958228               -0.38124307
               5.08363154                2.99419066                4.99115719                0.00010000                0.03238371                0.11716245               -0.23720849                0.83160902                2.66033214               -0.25011865
               6.08389619                2.99220458                4.98845573                0.00010000                0.04930850                0.06388422               -0.32182843                0.78436962                2.52511422               -0.04372135
               7.08461771                2.99009250                4.98434838                0.00010000                0.04275458               -0.05238335               -0.43976068                0.54063623                2.41143499                0.02437697
               8.08475129                2.98603850                4.97893853                0.29584829                0.13118196                0.20871912               -0.60743353                0.13924649                1.36856761                0.88157091
               9.08724135                2.97917639                4.95350460                1.00000000                0.31370130                0.30959845               -1.04603371               -0.02779243                0.19011836                0.33222838
              10.09102531                2.97309694                4.92428181                1.00000000                0.37839594                0.42343892               -1.45374613               -0.03624304               -0.01249993               -0.20509125
               0.09459689                4.02455824                5.06497251                1.00000000               -0.29257390               -0.32980296                1.21513220               -0.05839112                0.04593767                0.52584015
               1.09167115                4.01694701                5.03177544                1.00000000               -0.20474851               -0.19363195                0.66960374               -0.04189835                0.05839955               -0.03755947
               2.09050192                4.00886938                4.99852437                0.03277426                0.01154272               -0.05799367                0.12401713                0.04260464                1.28422937               -0.58839818
               3.09190200                4.00184547                4.99000732                0.00010000                0.12720768                0.24775703               -0.21320376                0.37806509                2.86951811               -0.04139339
               4.09304607                3.99854818                4.99020554                0.00010000                0.08665014                0.15938715               -0.23257942                0.61539760                3.25657801               -0.27423731
               5.09363501                3.99555210                4.99076228                0.00010000                0.02525153                0.13542832               -0.25633839                0.65667545                3.20823667               -0.18177052
               6.09355110                3.99290394                4.99117484                0.00010000               -0.04020278                0.08244114               -0.26453156                0.63990201                3.19072180                0.00255540
               7.09283095                3.99041047                4.99204963                0.00010000               -0.11957383                0.05611160               -0.28970673                0.51892373                3.32445007                0.34713310
               8.09115962                3.98795924                4.99497770                0.29858556                0.00383497                0.16877514               -0.35441670                0.17790656                1.77287910                0.86154453
               9.09290765                3.98205911                4.96420933                1.00000000                0.25062471                0.26102911               -0.85436485               -0.02566447                0.05092102                0.24962283
              10.09617212                3.97699007                4.93264846                1.00000000                0.32644698                0.35496765               -1.28682920               -0.03744557                0.00009908               -0.22650434
               0.10097057                5.02145080                5.05982755                1.00000000               -0.25096950               -0.29634478                1.10457951               -0.05899298                0.06129276                0.47172792
               1.09846088                5.01525222                5.02399336                0.93220247               -0.15618238               -0.14555671                0.51067550               -0.03949273                0.08610454               -0.05339127
               2.09784692                5.00858128                4.98833147                0.00660646                0.09848353               -0.00052961               -0.07555518                0.10848362                1.79925984               -0.53514361
               3.10043055                5.00414233                4.98694624                0.00010000                0.20014629                0.17838526               -0.19806987                0.36109414                3.54110432               -0.29061370
               4.10184985                5.00026709                4.98765261                0.00010000                0.09893741                0.16813691               -0.26953304                0.45945515                3.67966973               -0.27743610
               5.10240930                4.99689922                4.99057618                0.00010000               -0.00069979                0.13759226               -0.25484963                0.49165968                3.77305132               -0.16033908
               6.10183585                4.99385340                4.99467227                0.00010000               -0.12342042                0.09947655               -0.19509323                0.48157915                3.86057309                0.05577165
               7.09994089                4.99121473                5.00021896                0.00261210               -0.25875379                0.08085515               -0.14536166                0.43551882                4.03082613                0.35304034
               8.09666078                4.98941400                5.00776841                0.31134224               -0.11218285                0.11578621               -0.13487439                0.16530894                2.10059673                0.66752663
               9.09769723                4.98439698                4.97434106                1.00000000                0.18768514                0.20173917               -0.64527576               -0.02406232                0.03555524                0.20256283
              10.10041448                4.98019629                4.94040547                1.00000000                0.27172509                0.29111652               -1.11133376               -0.03832352                0.00281561               -0.24872648
               0.10581418                6.01863134                5.05435576                1.00000000               -0.20633671               -0.26627211                0.99503782               -0.06339527                0.06611144                0.41442332
               1.10375081                6.01403588                5.01599819                0.79018505               -0.10163485               -0.09728531                0.33935435               -0.04622112                0.12551288               -0.08848675
               2.10378148                6.00885879                4.97847553                0.00746895                0.18436319                0.05220982               -0.29708543                0.08224861                2.11741052               -0.54061591
               3.10743808                6.00541318                4.98013837                0.00010000                0.28483999                0.13283635               -0.25912721                0.28299038                4.11001203               -0.47973468
               4.10947828                6.00191092                4.98398391                0.00010000                0.12219055                0.16761150               -0.27380286                0.33340000                4.29557125               -0.35816991
               5.10988189                5.99830394                4.99008750                0.00010000               -0.03055525                0.14430037               -0.24852844                0.33349425                4.38464302               -0.16924429
               6.10886718                5.99489347                4.99807463                0.00010000               -0.19505793                0.10155109               -0.12174066                0.33330555                4.50253761                0.05821762
               7.10598073                5.99202758                5.00783838                0.01218544               -0.37918108                0.06764893                0.00032700                0.32278688                4.67989875                0.31712323
               8.10128355                5.99027496                5.01963064                0.32847010               -0.21683089                0.05382830                0.08008469                0.11949299                2.41689093                0.59035085
               9.10164411                5.98609390                4.98396490                0.94355198                0.12617318                0.13939350               -0.43558830               -0.02508261                0.03931507                0.17469834
              10.10380702                5.98281240                4.94793214                1.00000000                0.21629084                0.23329486               -0.94458236               -0.03473779                0.01344698               -0.24333913
               0.10889360                7.01612536                5.04862273                1.00000000               -0.15845932               -0.23137471                0.87981726               -0.06688072                0.04729125                0.37728349
               1.10730901                7.01330652                5.00767474                0.71276553               -0.03895028               -0.04738012                0.14436046               -0.05912496                0.13046066               -0.09791258
               2.10811459                7.00962548                4.96801900                0.03240416                0.28646092                0.11658210               -0.57302974                0.02039414                2.37091463               -0.53464056
               3.11303823                7.00679906                4.97212534                0.00010000                0.37562477                0.20763857               -0.41735491                0.12117600                4.61097110               -0.71721569
               4.11562709                7.00361932                4.97881014                0.00010000                0.15292037                0.19043563               -0.33280553                0.16385699                4.89199250               -0.43517427
               5.11609663                6.99978523                4.98899089                0.00010000               -0.04243804                0.14745429               -0.25267218                0.18077373                5.02303774               -0.17074472
               6.11477833                6.99588442                5.00107477                0.00010000               -0.25407500                0.09551055               -0.04927295                0.18479395                5.12819061                0.05005469
               7.11101513                6.99256771                5.01494734                0.02017183               -0.48970042                0.03601738                0.15054863                0.18508178                5.29947861                0.27957658
               8.10498432                6.99049057                5.03086664                0.34818631               -0.31784959               -0.02050500                0.30536731                0.04840815                2.72959349                0.51434714
               9.10465814                6.98718485                4.99333836                0.90003918                0.06491965                0.08056476               -0.23001104               -0.03169682                0.04652230                0.16250341
              10.10628271                6.98486219                4.95525571                1.00000000                0.16245730                0.18501536               -0.79471204               -0.03695532                0.00903269               -0.22788296
               0.11011424                8.01400385                5.04281520                1.00000000               -0.10460514               -0.19636150                0.75650948               -0.06653806                0.04507884                0.36147619
               1.10906819                8.01308827                4.99955184                0.70038573                0.02912901                0.01280567               -0.07822022               -0.05984956                0.14453525               -0.07429047
               2.11069682                8.01119043                4.95788355                0.08411169                0.33997799                0.22652644               -0.92069275               -0.01652352                2.30133725               -0.45481384
               3.11586775                8.00956595                4.95811724                0.00010000                0.45362127                0.34803413               -0.67818627               -0.23688550                4.94470713               -1.33773616
               4.11976925                8.00571963                4.97211647                0.00010000                0.26822524                0.18903622               -0.48243642               -0.08806422                5.66971209               -0.44086200
               5.12123226                8.00125303                4.98755321                0.00010000                0.00056638                0.12857172               -0.27197092                0.04558755                5.66878232               -0.13895344
               6.11978058                7.99680368                5.00363181                0.00010000               -0.30780177                0.10283731                0.01955548                0.06032069                5.71709041                0.04281049
               7.11507622                7.99274792                5.02145349                0.02412063               -0.60729991                0.01635062                0.30699554                0.01365954                5.88640424                0.21793035
               8.10763458                7.98986486                5.04132426                0.36914372               -0.42188355               -0.12737832                0.57190447               -0.05323978                3.04774904                0.41510229
               9.10663855                7.98770519                5.00245872                0.89689417                0.00393249                0.01906155               -0.02700048               -0.03523238                0.07215834                0.15770888
              10.10771323                7.98651271                4.96246128                0.96966497                0.10746780                0.15538519               -0.65684629               -0.04285166                0.00697578               -0.22242657
               0.10939399                9.01219813                5.03695802                1.00000000               -0.04685574               -0.17007152                0.62763249               -0.05485095                0.06593364                0.29292448
               1.10892543                9.01356263                4.99166610                0.74026397                0.09562293                0.08923887               -0.32319122               -0.03066577                0.19658732               -0.05631179
               2.11130645                9.01415601                4.94857742                0.14323452                0.24229414                0.35282520               -1.28626306               -0.04756414                1.74462034               -0.29697816
               3.11377131                9.01375974                4.93473811                0.00010000                0.54361415                0.33840312               -0.99304498               -0.42636395                5.19996120               -1.08880105
               4.12217873                9.00740004                4.96583604                0.00010000                0.60765113                0.09243382               -0.67220500               -0.23854089                6.85674036               -0.32371797
               5.12592434                9.00235666                4.98624248                0.00010000                0.11555569                0.09827884               -0.29116615               -0.00676445                6.24057245               -0.07277350
               6.12448984                8.99794117                5.00576844                0.00010000               -0.38485976                0.11131575                0.08090409               -0.00172853                6.23254752                0.03103489
               7.11822714                8.99289472                5.02691687                0.02052491               -0.77637925                0.09028680                0.45808618               -0.12542231                6.43667754                0.11646998
               8.10896226                8.98794300                5.05091972                0.38423442               -0.54607469               -0.24040179                0.90835319               -0.21781441                3.40373306                0.26413402
               9.10730565                8.98756608                5.01149748                0.94537149               -0.05758076               -0.05418820                0.19215783               -0.02213230                0.12472002                0.13941065
              10.10781064                8.98796989                4.96947049                0.95653242                0.05049964                0.13637303               -0.51507228               -0.04491939               -0.00945119               -0.18941557
               0.10628822               10.01060242                5.02968966                1.00000000                0.02087803               -0.15957067                0.45051712                0.11648616                0.24228628                0.24058896
               1.10649700               10.01487305                4.98385974                0.89897624                0.16301068                0.13104225               -0.54628840                0.13938257                0.44061345               -0.05478827
               2.10954843               10.01824694                4.94160572                0.59198545                0.37997182                0.40909328               -1.48061149               -0.10275356                1.98256819               -0.22772270
               3.11409643               10.01633401                4.92711453                0.35660902                0.84265382                0.25742740               -1.20418772               -0.50141933                5.49327749               -0.61085768
               4.12640151               10.00756831                4.96175473                0.35154021                0.82297039                0.01682672               -0.74806427               -0.23349282                7.32289436               -0.26203893
               5.13055584               10.00321860                4.98562817                0.37388081                0.14032209                0.08619395               -0.29472168                0.03623478                6.66816981               -0.03636294
               6.12920795                9.99903000                5.00742562                0.42041460               -0.39949481                0.10888266                0.13463408                0.03856339                6.63869568                0.03665681
               7.12256595                9.99455366                5.03093637                0.50723004               -1.03005086                0.16589404                0.58100906               -0.26477806                6.91997273                0.07222701
               8.10860693                9.98505683                5.05850473                0.69485070               -0.81984674               -0.28861721                1.13214230               -0.43214443                3.80698124                0.21098364
               9.10616901                9.98662143                5.02010622                1.00000000               -0.12998603               -0.09446520                0.41509963                0.09550338                0.32127404                0.13096761
              10.10600721                9.98924017                4.97721800                0.98455492               -0.01617993                0.12702761               -0.32880159                0.08153099                0.09927366               -0.16073159
               0.07927447                0.05278169                6.10398565                1.00000000               -0.42432925               -0.48162901                1.64820124               -0.09159606               -0.30201094                0.35597213
               1.07503118                0.03689136                6.07575649                1.00000000               -0.35077976               -0.36214677                1.25825302               -0.06835315               -0.33274821               -0.01328103
               2.07225888                0.02071339                6.04677835                0.93993944               -0.19356374               -0.25168162                0.85454562               -0.05309646               -0.28415098               -0.19636721
               3.07115991                0.00493900                6.01948455                0.54709627                0.26012966               -0.17055842                0.48218481                0.26676274                0.45114156               -0.19751079
               4.07746147               -0.00394862                6.00515301                0.54779262                0.52108225               -0.22752586                0.23406473                0.05984309                1.17729333               -0.02056160
               5.08158155               -0.00839474                5.99124067                0.58861876                0.26520000               -0.03705408               -0.11762615               -0.01809757                1.04244374                0.00268972
               6.08276547               -0.01227504                5.97472288                0.61929210                0.05084693                0.13083517               -0.49549382                0.00605676                0.91885416                0.02332061
               7.08259849               -0.01889115                5.95824800                0.77282882                0.06304093                0.25182035               -0.82505127                0.07208931                0.62062048                0.02780610
               8.08402629               -0.02925413                5.93542745                1.00000000                0.25061227                0.34336099               -1.15788832                0.01284961                0.10227058                0.26445115
               9.08761074               -0.04115722                5.90867191                1.00000000                0.42304199                0.42990259               -1.49529398               -0.05261797               -0.13783554                0.03000087
              10.09248713               -0.05295428                5.88111978                1.00000000                0.48763945                0.53391495               -1.82993090               -0.07940006               -0.18307588               -0.20576253
               0.09424885                1.04796540                6.09527750                1.00000000               -0.38670449               -0.46211784                1.50880184               -0.04117014               -0.01023916                0.49002796
               1.09038180                1.03326989                6.06663066                1.00000000               -0.32723778               -0.33894824                1.11560502               -0.02431814                0.05528504               -0.01304411
               2.08770409                1.01819657                6.03912538                0.61431209               -0.21116327               -0.22335567                0.73547264               -0.01269920                0.28256894               -0.45288184
               3.08615854                1.00323342                6.01506114                0.00010000               -0.14886574               -0.16014467                0.37659794                0.28961060                1.13456484               -0.51817741
               4.08472678                0.99377612                6.00482129                0.03511585               -0.02973741               -0.02952730                0.20701870                0.59650041                1.68309305               -0.34784960
               5.08556379                0.99123472                5.99306378                0.07814112                0.16737339               -0.00747420               -0.11116532                0.71551075                1.43908541               -0.18233339
               6.08807424                0.98903331                5.97856369                0.04806297                0.31225688                0.01417006               -0.46104662                0.58626968                1.27978514               -0.06083050
               7.09180893                0.98362705                5.96384717                0.27928817                0.36067881                0.27705135               -0.74817032                0.34961198                1.10924243                0.39662139
               8.09528782                0.97417948                5.94538834                1.00000000                0.35628547                0.31723673               -1.03194302                0.08297246                0.53905296                0.32356959
               9.09893463                0.96314181                5.91854313                1.00000000                0.41011881                0.40734038               -1.35649723               -0.00745759                0.08478264                0.07425786
              10.10349020                0.95238487                5.89092049                1.00000000                0.45555612                0.51414163               -1.69121518               -0.03013334                0.04075135               -0.24240109
               0.10784209                2.04353933                6.08902648                1.00000000               -0.35284446               -0.42264763                1.39835548               -0.05213983                0.04028295                0.63120587
               1.10431365                2.03011239                6.05744762                1.00000000               -0.29003641               -0.29299436                0.97348594               -0.03953713                0.07761464               -0.02984518
               2.10204136                2.01624627                6.02639811                0.26653013               -0.14705413               -0.16747737                0.56432032               -0.04823539                0.55826962               -0.75098563
               3.10137256                2.00173611                6.00448213                0.00010000               -0.03255908               -0.11842585                0.22472615                0.42857691                1.77530357               -1.00650414
               4.10139018                1.99546084                5.99787281                0.00010000               -0.03689924                0.16248563                0.10534236                1.01281859                2.46463616               -0.62139135
               5.10063458                1.99145577                5.99109143                0.00010000                0.03541735                0.05449829               -0.00710078                1.09629713                2.17838572               -0.34796318
               6.10209853                1.98800836                5.98095321                0.00010000                0.19049880               -0.00912204               -0.56109937                1.09855937                2.29672803               -0.08244804
               7.10444456                1.98664988                5.97700625                0.00010000                0.20362272                0.07504329               -0.56097667                0.64275071                1.81124308                0.26602568
               8.10617098                1.97709061                5.95647939                0.41816987                0.24058229                0.26652294               -0.88063369                0.05118548                0.66632636                0.62364826
               9.10925620                1.96698959                5.92934291                1.00000000                0.36136826                0.36383969               -1.21304296               -0.01104287                0.23479640                0.26890128
              10.11339835                1.95732855                5.90017056                1.00000000                0.41421471                0.47206626               -1.56367808               -0.03319727                0.12686034               -0.25507583
               0.12005993                3.03951245                6.08301467                1.00000000               -0.31758134               -0.38305252                1.28834143               -0.05558620                0.03662265                0.63798796
               1.11688412                3.02741000                6.04794036                1.00000000               -0.24721336               -0.24650946                0.82352321               -0.04165115                0.04561590               -0.04450767
               2.11511566                3.01484702                6.01280922                0.10704052               -0.06843037               -0.11113366                0.35873335               -0.08392607                0.68550394               -0.75619718
               3.11551551                3.00086490                5.99062115                0.00010000                0.00739098                0.10381750               -0.00313520                0.41799211                2.50004163               -0.60888569
               4.11526348                2.99702584                5.99213848                0.00010000               -0.02866517                0.16262117               -0.08501907                0.89421868                3.33834349               -0.47989738
               5.11494221                2.99232468                5.98891721                0.00010000               -0.02060778                0.12406310               -0.21618354                0.94625028                2.99669446               -0.32391480
               6.11485133                2.98885087                5.98512272                0.00010000                0.03197418                0.07852312               -0.32711393                0.89809107                2.84217539                0.00340845
               7.11558169                2.98512792                5.97966457                0.00010000                0.05602435               -0.05841881               -0.48850689                0.63477685                2.65981790                0.04470409
               8.11597182                2.97950994                5.97237146                0.28678041                0.14470732                0.22863904               -0.67714598                0.20420949                1.48536954                1.01650643
               9.11847584                2.97041860                5.94309582                1.00000000                0.30882590                0.31911268               -1.03493749               -0.01130258                0.19190889                0.36902282
              10.12214833                2.96182619                5.90992167                1.00000000                0.36724962                0.42117979               -1.42208149               -0.03500123               -0.01280093               -0.22732848
               0.13093526                4.03587828                6.07693778                1.00000000               -0.27892101               -0.34704823                1.17738198               -0.05392278                0.03923920                0.61616848
               1.12814605                4.02518220                6.03847957                1.00000000               -0.20136583               -0.19929720                0.66870819               -0.03674759                0.04874329               -0.04069162
               2.12690794                4.01402360                5.99996421                0.03240977               -0.02962276               -0.05316316                0.15972925                0.04097492                1.37635418               -0.68109323
               3.12755359                4.00381246                5.98818131                0.00010000                0.04534170                0.28945242               -0.17736443                0.40626326                3.22488811               -0.04960611
               4.12781478                3.99871326                5.98802144                0.00010000                0.00904798                0.18556761               -0.20605521                0.71686890                3.73201241               -0.31597452
               5.12773455                3.99393703                5.98825268                0.00010000               -0.02788305                0.16146734               -0.24609534                0.76154063                3.67106626               -0.20684971
               6.12725711                3.98957882                5.98838699                0.00010000               -0.06267664                0.09314795               -0.28696053                0.74637790                3.63334431                0.01041314
               7.12648102                3.98548150                5.98882310                0.00010000               -0.11463125                0.06481209               -0.34135555                0.63370378                3.71907271                0.39948716
               8.12496449                3.98166339                5.99103337                0.29057395                0.01164412                0.18300211               -0.41114645                0.24356702                1.93114543                0.99612291
               9.12671390                3.97337184                5.95569541                1.00000000                0.24593287                0.26733585               -0.84757792               -0.01751753                0.02997609                0.29466512
              10.12988315                3.96575214                5.91990718                1.00000000                0.31692451                0.36313519               -1.26296077               -0.03524118               -0.00095555               -0.24216794
               0.14037363                5.03257148                6.07068604                1.00000000               -0.23697865               -0.31545515                1.06545493               -0.05497638                0.05952253                0.57612974
               1.13800385                5.02342406                6.02911318                0.91724323               -0.15343650               -0.15100846                0.51141976               -0.03639121                0.08534457               -0.05871856
               2.13730490                5.01378376                5.98780333                0.00256677                0.04736334                0.00533857               -0.03323426                0.12323378                2.01657828               -0.64070119
               3.13895112                5.00665395                5.98501261                0.00010000                0.10856906                0.23615590               -0.18553742                0.41258647                3.98414810               -0.26631745
               4.13947629                5.00073719                5.98507564                0.00010000                0.01781711                0.20940242               -0.25317766                0.54878297                4.17959116               -0.28171543
               5.13930746                4.99555403                5.98807829                0.00010000               -0.06209322                0.16948945               -0.24957701                0.58900075                4.32210183               -0.16608215
               6.13823442                4.99071383                5.99253348                0.00010000               -0.15681294                0.12238646               -0.22417682                0.57203098                4.40984932                0.07304602
               7.13617120                4.98642416                5.99843856                0.00010000               -0.26408050                0.09560392               -0.19763751                0.53270695                4.54098506                0.40991097
               8.13295281                4.98316998                6.00611220                0.30336842               -0.10672338                0.11815971               -0.18159871                0.21723754                2.32369839                0.77537613
               9.13403673                4.97576532                5.96784673                1.00000000                0.18650482                0.20806825               -0.64948978               -0.01957991                0.01809792                0.25206822
              10.13668291                4.96908889                5.92934493                1.00000000                0.26461768                0.30686648               -1.09807202               -0.03581973               -0.00031762               -0.27412980
               0.14813058                6.02956918                6.06408481                1.00000000               -0.19246334               -0.28113639                0.94920380               -0.05846254                0.06695676                0.52927822
               1.14620595                6.02216203                6.01937543                0.77500046               -0.09939280               -0.10006499                0.33664117               -0.04354824                0.13122276               -0.10766966
               2.14614272                6.01413037                5.97569893                0.00168862                0.13229734                0.06413622               -0.25785981                0.11568993                2.42719296               -0.68735876
               3.14885189                6.00853558                5.97709589                0.00010000                0.18738164                0.20628414               -0.30194419                0.34535507                4.70119553               -0.54978314
               4.14989036                6.00290131                5.98110051                0.00010000                0.03430173                0.22668508               -0.28959811                0.39348476                4.85759183               -0.38380711
               5.14953793                5.99732682                5.98774679                0.00010000               -0.10313767                0.18508279               -0.23693266                0.40313962                5.01690398               -0.17826006
               6.14782760                5.99202655                5.99665803                0.00010000               -0.24294628                0.13189718               -0.15199474                0.39762385                5.15503034                0.07827885
               7.14467900                5.98739358                6.00750711                0.00538491               -0.39297608                0.08398257               -0.05223251                0.39345602                5.30691017                0.37592823
               8.13996808                5.98402658                6.02025291                0.32017703               -0.21378041                0.04943304                0.04771387                0.15669346                2.71243063                0.70044945
               9.14040339                5.97753321                5.97951656                0.94515993                0.12757602                0.14724734               -0.44913854               -0.02292888                0.03153438                0.21930034
              10.14251960                5.97188947                5.93851601                1.00000000                0.21162079                0.25310514               -0.93563540               -0.03323728                0.01360827               -0.29001432
               0.15401868                7.02694875                6.05713809                1.00000000               -0.14469845               -0.23877327                0.82334349               -0.05929885                0.04723909                0.49637819
               1.15257169                7.02142276                6.00908570                0.69722919               -0.03867586               -0.04681224                0.14083062               -0.05070548                0.13334171               -0.13693828
               2.15324516                7.01506648                5.96250753                0.02439224                0.22577940                0.13286879               -0.52663041                0.08683738                2.76011894               -0.74179628
               3.15708728                7.01077963                5.96725717                0.00010000                0.26547878                0.26609583               -0.46616265                0.20989442                5.36565354               -0.84217006
               4.15855473                7.00527089                5.97526694                0.00010000                0.05788637                0.24915007               -0.34906921                0.16909125                5.58035311               -0.53307013
               5.15824501                6.99925568                5.98668588                0.00010000               -0.12172946                0.18964636               -0.23051729                0.19954738                5.76885115               -0.20499973
               6.15612015                6.99335177                6.00038444                0.00010000               -0.31023601                0.12980560               -0.07862495                0.21484270                5.89966757                0.06618568
               7.15204029                6.98810381                6.01611911                0.01258170               -0.50865474                0.05398670                0.09770802                0.22117872                6.05452034                0.34237093
               8.14594705                6.98415865                6.03386270                0.33982048               -0.31625118               -0.03078390                0.28616389                0.07049807                3.10146842                0.64626439
               9.14571526                6.97871027                5.99092252                0.89940936                0.06792909                0.08839604               -0.24926510               -0.02600919                0.04669499                0.19858840
              10.14730563                6.97415100                5.94737881                1.00000000                0.15903689                0.20355652               -0.78056244               -0.03478230                0.01286298               -0.30060968
               0.15799660                8.02479371                6.05000724                1.00000000               -0.09224893               -0.19428744                0.68667975               -0.05663121                0.04032333                0.48132058
               1.15707411                8.02122579                5.99876400                0.68124020                0.02629996                0.01369772               -0.07479627               -0.04650534                0.12864345               -0.13351252
               2.15852260                8.01678775                5.94906659                0.06717589                0.28856342                0.22741904               -0.84138094                0.05910687                2.83992326               -0.70292744
               3.16284538                8.01385749                5.95240809                0.00010000                0.31367674                0.30141709               -0.50581973               -0.13801888                5.96641430               -1.52977626
               4.16479613                8.00788431                5.96732730                0.00010000                0.13013092                0.21272219               -0.42499566               -0.12016214                6.51310992               -0.59101800
               5.16544799                8.00111975                5.98504806                0.00010000               -0.07598999                0.16099206               -0.24228213                0.01793696                6.57583474               -0.19470054
               6.16327633                7.99462266                6.00363335                0.00010000               -0.35761453                0.13680208               -0.00955255                0.05927635                6.62596570                0.05293375
               7.15829570                7.98847331                6.02416660                0.01662042               -0.62523709                0.03699381                0.25052434                0.00912026                6.79333053                0.28356887
               8.15077159                7.98341091                6.04706676                0.36108187               -0.42024223               -0.12672849                0.54767997               -0.04616758                3.49715910                0.58282674
               9.14989086                7.97930113                6.00207245                0.89829296                0.00854525                0.02575993               -0.04907003               -0.02195491                0.06300700                0.19158427
              10.15094249                7.97596060                5.95603160                0.96976332                0.10516353                0.16519273               -0.63201086               -0.03821175                0.00841441               -0.30671223
               0.16002190                9.02306300                6.04275865                1.00000000               -0.03743509               -0.15596803                0.54388481               -0.04751785                0.05294899                0.39437297
               1.15964755                9.02169671                5.98850632                0.71326041                0.08868438                0.08560058               -0.30543527               -0.02486254                0.17210906               -0.11780228
               2.16179559                9.01961486                5.93646723                0.10648089                0.17913937                0.33119986               -1.15813421               -0.02982804                2.46660076               -0.48924952
               3.16323034                9.01680797                5.92853724                0.00010000                0.35468219                0.23807465               -0.35482488               -0.36340168                6.60284841               -1.37557933
               4.16888923                9.00952533                5.95972287                0.00010000                0.43175268                0.06824737               -0.51656246               -0.22869191                7.87884107               -0.42317644
               5.17186539                9.00247553                5.98343783                0.00010000                0.05314388                0.11763661               -0.26088426               -0.03770843                7.31050216               -0.11434017
               6.16995211                8.99608781                6.00638421                0.00010000               -0.42154716                0.14017367                0.05070248               -0.01572452                7.28132077                0.03473522
               7.16343445                8.98884369                6.03118658                0.01634980               -0.78781153                0.11863862                0.39924365               -0.14658611                7.50585453                0.16778462
               8.15419588                8.98162408                6.05953748                0.37708829               -0.53539918               -0.22187559                0.81467850               -0.22098448                3.94069634                0.41346666
               9.15272647                8.97922546                6.01324359                0.94652231               -0.04867169               -0.04464056                0.15826417               -0.01140738                0.10626399                0.17601788
              10.15322245                8.97745485                5.96454044                0.95747860                0.04959815                0.13474894               -0.47967656               -0.03833603               -0.01416113               -0.25818078
               0.15977883               10.02167435                6.03371662                1.00000000                0.02461706               -0.13886524                0.36978961                0.10203705                0.28484934                0.32291352
               1.16002500               10.02293780                5.97851675                0.88453769                0.15179725                0.12410880               -0.51873253                0.12461407                0.50175423               -0.11123645
               2.16281477               10.02341174                5.92757772                0.56747742                0.28209378                0.37968792               -1.35072992               -0.11402253                2.78853044               -0.33286728
               3.16566687               10.01861899                5.91859685                0.35544336                0.58699849                0.18110120               -0.53581739               -0.46447101                7.10565314               -0.81256570
               4.17455474               10.00924926                5.95509594                0.35179559                0.62322365               -0.02760769               -0.55530895               -0.19077446                8.51709978               -0.25687848
               5.17813135               10.00347248                5.98270860                0.37457159                0.10194686                0.09969579               -0.27185745                0.03543925                7.84440473               -0.04631203
               6.17659368                9.99742614                6.00854750                0.42077205               -0.41518134                0.13383230                0.09788202                0.03283669                7.79359183                0.03831783
               7.16982772                9.99084608                6.03638280                0.50748992               -1.03117780                0.20023968                0.50871096               -0.28331022                8.10552578                0.11261544
               8.15597012                9.97897339                6.06908568                0.69323410               -0.79978920               -0.26506820                1.00258630               -0.44446421                4.45807084                0.29308028
               9.15383193                9.97840832                6.02396992                1.00000000               -0.11265618               -0.08171464                0.36138755                0.09465634                0.35623216                0.16574484
              10.15371700                9.97865558                5.97411191                0.98551523               -0.01149360                0.12007311               -0.30180555                0.07418160                0.12412790               -0.21021561
               0.10621670                0.06597216                7.12027337                1.00000000               -0.41739047               -0.47043198                1.61029354               -0.08607823               -0.34453479                0.40004786
               1.10204279                0.04661216                7.08829458                1.00000000               -0.34591264               -0.35827538                1.24694027               -0.06292852               -0.38469053               -0.01041993
               2.09929845                0.02694526                7.05537019                0.95562052               -0.19049394               -0.25300828                0.85962285               -0.04926493               -0.32706682               -0.20338611
               3.09823292                0.00775940                7.02447103                0.56288144                0.28345691               -0.17940027                0.50779229                0.30166202                0.47710290               -0.23256394
               4.10496758               -0.00368841                7.00756436                0.57992994                0.52770505               -0.21527546                0.24182006                0.04127778                1.18169210               -0.01768011
               5.10878702               -0.01022851                6.99010975                0.62779005                0.25007542               -0.02962693               -0.11036290               -0.01509103                0.98298221                0.00336947
               6.10996909               -0.01609077                6.96983891                0.64797067                0.05795419                0.12114262               -0.48205927                0.00405416                0.86168119                0.01525526
               7.10994610               -0.02458019                6.94999828                0.79051812                0.06752338                0.24167556               -0.82293854                0.06948951                0.57830568                0.02932199
               8.11131956               -0.03709522                6.92382859                1.00000000                0.24553669                0.34435920               -1.15780405                0.02238650                0.05987688                0.28209779
               9.11485683               -0.05141877                6.89375487                1.00000000                0.41825104                0.42705244               -1.48656591               -0.05042853               -0.17738236                0.03009670
              10.11968458               -0.06567263                6.86295327                1.00000000                0.48277474                0.52553959               -1.80646289               -0.07836779               -0.21873985               -0.23899237
               0.12471592                1.06126784                7.11015345                1.00000000               -0.37889594               -0.45287648                1.46877228               -0.03822097               -0.01813224                0.54920438
               1.12092696                1.04302941                7.07772975                1.00000000               -0.32418708               -0.33550652                1.10327582               -0.01989338                0.05104653               -0.00769727
               2.11823218                1.02441518                7.04654498                0.64256871               -0.21802920               -0.22463660                0.74463451               -0.00787297                0.29021191               -0.48134348
               3.11656638                1.00596540                7.01893470                0.00010000               -0.19289279               -0.17033374                0.39467970                0.34772235                1.23860037               -0.56565779
               4.11437432                0.99415883                7.00695803                0.07523790               -0.08645443               -0.02679425                0.21397196                0.66450427                1.78854295               -0.33931971
               5.11483729                0.98947522                6.99199468                0.12613987                0.14055758                0.03123315               -0.10496561                0.73950834                1.44843530               -0.07901256
               6.11718547                0.98512065                6.97401437                0.08313685                0.31529671               -0.02454810               -0.44897201                0.60887704                1.29637038               -0.17533601
               7.12114322                0.97783657                6.95637158                0.29868545                0.38886215                0.27707251               -0.74476126                0.39162226                1.14626320                0.44865778
               8.12496272                0.96634837                6.93504017                1.00000000                0.37490156                0.31849636               -1.03274368                0.10720468                0.55811384                0.35047201
               9.12864125                0.95285176                6.90502644                1.00000000                0.40960243                0.40556206               -1.34577714               -0.00478715                0.08343952                0.07533875
              10.13315476                0.93958277                6.87415417                1.00000000                0.45135124                0.50456157               -1.66558307               -0.03012992                0.03662528               -0.28048522
               0.14192915                2.05691463                7.10279677                1.00000000               -0.34315616               -0.41862674                1.35815019               -0.04720648                0.03763895                0.70817952
               1.13849759                2.03990203                7.06713204                1.00000000               -0.28620778               -0.29133246                0.96295046               -0.03306557                0.08144039               -0.02536523
               2.13620500                2.02245253                7.03216896                0.28268781               -0.15269383               -0.16820392                0.58611533               -0.04294464                0.59798043               -0.82314489
               3.13544371                2.00435273                7.00686561                0.00010000               -0.07285708               -0.13275525                0.24932173                0.49882055                1.97198262               -1.09848126
               4.13474785                1.99577570                6.99958927                0.00010000               -0.14141749                0.15869665                0.30791354                1.16942133                2.73505341               -0.69593058
               5.13261536                1.99039615                6.99206692                0.00010000               -0.04812844                0.05379422                0.14270727                1.16932356                2.03935026               -0.35192681
               6.13378528                1.98341826                6.97453394                0.00010000                0.19677336               -0.01408424               -0.63092424                1.16859937                2.23265056               -0.07995854
               7.13655083                1.98096126                6.97131683                0.00010000                0.23315903                0.06665820               -0.57757637                0.76392771                2.03490143                0.29763254
               8.13844847                1.96927470                6.94761929                0.41037762                0.24879315                0.27331370               -0.88518260                0.08979571                0.69748336                0.67911714
               9.14152669                1.95669247                6.91726791                1.00000000                0.35857479                0.36762960               -1.20105750                0.00159829                0.25168115                0.28742984
              10.14561996                1.94441860                6.88468168                1.00000000                0.40932681                0.46154954               -1.53745280               -0.02924495                0.13566783               -0.29329200
               0.15779699                3.05289531                7.09569728                1.00000000               -0.30692443               -0.38522000                1.24969179               -0.05080776                0.03259575                0.71982060
               1.15472775                3.03720276                7.05614312                1.00000000               -0.24372030               -0.24708360                0.81634632               -0.03611051                0.03933591               -0.04419210
               2.15292259                3.02105110                7.01653026                0.11471881               -0.07540660               -0.10995615                0.38278098               -0.08850969                0.73025468               -0.84609035
               3.15321962                3.00331030                6.99085189                0.00010000               -0.06016305                0.10545798                0.04249506                0.45902430                2.73568328               -0.73162737
               4.15171933                2.99733277                6.99155067                0.00010000               -0.13192112                0.17579163               -0.04230825                1.00539468                3.65061161               -0.61146121
               5.15058119                2.99055110                6.98683352                0.00010000               -0.08634891                0.09289394               -0.18432417                1.07908075                3.28598244               -0.47259192
               6.14999235                2.98483897                6.98191345                0.00010000               -0.00079294                0.11415869               -0.32477145                1.02404569                3.10229249                0.10569287
               7.15056534                2.97916973                6.97457824                0.00010000                0.05175351               -0.06675195               -0.51627836                0.74954350                2.85963149                0.04753431
               8.15102742                2.97181464                6.96539561                0.27752220                0.14819916                0.24331237               -0.71082428                0.27481875                1.60496119                1.13189464
               9.15352932                2.96020435                6.93280586                1.00000000                0.30450937                0.32545186               -1.02282213                0.00528946                0.21316238                0.40530963
              10.15711761                2.94881376                6.89584018                1.00000000                0.35882869                0.41524254               -1.39704309               -0.03358323               -0.01320266               -0.25293964
               0.17229810                4.04921023                7.08852015                1.00000000               -0.26785104               -0.35344701                1.13951185               -0.04950030                0.03423293                0.70353369
               1.16961959                4.03496036                7.04514960                1.00000000               -0.19854150               -0.20103821                0.66433747               -0.03170491                0.04127887               -0.04174826
               2.16832727                4.02025341                7.00171895                0.03581888               -0.06385238               -0.05092828                0.18870179                0.04289996                1.44215212               -0.76548159
               3.16834254                4.00646189                6.98646003                0.00010000               -0.03561620                0.32955493               -0.18214565                0.43298529                3.53726518               -0.08236966
               4.16761494                3.99929153                6.98608444                0.00010000               -0.08258811                0.21104702               -0.18302467                0.82244079                4.18549347               -0.36499778
               5.16669078                3.99225403                6.98584037                0.00010000               -0.09836858                0.17661845               -0.23477053                0.86111001                4.09514090               -0.23124751
               6.16564757                3.98570144                6.98543563                0.00010000               -0.10623748                0.11021571               -0.29713059                0.85262054                4.03144156                0.00003651
               7.16456603                3.97962622                6.98522252                0.00010000               -0.13686734                0.07796040               -0.37004189                0.75280242                4.08633819                0.45079316
               8.16291022                3.97414095                6.98675478                0.28236817                0.00336709                0.19436703               -0.43819938                0.31372244                2.09700449                1.12809270
               9.16463337                3.96320151                6.94725777                1.00000000                0.24096271                0.27064239               -0.83921569               -0.00601759                0.02376143                0.33673247
              10.16772948                3.95272345                6.90738925                1.00000000                0.30961099                0.36455502               -1.24194188               -0.03309935               -0.00145437               -0.26110413
               0.18530674                5.04582637                7.08113665                1.00000000               -0.22562604               -0.32226870                1.02486727               -0.05073844                0.05990649                0.66852592
               1.18305048                5.03318200                7.03422175                0.90272437               -0.15138387               -0.15251967                0.50920766               -0.03261364                0.08816396               -0.06758046
               2.18227906                5.02003254                6.98766679                0.00319403               -0.01046385                0.00770053                0.00371484                0.14985042                2.20578338               -0.74175960
               3.18284120                5.00990139                6.98323550                0.00010000                0.00484719                0.28555381               -0.16927663                0.46195156                4.39061994               -0.26140626
               4.18237600                5.00155371                6.98258906                0.00010000               -0.07238540                0.23759736               -0.24288956                0.62731772                4.66130255               -0.29730932
               5.18139349                4.99408347                6.98558464                0.00010000               -0.13517185                0.19385574               -0.24665510                0.67306239                4.83824933               -0.17616595
               6.17967257                4.98704328                6.99018873                0.00010000               -0.21058095                0.14533279               -0.23900624                0.66026806                4.91904728                0.08665714
               7.17718187                4.98072894                6.99626621                0.00010000               -0.29729927                0.11196840               -0.22714811                0.63083644                5.02728527                0.46397822
               8.17372658                4.97570198                7.00413643                0.29550375               -0.11777032                0.11962527               -0.20740525                0.27503779                2.54832319                0.88653638
               9.17482647                4.96561720                6.96135127                1.00000000                0.18425764                0.21013000               -0.64748845               -0.01093987                0.01007271                0.29711021
              10.17741173                4.95610486                6.91844402                1.00000000                0.25852673                0.31273875               -1.08114916               -0.03369422               -0.00164858               -0.29725378
               0.19657207                6.04276486                7.07333983                1.00000000               -0.18109307               -0.28479410                0.90270881               -0.05366836                0.06722949                0.62287773
               1.19476114                6.03190997                7.02273102                0.76112195               -0.09835995               -0.10014112                0.33424295               -0.04007582                0.13718889               -0.13333214
               2.19460488                6.02040742                6.97331834                0.00051044                0.06496289                0.06946778               -0.21844269                0.15647226                2.69793682               -0.82929100
               3.19606040                6.01217296                6.97409948                0.00010000                0.06871722                0.23710340               -0.28305936                0.41933724                5.24431630               -0.63395598
               4.19597922                6.00404348                6.97819195                0.00010000               -0.06989775                0.25887107               -0.28166149                0.46938064                5.44565770               -0.41759754
               5.19466245                5.99613114                6.98534885                0.00010000               -0.18858780                0.21502477               -0.23725599                0.47636404                5.62333035               -0.18972980
               6.19220746                5.98860809                6.99503474                0.00010000               -0.30691963                0.15947709               -0.16721138                0.47001653                5.76868649                0.09640352
               7.18852405                5.98186559                7.00679373                0.00010000               -0.43423709                0.10133484               -0.08168885                0.46853848                5.90832489                0.43443642
               8.18352272                5.97653346                7.02058491                0.31223412               -0.22561791                0.04500097                0.02140359                0.20111106                2.99912112                0.81442292
               9.18401170                5.96740411                6.97498213                0.94748275                0.12787735                0.14917619               -0.45338391               -0.01528841                0.02584043                0.26139850
              10.18608027                5.95897823                6.92921943                1.00000000                0.20685733                0.26147760               -0.92028643               -0.03180544                0.01262949               -0.32446286
               0.20594316                7.04013049                7.06508960                1.00000000               -0.13367567               -0.23775816                0.76947874               -0.05337612                0.04493956                0.58708213
               1.20460640                7.03117917                7.01049135                0.68334305               -0.03988249               -0.04562838                0.14140199               -0.04440119                0.13427039               -0.17945393
               2.20514551                7.02142189                6.95748639                0.01986353                0.14927417                0.13823824               -0.47570386                0.13553106                3.11725400               -0.92856264
               3.20759188                7.01464346                6.96280209                0.00010000                0.13299653                0.27586951               -0.41737355                0.30920761                6.07499960               -0.90502344
               4.20780544                7.00673113                6.97182876                0.00010000               -0.06178619                0.26999331               -0.32526731                0.25763789                6.30571845               -0.58680245
               5.20635616                6.99838397                6.98438055                0.00010000               -0.22334939                0.22379632               -0.22288693                0.26410794                6.48834734               -0.23390395
               6.20333845                6.99023282                6.99950227                0.00010000               -0.38644397                0.16272433               -0.09194293                0.26727767                6.62735902                0.07989172
               7.19862728                6.98275564                7.01690150                0.00691823               -0.55640837                0.07431228                0.06684935                0.26772707                6.77834373                0.40471724
               8.19221028                6.97660200                7.03658992                0.33199794               -0.32756769               -0.03434184                0.25583788                0.09971360                3.45138746                0.77089919
               9.19207593                6.96860072                6.98835306                0.89953443                0.07085529                0.09058496               -0.26029091               -0.01727177                0.04010341                0.23554222
              10.19362739                6.96133441                6.93964447                1.00000000                0.15514617                0.21193018               -0.76348474               -0.03248334                0.01235151               -0.34899668
               0.21340718                8.03800970                7.05654879                1.00000000               -0.08254669               -0.18771393                0.62642468               -0.05050657                0.03446095                0.56906295
               1.21258171                8.03099740                6.99805592                0.66446104                0.02220135                0.01373339               -0.06563639               -0.03924381                0.11736547               -0.19116460
               2.21385121                8.02317219                6.94105593                0.05398373                0.21768035                0.22189931               -0.76325019                0.10774993                3.37241764               -0.91886189
               3.21693532                8.01769035                6.94800084                0.00010000                0.17701332                0.27079637               -0.41975205                0.06259605                6.87154778               -1.37117072
               4.21739147                8.00944335                6.96361656                0.00010000               -0.02462059                0.22183783               -0.33246707               -0.00168800                7.32957939               -0.66486405
               5.21644291                8.00060707                6.98270757                0.00010000               -0.21050629                0.20126786               -0.21461687                0.07680544                7.41685967               -0.23462212
               6.21318135                7.99186258                7.00344076                0.00010000               -0.44667459                0.17444499               -0.02083546                0.08869123                7.48356675                0.06071535
               7.20750942                7.98335184                7.02646398                0.01199553               -0.67547191                0.06392917                0.21511798                0.02738644                7.65003976                0.34587410
               8.19967191                7.97584662                7.05227786                0.35349779               -0.42877819               -0.12042937                0.49497158               -0.03135651                3.91213513                0.71753338
               9.19893385                7.96921581                7.00147732                0.89848960                0.01456558                0.02941239               -0.06799202               -0.01388775                0.05122895                0.22693181
              10.19996322                7.96321683                6.94982106                0.97155309                0.10293685                0.16957770               -0.61191254               -0.03458188                0.00691995               -0.36252174
               0.21895762                9.03637621                7.04783572                1.00000000               -0.02985856               -0.14324682                0.47888024               -0.04334873                0.04059054                0.46848151
               1.21865904                9.03145384                6.98555740                0.69192909                0.08249643                0.08150399               -0.28364467               -0.02135330                0.15358698               -0.17490877
               2.22060755                9.02585988                6.92541474                0.08065913                0.19568032                0.30982103               -1.05489582               -0.00033605                3.35948510               -0.65358986
               3.22257264                9.02005939                6.92764161                0.00010000                0.21237064                0.11365611               -0.06936815               -0.14680172                7.77255736               -1.22944665
               4.22485496                9.01116788                6.95550479                0.00010000                0.14501965                0.11206298               -0.34823897               -0.12048924                8.64172676               -0.47207980
               5.22547303                9.00240932                6.98102480                0.00010000               -0.12437273                0.15718774               -0.21127732                0.00516528                8.28711002               -0.14310584
               6.22236751                8.99372172                7.00678249                0.00010000               -0.51410324                0.18036019                0.03940002               -0.00754333                8.26897142                0.03873109
               7.21519097                8.98403422                7.03490174                0.01486106               -0.83241646                0.15308499                0.35093857               -0.14497231                8.50664210                0.21302828
               8.20571918                8.97419341                7.06721329                0.37161007               -0.53815053               -0.20122972                0.72976658               -0.21679692                4.43140205                0.51304697
               9.20442796                8.96918897                7.01466276                0.94602847               -0.03927369               -0.03660779                0.12718278               -0.00669422                0.09262144                0.20878459
              10.20493370                8.96472596                6.95987696                0.95891568                0.05057457                0.13380437               -0.45866942               -0.03417217               -0.01762393               -0.30480656
               0.22238494               10.03514476                7.03708546                1.00000000                0.02860351               -0.12314482                0.31090157                0.09100387                0.30789681                0.38124947
               1.22267098               10.03262748                6.97348509                0.87390273                0.14269982                0.11736379               -0.48606552                0.11238637                0.54613404               -0.16101620
               2.22523894               10.02936861                6.91459112                0.55170195                0.30101529                0.35087259               -1.24376432               -0.17006127                3.79481079               -0.44185865
               3.22869128               10.01996348                6.91639818                0.35526316                0.36964089               -0.00959127               -0.11959117               -0.27233586                8.44959111               -0.83361025
               4.23263176               10.01168461                6.95064855                0.35212722                0.26505458                0.05167236               -0.37039108               -0.03295331                9.41346458               -0.22542379
               5.23399237               10.00375082                6.98019102                0.37503869               -0.06130848                0.13415010               -0.21791474                0.04119281                8.91393094               -0.05029485
               6.23140559                9.99546978                7.00938326                0.42116521               -0.49270474                0.17480609                0.08172574                0.03694338                8.88436059                0.04940514
               7.22413828                9.98641354                7.04111059                0.50842565               -1.06121815                0.23793166                0.44802121               -0.28765703                9.22147484                0.14495112
               8.21018122                9.97182202                7.07855646                0.69268535               -0.79354295               -0.23713900                0.90224541               -0.45028967                5.04365001                0.35826774
               9.20826742                9.96848365                7.02733397                1.00000000               -0.09877191               -0.07053141                0.31486232                0.08749079                0.38305713                0.19364552
              10.20820578                9.96589292                6.97118189                0.98646409               -0.00616354                0.11669551               -0.28994464                0.06813459                0.14215471               -0.24465242
               0.13634135                0.08102248                8.13619152                1.00000000               -0.41008042               -0.45963997                1.57490037               -0.08175862               -0.38788279                0.44303564
               1.13224055                0.05781263                8.10069529                1.00000000               -0.34001271               -0.35341415                1.23178620               -0.05925332               -0.44200548               -0.00595272
               2.12954110                0.03429610                8.06397081                0.97094628               -0.18663759               -0.25251656                0.85811878               -0.04638406               -0.37875166               -0.20358439
               3.12850780                0.01136039                8.02964039                0.57728383                0.29577479               -0.18347056                0.52195968                0.33168778                0.47803312               -0.26886096
               4.13545659               -0.00308955                8.00998942                0.60718830                0.52294247               -0.19456336                0.24120684                0.02522633                1.16213460               -0.00960796
               5.13896665               -0.01209721                7.98903342                0.66035261                0.23269872               -0.02055025               -0.10571833               -0.01061500                0.91769596                0.00615806
               6.14011057               -0.02032085                7.96508170                0.67133405                0.06041390                0.11524200               -0.47021455                0.00371191                0.79612007                0.00705440
               7.14017492               -0.03105132                7.94178923                0.80405289                0.06783347                0.23329805               -0.81752422                0.06762326                0.52396046                0.02925435
               8.14146724               -0.04603532                7.91227136                1.00000000                0.23817444                0.34335479               -1.15116291                0.03044498                0.01291815                0.29565040
               9.14493841               -0.06309843                7.87894059                1.00000000                0.41241460                0.42339685               -1.47488873               -0.04992951               -0.21602934                0.02893625
              10.14971553               -0.08013593                7.84499052                1.00000000                0.47771171                0.51826836               -1.78723795               -0.07857994               -0.25234662               -0.27174760
               0.15873361                1.07642608                8.12465294                1.00000000               -0.37224075               -0.44316954                1.43353104               -0.03560915               -0.02727539                0.60725264
               1.15501121                1.05427849                8.08869617                1.00000000               -0.32151180               -0.33104591                1.08941774               -0.01627159                0.04279807               -0.00037595
               2.15230338                1.03177093                8.05401807                0.67059580               -0.22468560               -0.22490014                0.74698148               -0.00132525                0.28640548               -0.49974829
               3.15051750                1.00952568                8.02295473                0.01762344               -0.24328619               -0.17555474                0.40640379                0.40390009                1.31623491               -0.61142566
               4.14743765                0.99496482                8.00910073                0.11118077               -0.15206733                0.00195615                0.21235472                0.68024738                1.87184479               -0.19685459
               5.14747615                0.98769729                7.99096447                0.16803451                0.10935448                0.08378006               -0.10184744                0.66885117                1.45312694                0.06751926
               6.14962474                0.98083157                7.96958425                0.11357944                0.31161212               -0.05845186               -0.43779202                0.54877187                1.30784040               -0.28511541
               7.15370839                0.97128166                7.94895195                0.31567616                0.40852475                0.27235933               -0.73829752                0.42244813                1.17389159                0.48887253
               8.15779524                0.95739823                7.92473346                1.00000000                0.38905161                0.31764185               -1.02595906                0.12781068                0.57269955                0.37320958
               9.16148942                0.94113554                7.89162758                1.00000000                0.40859990                0.40285992               -1.33324973               -0.00312271                0.08340657                0.07542236
              10.16596724                0.92504675                7.85760883                1.00000000                0.44778144                0.49563180               -1.64533680               -0.03044770                0.03416913               -0.31903049
               0.17992435                2.07215909                8.11618948                1.00000000               -0.33540834               -0.41203024                1.32278953               -0.04240942                0.03480404                0.78419976
               1.17657027                2.05119171                8.07670663                1.00000000               -0.28284751               -0.28849485                0.95164318               -0.02671713                0.08652162               -0.01800208
               2.17426740                2.02979809                8.03812041                0.29983930               -0.15891793               -0.16978527                0.60052554               -0.03169044                0.62742456               -0.88573483
               3.17339191                2.00784930                8.00946856                0.00010000               -0.16887329               -0.14438772                0.26800121                0.59213745                2.27344365               -1.18142262
               4.17088993                1.99694958                8.00403108                0.00010000               -0.34574935                0.16683124                0.55887923                1.32927639                2.92398927               -0.72674639
               5.16647692                1.98957839                7.99394557                0.00010000               -0.16941485                0.07010536                0.13578063                1.21917325                1.75556992               -0.40525882
               6.16750164                1.97851011                7.96833473                0.00010000                0.27901533               -0.03842686               -0.55144112                1.21725888                2.11326129               -0.02222057
               7.17205723                1.97439586                7.96545472                0.00010000                0.33339652                0.04456249               -0.59460328                0.86955884                2.24048702                0.31998128
               8.17416957                1.96031751                7.93877574                0.40712271                0.25851033                0.28070630               -0.88015976                0.13055478                0.73477947                0.71774394
               9.17722743                1.94495877                7.90532176                1.00000000                0.35572964                0.36996948               -1.18783365                0.01321376                0.27138138                0.30492548
              10.18128416                1.92977670                7.86942151                1.00000000                0.40567260                0.45065431               -1.51673846               -0.02578728                0.14571428               -0.33229623
               0.19982018                3.06818548                8.10800850                1.00000000               -0.29823173               -0.38247531                1.21446284               -0.04585443                0.02952409                0.79921117
               1.19683786                3.04850859                8.06426729                1.00000000               -0.24040946               -0.24615561                0.80810375               -0.03038453                0.03432625               -0.04154736
               2.19501199                3.02837523                8.02046484                0.12459913               -0.08145504               -0.11103280                0.40160684               -0.08487569                0.77036430               -0.93014099
               3.19520876                3.00663793                7.99147105                0.00010000               -0.13589534                0.09660804                0.07589630                0.52338607                2.94026564               -0.86830565
               4.19229408                2.99830145                7.99129232                0.00010000               -0.24548405                0.17126702               -0.01159559                1.18579211                3.95168295               -0.84718891
               5.19029908                2.98909940                7.98523073                0.00010000               -0.15708156                0.04912820               -0.13270941                1.27854207                3.52745306               -0.66766230
               6.18915245                2.98006303                7.97862729                0.00010000               -0.05034582                0.13970794               -0.33348537                1.20378327                3.30954423                0.20959616
               7.18929216                2.97217291                7.96933900                0.00010000                0.03454883               -0.07932344               -0.52512299                0.88903662                3.03927059                0.05726139
               8.18984343                2.96301235                7.95815497                0.26980001                0.15011741                0.25834512               -0.72650395                0.35308920                1.73018931                1.23616725
               9.19229451                2.94853493                7.92263938                1.00000000                0.29861019                0.33011557               -1.01051773                0.01873550                0.25025506                0.43951628
              10.19581563                2.93405984                7.88198080                1.00000000                0.35211204                0.40747571               -1.37683724               -0.03216186               -0.01298754               -0.27967322
               0.21836103                4.06450959                8.09972802                1.00000000               -0.25881997               -0.35315794                1.10349002               -0.04502873                0.03052176                0.78381927
               1.21577283                4.04626860                8.05176632                1.00000000               -0.19602384               -0.20087822                0.65855671               -0.02665076                0.03540417               -0.04238155
               2.21444055                4.02757744                8.00373825                0.04236070               -0.09197089               -0.05130228                0.21288477                0.04538457                1.47018451               -0.84148377
               3.21393341                4.00978146                7.98453839                0.00010000               -0.11481215                0.35742218               -0.20407557                0.47149802                3.81847973               -0.12671458
               4.21214431                4.00037492                7.98436095                0.00010000               -0.18236165                0.21910243               -0.16153882                0.94193039                4.62630093               -0.42084635
               5.21028618                3.99056096                7.98355727                0.00010000               -0.18202579                0.17114161               -0.22011368                0.95515220                4.48465608               -0.27179322
               6.20850379                3.98130427                7.98244438                0.00010000               -0.16987691                0.13924167               -0.29755279                0.95148933                4.39206693               -0.00760962
               7.20688864                3.97280940                7.98142226                0.00010000               -0.18172316                0.09798048               -0.38462637                0.88285939                4.42835653                0.50247531
               8.20486933                3.96548442                7.98226938                0.27487970               -0.01669891                0.20291106               -0.45475123                0.38712398                2.26682874                1.26543245
               9.20655466                3.95156108                7.93891110                1.00000000                0.23608933                0.27241191               -0.82984127                0.00389396                0.02804068                0.37530719
              10.20959112                3.93792622                7.89506834                1.00000000                0.30364545                0.36268988               -1.22337096               -0.03104748               -0.00156390               -0.27992881
               0.23540157                5.06112232                8.09118338                1.00000000               -0.21645756               -0.32179016                0.98590769               -0.04653991                0.06187790                0.74742919
               1.23323699                5.04449103                8.03929734                0.88839377               -0.14973707               -0.15214078                0.50554351               -0.02873731                0.09346362               -0.07865440
               2.23240683                5.02734918                7.98787763                0.00723325               -0.06978760                0.00737557                0.03618336                0.17938925                2.37004167               -0.83431451
               3.23184124                5.01378637                7.98162708                0.00010000               -0.10268200                0.32542057               -0.15617629                0.51327573                4.75839065               -0.23538430
               4.23035319                5.00268349                7.98021785                0.00010000               -0.16842349                0.24673693               -0.22999058                0.70728473                5.11494400               -0.31509874
               5.22847277                4.99252223                7.98314518                0.00010000               -0.22096936                0.20876824               -0.23805774                0.75199677                5.32219246               -0.18692284
               6.22593380                4.98284786                7.98775336                0.00010000               -0.28517841                0.16684060               -0.24301949                0.74314741                5.39399690                0.09999842
               7.22276920                4.97413252                7.99389560                0.00010000               -0.35497899                0.13188102               -0.24143572                0.73146967                5.48960663                0.51941319
               8.21883422                4.96707057                8.00196410                0.28839488               -0.14193057                0.11885696               -0.22306974                0.33717140                2.77116511                0.99778220
               9.21993059                4.95398317                7.95489696                1.00000000                0.18150979                0.20991512               -0.64256147               -0.00129574                0.00821615                0.33909913
              10.22246442                4.94131363                7.90772194                1.00000000                0.25338245                0.31367799               -1.06425428               -0.03163028               -0.00186652               -0.31547957
               0.25069281                6.05807378                8.08213898                1.00000000               -0.17215866               -0.28204409                0.85925199               -0.04917953                0.06748100                0.69739239
               1.24897122                6.04322579                8.02606029                0.74822548               -0.09799071               -0.09911266                0.33174414               -0.03627555                0.14288169               -0.16156195
               2.24873299                6.02772495                7.97133008                0.00247312               -0.00533046                0.07042308               -0.18097399                0.19683794                2.94451344               -0.95912241
               3.24886461                6.01628987                7.97143471                0.00010000               -0.05894237                0.24957161               -0.24937355                0.49941822                5.74898110               -0.69450912
               4.24755415                6.00530966                7.97546728                0.00010000               -0.18514344                0.27133666               -0.26020129                0.55919540                5.99567963               -0.43517230
               5.24516174                5.99473632                7.98300167                0.00010000               -0.28988464                0.23483287               -0.22794287                0.55985482                6.19716628               -0.19177302
               6.24175645                5.98464108                7.99331381                0.00010000               -0.39332096                0.18478617               -0.17148452                0.54616331                6.34506346                0.11802149
               7.23729532                5.97544702                8.00587333                0.00010000               -0.49971735                0.11976944               -0.09712835                0.54853930                6.48131170                0.49314328
               8.23176211                5.96786156                8.02068098                0.30517329               -0.25048186                0.04065538                0.00001237                0.25006946                3.27711577                0.92420467
               9.23228569                5.95575939                7.97044888                0.95052285                0.12677388                0.14713749               -0.45099588               -0.00647954                0.02267746                0.30120423
              10.23429758                5.94419978                7.92011029                1.00000000                0.20118971                0.26279003               -0.89831031               -0.03068947                0.01256746               -0.34739156
               0.26411397                7.05548144                8.07252766                1.00000000               -0.12536533               -0.23224627                0.72143662               -0.04832798                0.04274577                0.65568418
               1.26286032                7.04250878                8.01191374                0.67090975               -0.04172310               -0.04446673                0.14364925               -0.03903664                0.13472775               -0.22149100
               2.26327951                7.02875764                7.95299345                0.01807318                0.06922921                0.13786034               -0.42479604                0.17810297                3.45012397               -1.09132607
               3.26424490                7.01877781                7.95890970                0.00010000               -0.00944333                0.26523416               -0.36578862                0.41018359                6.73795258               -0.93001951
               4.26309064                7.00811023                7.96876160                0.00010000               -0.19532283                0.28006726               -0.28923470                0.37839650                6.97520788               -0.59255980
               5.26033844                6.99721889                7.98222814                0.00010000               -0.34721329                0.25233679               -0.20479467                0.36163036                7.16148081               -0.23657950
               6.25614637                6.98654359                7.99854558                0.00010000               -0.49094640                0.19578339               -0.09376160                0.33719100                7.30674566                0.10116003
               7.25051951                6.97652791                8.01745610                0.00282438               -0.63115663                0.09717691                0.04869617                0.32520808                7.46328309                0.46458851
               8.24352324                6.96788368                8.03897946                0.32497883               -0.35283663               -0.03616794                0.22357009                0.13184289                3.78412869                0.88371772
               9.24346278                6.95692592                7.98571670                0.90042341                0.07233026                0.08853396               -0.26340866               -0.01138470                0.03371386                0.27037054
              10.24496985                6.94656943                7.93210912                1.00000000                0.15070646                0.21389504               -0.74137839               -0.03085746                0.01259714               -0.38215896
               0.27567157                8.05342886                8.06253573                1.00000000               -0.07572848               -0.17927318                0.57548881               -0.04542089                0.03013058                0.63382435
               1.27491428                8.04233645                7.99745128                0.65044216                0.01772279                0.01302923               -0.05467525               -0.03333728                0.10772919               -0.24445961
               2.27602602                8.03048216                7.93380158                0.04505176                0.14007074                0.21251145               -0.69082577                0.14398329                3.85767147               -1.10050831
               3.27771570                8.02159455                7.94401304                0.00010000                0.03274848                0.25219488               -0.39036177                0.23876925                7.72350092               -1.16615755
               4.27668099                8.01091100                7.96067796                0.00010000               -0.18773541                0.24707594               -0.27689826                0.17192268                8.06352317               -0.63996293
               5.27396099                7.99978306                7.98075572                0.00010000               -0.37448700                0.24555338               -0.17840533                0.18185970                8.17328183               -0.23885273
               6.26919125                7.98855675                8.00321664                0.00010000               -0.57507990                0.21881738               -0.01855038                0.14578603                8.27167642                0.07721382
               7.26245939                7.97739055                8.02846896                0.00913034               -0.75951511                0.09648683                0.19097450                0.05992116                8.45278974                0.40032443
               8.25400095                7.96713820                8.05696619                0.34700297               -0.45435762               -0.11386318                0.44678980               -0.01604147                4.30086605                0.82833939
               9.25337224                7.95753006                8.00071261                0.89825489                0.01962274                0.03092899               -0.08324036               -0.01040377                0.03978731                0.25947760
              10.25439341                7.94847768                7.94379335                0.97438259                0.10211666                0.17142301               -0.59592053               -0.03165271                0.00579132               -0.40252093
               0.28539036                9.05189597                8.05233626                1.00000000               -0.02500888               -0.13144939                0.42663448               -0.03936511                0.03103307                0.52317649
               1.28514027                9.04276936                7.98283343                0.67542366                0.07553576                0.07628157               -0.26046317               -0.01801880                0.13693725               -0.22594239
               2.28690107                9.03300787                7.91536931                0.06292060                0.17255847                0.28698239               -0.95734601                0.04121081                4.18310478               -0.79091879
               3.28859144                9.02382170                7.92714987                0.00010000                0.07197554                0.14195494               -0.13814024                0.04647215                8.75981068               -0.96205725
               4.28834058                9.01305175                7.95275809                0.00010000               -0.11307754                0.17711250               -0.25100732                0.03292259                9.25883708               -0.43768379
               5.28632989                9.00212996                7.97921228                0.00010000               -0.34429929                0.21755424               -0.15823673                0.07912289                9.12446978               -0.14955617
               6.28145460                8.99091993                8.00717221                0.00010000               -0.65966993                0.23279787                0.04423127                0.02488785                9.16564516                0.04884035
               7.27313649                8.97845764                8.03820535                0.01461573               -0.91958483                0.19684279                0.31737601               -0.13444492                9.43148508                0.24782505
               8.26306290                8.96560642                8.07413281                0.36779940               -0.56106310               -0.18428936                0.66076595               -0.21471804                4.88498133                0.58989289
               9.26191523                8.95754450                8.01578724                0.94465280               -0.03106666               -0.02956340                0.09944449               -0.00565565                0.08070099                0.23721793
              10.26244157                8.94999789                7.95536706                0.96045534                0.05263411                0.13374997               -0.44686556               -0.03111756               -0.02064837               -0.33851852
               0.29313749               10.05079987                8.03993465                1.00000000                0.03045203               -0.10961046                0.26404189                0.08093458                0.32484854                0.42548113
               1.29344201               10.04386208                7.96879544                0.86595532                0.13302045                0.10927224               -0.45153429                0.10127074                0.57835717               -0.20503558
               2.29579790               10.03622180                7.90270243                0.54110446                0.25796281                0.32139332               -1.13688294               -0.08173929                4.78999202               -0.53106061
               3.29860127               10.02443365                7.91620503                0.35563708                0.16166473                0.06119462               -0.10529875               -0.08744497                9.52879739               -0.56070744
               4.29903119               10.01445325                7.94768811                0.35248157               -0.04630038                0.14015055               -0.27102770                0.05408558               10.08182009               -0.19932803
               5.29767526               10.00413414                7.97835030                0.37536588               -0.28349355                0.20041888               -0.15905175                0.07250976                9.83436998               -0.04209484
               6.29336132                9.99321271                8.01018201                0.42152758               -0.62956237                0.22927720                0.08502561                0.05033564                9.87386424                0.06190015
               7.28508401                9.98132741                8.04534322                0.50952942               -1.13707937                0.28697671                0.40819636               -0.29326271               10.25155780                0.17248830
               8.27061973                9.96345241                8.08713059                0.69271081               -0.81081806               -0.21540067                0.82024393               -0.46374747                5.57700710                0.40150142
               9.26886765                9.95693880                8.03026717                1.00000000               -0.08777343               -0.06057026                0.27421350                0.08025547                0.40453531                0.21684542
              10.26886427                9.95115268                7.96831302                0.98711796               -0.00033839                0.11547822               -0.28735334                0.06365762                0.15586434               -0.27030730
               0.16945150                0.09791004                9.15177138                1.00000000               -0.40281052               -0.44950955                1.54292028               -0.07862280               -0.43023581                0.48362559
               1.16542340                0.07049135                9.11293031                1.00000000               -0.33365940               -0.34808016                1.21478186               -0.05710983               -0.50109852               -0.00024251
               2.16277831                0.04277905                9.07253257                0.98464066               -0.18242112               -0.25084365                0.85275502               -0.04455060               -0.43462233               -0.19970272
               3.16177497                0.01575351                9.03491022                0.58955569                0.30194702               -0.18447920                0.52897455                0.35923100                0.46219282               -0.30503644
               4.16881725               -0.00210321                9.01238850                0.62939800                0.51368408               -0.17167117                0.23855280                0.01237420                1.13059142                0.00168031
               5.17204866               -0.01396745                8.98799538                0.68682127                0.21592136               -0.01190980               -0.10175880               -0.00581401                0.85276577                0.01042052
               6.17313568               -0.02495479                8.96043462                0.69023903                0.05934932                0.11201061               -0.45914118                0.00425796                0.72687695               -0.00036915
               7.17323564               -0.03832054                8.93364779                0.81437431                0.06454398                0.22690574               -0.80919217                0.06603883                0.46447532                0.02906414
               8.17442656               -0.05610641                8.90080534                1.00000000                0.22907237                0.34146010               -1.14034602                0.03677621               -0.03410374                0.30747888
               9.17781709               -0.07621403                8.86425709                1.00000000                0.40556141                0.41930656               -1.46060309               -0.05019653               -0.25286736                0.02706949
              10.18253779               -0.09634420                8.82720851                1.00000000                0.47206997                0.51153695               -1.76908211               -0.07923056               -0.28384696               -0.30354996
               0.19608396                1.09341494                9.13882407                1.00000000               -0.36661657               -0.43334813                1.40295101               -0.03346745               -0.03668674                0.66219310
               1.19241779                1.06701055                9.09951810                1.00000000               -0.31911137               -0.32602409                1.07481620               -0.01353157                0.03204242                0.00803290
               2.18970173                1.04027062                9.06148461                0.69664344               -0.23046879               -0.22439916                0.74414741                0.00557062                0.27563188               -0.51038066
               3.18780841                1.01390872                9.02706277                0.03813684               -0.29501245               -0.17727789                0.41257658                0.45682067                1.37481430               -0.65429374
               4.18380148                0.99618008                9.01120512                0.14257606               -0.21960527                0.05761987                0.20825349                0.59690515                1.94226469                0.06115595
               5.18341631                0.98591345                8.98995773                0.20410901                0.07766612                0.09960827               -0.09939185                0.56798423                1.45907046                0.16160623
               6.18535480                0.97616531                8.96525853                0.13981670                0.30277658               -0.05571967               -0.42757124                0.47203748                1.31788167               -0.33173260
               7.18947184                0.96394852                8.94160563                0.33076104                0.41931337                0.26471852               -0.73001927                0.44133984                1.19809146                0.51646895
               8.19374107                0.94730819                8.91452099                1.00000000                0.39810881                0.31572446               -1.01528622                0.14404892                0.58693336                0.39424426
               9.19743402                0.92797904                8.87836145                1.00000000                0.40672925                0.39966065               -1.31942519               -0.00227771                0.08461341                0.07506656
              10.20187565                0.90877117                8.84124744                1.00000000                0.44416378                0.48724506               -1.62755701               -0.03093882                0.03309311               -0.35719986
               0.22159093                2.08924307                9.12925257                1.00000000               -0.32938391               -0.40369734                1.29202859               -0.03792310                0.03238732                0.85598985
               1.21829709                2.06397087                9.08616490                1.00000000               -0.27996855               -0.28492138                0.93989431               -0.02059307                0.09282343               -0.00947778
               2.21599156                2.03829107                9.04417947                0.31741333               -0.16475835               -0.17200833                0.60830812               -0.01692664                0.64947717               -0.93939403
               3.21500192                2.01220795                9.01222563                0.00010000               -0.36204642               -0.15171847                0.28080032                0.70735802                2.66496956               -1.25601896
               4.20875063                1.99904919                9.01076686                0.00010000               -0.57894070                0.19395186                0.66222092                1.45042930                3.04535330               -0.78371474
               5.20342311                1.98802471                8.99478254                0.00010000               -0.21046361                0.08363530                0.04114830                1.26302988                1.52881066               -0.46048150
               6.20454136                1.97393081                8.96350511                0.00010000                0.37482274               -0.06220370               -0.44808208                1.28346431                2.13468261                0.03386848
               7.21091956                1.96697383                8.95942476                0.00010000                0.43678330                0.01994490               -0.60830167                0.93142466                2.37898877                0.33964755
               8.21327702                1.95020808                8.93001610                0.40853982                0.26944937                0.28680760               -0.87046138                0.16975524                0.78297268                0.74869108
               9.21630855                1.93177919                8.89351124                1.00000000                0.35288615                0.37131472               -1.17428331                0.02335991                0.29253606                0.32152736
              10.22033475                1.91340070                8.85434691                1.00000000                0.40261952                0.44011449               -1.49935983               -0.02288056                0.15661154               -0.37102664
               0.24586990                3.08534099                9.11998654                1.00000000               -0.29119633               -0.37656684                1.18313647               -0.04083678                0.02753172                0.87271067
               1.24295793                3.06131212                9.07230519                1.00000000               -0.23718917               -0.24440939                0.79927311               -0.02450964                0.03080453               -0.03832095
               2.24112611                3.03683045                9.02456239                0.13605370               -0.08802395               -0.11400603                0.41561990               -0.07352239                0.80524839               -1.00783553
               3.24119745                3.01087435                8.99236981                0.00010000               -0.20664022                0.07818062                0.09993658                0.61580902                3.12702360               -1.02458352
               4.23699331                3.00005912                8.99131876                0.00010000               -0.37010854                0.14499425                0.01821179                1.45416273                4.25831235               -1.19507784
               5.23379528                2.98758615                8.98417933                0.00010000               -0.24591720                0.04394991               -0.09879165                1.48697363                3.73375035               -0.83219010
               6.23207496                2.97492124                8.97524374                0.00010000               -0.09861066                0.12461826               -0.33453635                1.39219136                3.47591511                0.27387124
               7.23182307                2.96434742                8.96407578                0.00010000                0.01279294               -0.09273536               -0.52363317                1.02558463                3.22413195                0.08639091
               8.23233082                2.95304434                8.95086553                0.26426523                0.14427583                0.27161986               -0.72314269                0.42694272                1.85478003                1.32543641
               9.23470859                2.93540533                8.91259550                1.00000000                0.29220921                0.33354445               -0.99863813                0.03078997                0.29392466                0.47152489
              10.23817501                2.91757346                8.86830343                1.00000000                0.34664207                0.39915173               -1.36013359               -0.03073857               -0.01215200               -0.30570459
               0.26883193                4.08171174                9.11058995                1.00000000               -0.25144897               -0.34885012                1.07074239               -0.04058043                0.02796196                0.85507396
               1.26631744                4.05908268                9.05832073                1.00000000               -0.19365238               -0.19985908                0.65212603               -0.02166084                0.03091989               -0.04347809
               2.26495888                4.03601095                9.00597665                0.05109115               -0.11140034               -0.05380145                0.23259487                0.04564585                1.46245598               -0.90920710
               3.26408943                4.01377157                8.98237852                0.00010000               -0.19184012                0.37115227               -0.22272478                0.52047306                4.07612247               -0.17896710
               4.26112208                4.00194907                8.98285366                0.00010000               -0.28944870                0.20431373               -0.14190495                1.06478078                5.06278231               -0.48918711
               5.25830046                3.98890371                8.98143810                0.00010000               -0.27490811                0.16572305               -0.20326614                1.04903263                4.84293820               -0.33421786
               6.25562392                3.97642318                8.97948458                0.00010000               -0.24961531                0.16262941               -0.29271350                1.04712710                4.72118854               -0.00469578
               7.25330815                3.96511913                8.97753000                0.00010000               -0.24329770                0.11593555               -0.38921243                1.00787467                4.75027012                0.55958592
               8.25075796                3.95564047                8.97765975                0.26836225               -0.04564632                0.21008442               -0.46364821                0.45743234                2.43850486                1.39483157
               9.25239523                3.93845007                8.93066095                1.00000000                0.23128762                0.27280315               -0.82040835                0.01338111                0.04011023                0.41071708
              10.25538372                3.92138374                8.88292183                1.00000000                0.29884889                0.35899283               -1.20727618               -0.02916230               -0.00108741               -0.29718851
               0.29031639                5.07836399                9.10085481                1.00000000               -0.20908878               -0.31716525                0.95040712               -0.04254688                0.06512518                0.81358534
               1.28822550                5.05731494                9.04433262                0.87452952               -0.14831226               -0.15101798                0.50134619               -0.02496638                0.10077144               -0.09141883
               2.28735015                5.03575442                8.98839045                0.01354987               -0.12783576                0.00491011                0.06389136                0.20721473                2.50910800               -0.91796177
               3.28566879                5.01829740                8.98011197                0.00010000               -0.20966828                0.36143008               -0.15513172                0.56021763                5.09219050               -0.18023793
               4.28315678                5.00414539                8.97798925                0.00010000               -0.26834784                0.24236090               -0.21636498                0.79034922                5.54532312               -0.32968714
               5.28030183                4.99090061                8.98082349                0.00010000               -0.31773464                0.21545067               -0.22511005                0.82436121                5.77562156               -0.19627374
               6.27680209                4.97817383                8.98532834                0.00010000               -0.37692821                0.18765635               -0.23903032                0.81893340                5.83780331                0.11698498
               7.27276327                4.96666613                8.99143750                0.00010000               -0.43267828                0.15244135               -0.24664597                0.82735793                5.92972533                0.57803690
               8.26814852                4.95724603                8.99967504                0.28196108               -0.17651623                0.11808590               -0.23329571                0.39633968                2.99008511                1.10290086
               9.26923294                4.94086140                8.94850004                1.00000000                0.17879560                0.20791879               -0.63596886                0.00740027                0.00979618                0.37879833
              10.27172443                4.92475332                8.89715894                1.00000000                0.24914912                0.31297414               -1.04832931               -0.02955340               -0.00259320               -0.32596993
               0.31007909                6.07536843                9.09052487                1.00000000               -0.16514049               -0.27582845                0.82049837               -0.04513446                0.06769316                0.75635669
               1.30842768                6.05606232                9.02936590                0.73623884               -0.09791825               -0.09782899                0.32948542               -0.03248100                0.14856860               -0.19077307
               2.30812072                6.03610915                8.96969886                0.00647071               -0.07624347                0.06847230               -0.14753373                0.23698637                3.17101456               -1.07690111
               3.30690281                6.02100017                8.96911201                0.00010000               -0.18974390                0.25836683               -0.21950416                0.58005717                6.21355861               -0.72606595
               4.30432585                6.00679629                8.97298792                0.00010000               -0.30717823                0.27619304               -0.23793241                0.65234605                6.50544218               -0.43240201
               5.30075925                5.99321272                8.98078999                0.00010000               -0.40443879                0.24988552               -0.21336189                0.64399856                6.73161992               -0.18171163
               6.29623707                5.98017630                8.99160505                0.00010000               -0.49880696                0.20896833               -0.16736026                0.61992745                6.88581948                0.14654467
               7.29078311                5.96816795                9.00485116                0.00010000               -0.58737888                0.13928232               -0.10404602                0.62608419                7.02434384                0.55271067
               8.28448949                5.95800219                9.02058516                0.29881465               -0.28735841                0.03725590               -0.01640432                0.29621135                3.54557553                1.02334557
               9.28503594                5.94260845                8.96596221                0.94222908                0.12596556                0.14415000               -0.44903854                0.00143139                0.02518375                0.33993279
              10.28700880                5.92764322                8.91125322                1.00000000                0.19728613                0.26274240               -0.88014078               -0.02801980                0.01810245               -0.35996379
               0.32802592                7.07284742                9.07951834                1.00000000               -0.11907511               -0.22454203                0.68003197               -0.04392507                0.04069064                0.70763863
               1.32683517                7.05535836                9.01336434                0.65987377               -0.04369431               -0.04369045                0.14667514               -0.03403966                0.13523795               -0.26139109
               2.32715203                7.03712387                8.94899047                0.01847603               -0.01261874                0.13385042               -0.37863234                0.22142569                3.75840692               -1.23285280
               3.32658279                7.02346473                8.95548631                0.00010000               -0.15804413                0.25634281               -0.32513232                0.50857653                7.34997982               -0.94054340
               4.32399115                7.00966925                8.96604407                0.00010000               -0.33904997                0.29256514               -0.25924453                0.50135031                7.59002391               -0.57132731
               5.31980179                6.99589833                8.98028466                0.00010000               -0.48728708                0.28165769               -0.18518266                0.46472798                7.78119866               -0.21606661
               6.31424541                6.98235319                8.99762704                0.00010000               -0.61713627                0.23019588               -0.08795301                0.41090092                7.93875968                0.13295813
               7.30745907                6.96945178                9.01787542                0.00010000               -0.73065760                0.12205592                0.03849401                0.38352490                8.10619967                0.52341789
               8.29963225                6.95799115                9.04106132                0.31876877               -0.39192622               -0.03710681                0.19607633                0.16243530                4.10100645                0.98332774
               9.29962054                6.94374440                8.98308488                0.90198296                0.07311221                0.08631845               -0.26480899               -0.00582390                0.03248212                0.30144872
              10.30109450                6.93000817                8.92481690                1.00000000                0.14739569                0.21326263               -0.72371844               -0.02818446                0.01624794               -0.40920420
               0.34417871                8.07087759                9.06805857                1.00000000               -0.07082583               -0.17032984                0.53309964               -0.04100678                0.02653937                0.68187490
               1.34347045                8.05518852                8.99696241                0.63885015                0.01320815                0.01162351               -0.04306833               -0.02809367                0.09941394               -0.29206593
               2.34444287                8.03878616                8.92723941                0.03970077                0.05292557                0.20083932               -0.62537352                0.18698405                4.28905265               -1.25320160
               3.34452896                8.02612702                8.94019361                0.00010000               -0.12618042                0.25807657               -0.38082898                0.38293619                8.50157041               -1.03191907
               4.34191926                8.01264759                8.95807859                0.00010000               -0.35795443                0.28674020               -0.25446124                0.33485014                8.74238210               -0.58078722
               5.33736987                7.99884588                8.97913946                0.00010000               -0.55088115                0.29626476               -0.15160628                0.29395708                8.85982526               -0.21355859
               6.33090164                7.98478022                9.00306975                0.00010000               -0.72771070                0.26899815               -0.01028895                0.21025657                8.99276217                0.10487843
               7.32281566                7.97060907                9.03028347                0.00738249               -0.87280283                0.13323419                0.17572418                0.09404224                9.19801622                0.45102529
               8.31344558                7.95726005                9.06121366                0.34160104               -0.49566057               -0.10821336                0.40644746               -0.00347969                4.66465007                0.92215732
               9.31290244                7.94433482                8.99981251                0.89807102                0.02359969                0.03171869               -0.09504332               -0.00821959                0.03018886                0.28693093
              10.31391757                7.93190847                8.93790265                0.97820027                0.10151296                0.17138775               -0.58277144               -0.02930408                0.00452134               -0.43515652
               0.35858393                9.06944082                9.05636841                1.00000000               -0.02192072               -0.12099946                0.38441600               -0.03591779                0.02343658                0.56388521
               1.35836472                9.05559083                8.98034813                0.66241635                0.06846353                0.07071209               -0.23718629               -0.01501439                0.12295087               -0.26980825
               2.35995320                9.04114065                8.90626782                0.05082878                0.10076769                0.26474946               -0.86821013                0.11108760                4.83843431               -0.90323615
               3.36038008                9.02862626                8.92487881                0.00010000               -0.09919520                0.22560010               -0.29317334                0.20079983                9.66607102               -0.76410424
               4.35796930                9.01540406                8.95048464                0.00010000               -0.34158863                0.25952009               -0.23284686                0.17004891                9.88667654               -0.37914194
               5.35354831                9.00182362                8.97786006                0.00010000               -0.56409783                0.28935046               -0.12444590                0.15725520                9.86459209               -0.13246477
               6.34668734                8.98773316                9.00766712                0.00010000               -0.83441136                0.29539839                0.05428263                0.06405777                9.97419026                0.06569070
               7.33686008                8.97211646                9.04124926                0.01496485               -1.04252140                0.24892441                0.29617789               -0.12505364               10.28086069                0.27771020
               8.32583691                8.95582688                9.08042861                0.36497276               -0.60261738               -0.17017810                0.60416396               -0.21929273                5.30462477                0.65022308
               9.32480773                8.94437877                9.01665165                0.94281111               -0.02379023               -0.02370552                0.07514513               -0.00588540                0.07071286                0.26176677
              10.32536111                8.93343592                8.95093965                0.96204607                0.05533783                0.13431850               -0.44169313               -0.02859526               -0.02312039               -0.36437275
               0.37116033               10.06845760                9.04236629                1.00000000                0.03099989               -0.09832233                0.22663314                0.07215574                0.33708308                0.45853936
               1.37147033               10.05660276                8.96445441                0.85987879                0.12344281                0.10119242               -0.41804624                0.09173808                0.60282037               -0.24151190
               2.37362919               10.04408115                8.89185346                0.53385652                0.14056095                0.29404954               -1.03891000                0.06941219                5.60187142               -0.60105242
               3.37428155               10.03063903                8.91429220                0.35631052               -0.07531537                0.20127625               -0.28227455                0.07798975               10.51615465               -0.38961231
               4.37212288               10.01783800                8.94522800                0.35283220               -0.30478380                0.24339400               -0.25376588                0.11505136               10.73381640               -0.15886836
               5.36818587               10.00463289                8.97700998                0.37557490               -0.51164649                0.28092657               -0.12267921                0.10626662               10.64588203               -0.02743607
               6.36188995                9.99068819                9.01108377                0.42178438               -0.79825074                0.29550342                0.09489629                0.06799480               10.76687373                0.07659812
               7.35222086                9.97558756                9.04927451                0.51060536               -1.25462673                0.34711001                0.38363576               -0.30550665               11.19697763                0.19556823
               8.33679742                9.95385649                9.09496134                0.69284857               -0.85225831               -0.19703861                0.75322276               -0.49029221                6.06451340                0.43267134
               9.33517569                9.94386071                9.03281824                1.00000000               -0.07830257               -0.05180604                0.23855379                0.07371389                0.42260857                0.23612842
              10.33523137                9.93459484                8.96543482                0.98745429                0.00556719                0.11589222               -0.29077872                0.06043913                0.16648403               -0.29038414
               0.20541878                0.11658960               10.16704993                1.00000000               -0.39613903               -0.44008459                1.51443038               -0.07643574               -0.47050130                0.52117208
               1.20145739                0.08463220               10.12499093                1.00000000               -0.32750198               -0.34276381                1.19782754               -0.05616818               -0.55922160                0.00610724
               2.19886874                0.05239797               10.08102591                0.99620148               -0.17808318               -0.24815536                0.84507408               -0.04362087               -0.49097251               -0.19339716
               3.19789572                0.02095456               10.04021988                0.59946895                0.30572625               -0.18301620                0.53050050                0.38539713                0.43734935               -0.33868726
               4.20498326               -0.00068918               10.01476047                0.64705559                0.50400578               -0.15012363                0.23673539                0.00207082                1.09245487                0.01471037
               5.20797584               -0.01581348                9.98699824                0.70824507                0.20062175               -0.00442529               -0.09727030               -0.00151261                0.78888188                0.01568925
               6.20899570               -0.02997605                9.95589887                0.70575401                0.05589393                0.11024770               -0.44751026                0.00526600                0.65553104               -0.00694542
               7.20909372               -0.04638572                9.92560539                0.82263137                0.05900826                0.22197869               -0.79759468                0.06435463                0.40227931                0.02925986
               8.21017586               -0.06731705                9.88946444                1.00000000                0.21920864                0.33894003               -1.12643513                0.04122202               -0.08039666                0.31895728
               9.21347789               -0.09076574                9.84972853                1.00000000                0.39799464                0.41484701               -1.44403230               -0.05065117               -0.28827796                0.02490730
              10.21813575               -0.11428478                9.80960888                1.00000000                0.46578653                0.50491330               -1.75011310               -0.07976789               -0.31400570               -0.33464674
               0.23661183                1.11218876               10.15271196                1.00000000               -0.36203031               -0.42365910                1.37641752               -0.03198716               -0.04577136                0.71297538
               1.23299152                1.08120456               10.11019250                1.00000000               -0.31702398               -0.32085646                1.06049521               -0.01149511                0.01991108                0.01678647
               2.23027135                1.04991641               10.06890102                0.71985450               -0.23491270               -0.22327709                0.73773145                0.01236575                0.26066450               -0.51554934
               3.22829327                1.01912440               10.03120626                0.05622881               -0.34416760               -0.17663428                0.41444148                0.50506817                1.42003767               -0.69331307
               4.22338799                0.99780958               10.01326580                0.16969658               -0.28445604                0.09254110                0.20467127                0.46373481                2.00449177                0.31014074
               5.22260415                0.98414226                9.98897663                0.23521290                0.04732397                0.09803234               -0.09660833                0.48279413                1.46645825                0.21315737
               6.22433447                0.97112643                9.96103283                0.16264652                0.29018075               -0.04108396               -0.41755072                0.41245876                1.32662562               -0.34806112
               7.22840776                0.95583407                9.93435156                0.34462084                0.42218104                0.25521904               -0.71981859                0.44891138                1.22046810                0.53429107
               8.23277809                0.93607235                9.90442774                1.00000000                0.40237409                0.31319242               -1.00278591                0.15576719                0.60170423                0.41488858
               9.23645524                0.91338273                9.86523908                1.00000000                0.40395124                0.39605020               -1.30463945               -0.00192751                0.08668526                0.07457893
              10.24085712                0.89076435                9.82505769                1.00000000                0.44018744                0.47924768               -1.61033898               -0.03137378                0.03287586               -0.39493131
               0.26674743                2.10811642               10.14203005                1.00000000               -0.32476029               -0.39432284                1.26533917               -0.03405114                0.03071868                0.92189357
               1.26349983                2.07821507               10.09550452                1.00000000               -0.27756098               -0.28091093                0.92806082               -0.01487098                0.10020310               -0.00083122
               2.26119621                2.04793243               10.05028658                0.33484388               -0.16979551               -0.17475364                0.61114619               -0.00060991                0.66670302               -0.98509104
               3.26010392                2.01742188               10.01508457                0.00010000               -0.59780573               -0.15655150                0.28974872                0.79644068                3.02808366               -1.32399317
               4.24924010                2.00116164               10.01727549                0.00010000               -0.78945196                0.22517500                0.58054249                1.54940516                3.21667648               -0.87419689
               5.24431488                1.98614716                9.99476854                0.00010000               -0.18435157                0.08288872               -0.02205377                1.32427936                1.39335155               -0.47359150
               6.24555306                1.96920227                9.95937309                0.00010000                0.44055709               -0.07827164               -0.40049587                1.35056641                2.22371458                0.05375288
               7.25312602                1.95871866                9.95328869                0.00010000                0.50947406               -0.00192884               -0.61558941                0.97448918                2.48772235                0.36045946
               8.25574255                1.93894680                9.92136651                0.41299765                0.28106599                0.29025378               -0.85946319                0.20389098                0.84090897                0.78031412
               9.25874734                1.91715526                9.88183609                1.00000000                0.35012465                0.37164943               -1.16097961                0.03166131                0.31438050                0.33757279
              10.26274504                1.89530017                9.83943431                1.00000000                0.39976992                0.43032404               -1.48371592               -0.02052901                0.16798410               -0.40919070
               0.29573351                3.10430230               10.13167123                1.00000000               -0.28554116               -0.36868122                1.15561931               -0.03603202                0.02665750                0.93882546
               1.29287810                3.07558634               10.08025275                1.00000000               -0.23405855               -0.24217281                0.79014974               -0.01881266                0.02891939               -0.03541494
               2.29105234                3.04642134               10.02877724                0.14842087               -0.09426159               -0.11835949                0.42535473               -0.05786488                0.83548925               -1.07889922
               3.29099287                3.01599337                9.99346978                0.00010000               -0.27007637                0.05190393                0.11674016                0.71833349                3.30602853               -1.19530897
               4.28565081                3.00231308                9.99165655                0.00010000               -0.49718799                0.13795237                0.03728299                1.74534750                4.54252490               -1.55261069
               5.28104911                2.98580004                9.98325490                0.00010000               -0.34382560                0.05426399               -0.09672842                1.67235299                3.92808530               -0.94969921
               6.27877430                2.96956099                9.97193656                0.00010000               -0.14480447                0.09617423               -0.32698475                1.56390275                3.63872260                0.31017166
               7.27815302                2.95579549                9.95886633                0.00010000               -0.01774931               -0.10396305               -0.51658411                1.14546397                3.40709281                0.12625042
               8.27841931                2.94187743                9.94369212                0.26041728                0.12910404                0.28123702               -0.70919141                0.48930766                1.97699653                1.40567948
               9.28073510                2.92081572                9.90266662                1.00000000                0.28687058                0.33578127               -0.98769659                0.04204282                0.33633502                0.50197585
              10.28415672                2.89937083                9.85477813                1.00000000                0.34216268                0.39133849               -1.34602250               -0.02936013               -0.01081016               -0.33046034
               0.32345871                4.10074280               10.12114287                1.00000000               -0.24541770               -0.34215978                1.04171281               -0.03637178                0.02651519                0.91685660
               1.32100453                4.07337161               10.06480884                1.00000000               -0.19134136               -0.19844266                0.64537001               -0.01694419                0.02778025               -0.04541466
               2.31963188                4.04556524               10.00839015                0.06111953               -0.12128441               -0.05768041                0.24802079                0.04228220                1.42826911               -0.96918967
               3.31857885                4.01845996                9.98008390                0.00010000               -0.26457521                0.37273762               -0.22844316                0.57244223                4.31049599               -0.24026760
               4.31434038                4.00392069                9.98152285                0.00010000               -0.40324088                0.18212047               -0.12787851                1.18349029                5.49517371               -0.57566946
               5.31051403                3.98723244                9.97949195                0.00010000               -0.37523580                0.17224116               -0.18928657                1.14010338                5.17570374               -0.40074915
               6.30683566                3.97112575                9.97659011                0.00010000               -0.33975808                0.17530492               -0.28516314                1.13542609                5.02711215                0.00346513
               7.30371887                3.95663940                9.97363801                0.00010000               -0.31635949                0.12882982               -0.38636618                1.11548912                5.05656808                0.61935743
               8.30050847                3.94457154                9.97299642                0.26278258               -0.08120377                0.21628765               -0.46703402                0.51927785                2.60880861                1.51319287
               9.30209479                3.92387089                9.92250293                1.00000000                0.22695688                0.27210780               -0.81205217                0.02314588                0.05710079                0.44460548
              10.30504761                3.90312694                9.87092281                1.00000000                0.29528204                0.35460023               -1.19448756               -0.02749382               -0.00017986               -0.31117022
               0.34974844                5.09745911               10.11019153                1.00000000               -0.20316695               -0.31027057                0.91907503               -0.03886622                0.06940915                0.86823610
               1.34771678                5.07161749               10.04932426                0.86139502               -0.14694027               -0.14965019                0.49682617               -0.02136484                0.10968939               -0.10546735
               2.34680964                5.04526773                9.98915546                0.02123739               -0.18152585                0.00108388                0.08653622                0.23029613                2.61893721               -0.99300363
               3.34408626                5.02344812                9.97852445                0.00010000               -0.31307544                0.39671246               -0.17364722                0.59778178                5.39878045               -0.10377047
               4.34054813                5.00595549                9.97589055                0.00010000               -0.37200747                0.23430542               -0.20602096                0.87206842                5.96459354               -0.34191402
               5.33664611                4.98924486                9.97864298                0.00010000               -0.42361352                0.22042415               -0.21188494                0.88872924                6.20443565               -0.20447115
               6.33207586                4.97306709                9.98297275                0.00010000               -0.48145471                0.20737619               -0.23107863                0.88516188                6.25519809                0.13846643
               7.32701701                4.95837209                9.98896268                0.00010000               -0.52512382                0.17119498               -0.24625295                0.91096536                6.34879146                0.63912357
               8.32157338                4.94620318                9.99729818                0.27611069               -0.21872006                0.11853236               -0.24160962                0.44699400                3.20464730                1.20332055
               9.32264261                4.92625787                9.94217758                1.00000000                0.17606810                0.20511514               -0.62873618                0.01430823                0.01541872                0.41474900
              10.32509475                4.90646284                9.88675536                1.00000000                0.24521321                0.31078003               -1.03255927               -0.02800438               -0.00272305               -0.33349418
               0.37436462                6.09453739               10.09854895                1.00000000               -0.15960133               -0.26792958                0.78688696               -0.04151116                0.06789812                0.80264930
               1.37276861                6.07037861               10.03264999                0.72513311               -0.09787257               -0.09665230                0.32733314               -0.02871520                0.15429594               -0.22002400
               2.37240717                6.04558691                9.96837940                0.01170450               -0.14609434                0.06461496               -0.11883347                0.27658134                3.37776133               -1.18318613
               3.36984672                6.02639420                9.96704462                0.00010000               -0.32110802                0.27186103               -0.20024029                0.65622610                6.64229670               -0.72961355
               4.36598501                6.00860680                9.97070864                0.00010000               -0.43348542                0.28187571               -0.22237755                0.73956828                6.98210155               -0.41516809
               5.36117701                5.99164093                9.97873443                0.00010000               -0.52866695                0.26516135               -0.19902413                0.71999073                7.23397644               -0.16264570
               6.35541167                5.97527328                9.98996660                0.00010000               -0.61874640                0.23354784               -0.15953149                0.68386583                7.39527386                0.18100319
               7.34880209                5.96006330               10.00379241                0.00010000               -0.69245515                0.15959345               -0.10584068                0.69305607                7.54043538                0.61334486
               8.34156257                5.94694219               10.02035290                0.29302561               -0.33403935                0.03592797               -0.02968625                0.33352077                3.80394011                1.11475411
               9.34212130                5.92797319                9.96146811                0.92968659                0.12575164                0.14233590               -0.44939884                0.00572936                0.02867132                0.37600201
              10.34407760                5.90934254                9.90250747                1.00000000                0.19563027                0.26365442               -0.87053213               -0.02626342                0.02363690               -0.36954812
               0.39723578                7.09210051               10.08612830                1.00000000               -0.11428341               -0.21605521                0.64505178               -0.04010481                0.03881571                0.74683257
               1.39609294                7.06968444               10.01484724                0.65001706               -0.04550538               -0.04336346                0.14982566               -0.02936848                0.13579771               -0.29836094
               2.39632567                7.04656003                9.94542080                0.02038945               -0.09510232                0.12769286               -0.33843347                0.26848069                4.04164419               -1.35557831
               3.39419090                7.02888534                9.95240705                0.00010000               -0.31164470                0.25847341               -0.29676304                0.60470877                7.91509602               -0.94978552
               4.39009278                7.01159301                9.96357670                0.00010000               -0.49057269                0.31239425               -0.23902209                0.61302577                8.16036458               -0.54097300
               5.38437944                6.99454809                9.97852449                0.00010000               -0.63809883                0.31477770               -0.16943776                0.55671839                8.35965598               -0.18315246
               6.37733080                6.97773805                9.99678652                0.00010000               -0.75851075                0.26704813               -0.08017725                0.47533442                8.53092465                0.17238175
               7.36920923                6.96156396               10.01822598                0.00010000               -0.84984449                0.14869611                0.03340160                0.43287053                8.71214916                0.58199187
               8.36033391                6.94692174               10.04290098                0.31326682               -0.44261913               -0.03640671                0.17449087                0.18714875                4.40356254                1.07178109
               9.36035685                6.92910459                9.98042052                0.89486875                0.07484349                0.08643637               -0.27177280               -0.00100439                0.03364448                0.33182433
              10.36183078                6.91173592                9.91763475                1.00000000                0.14739337                0.21546277               -0.71964585               -0.02556926                0.01957861               -0.42861512
               0.41839467                8.09021628               10.07319773                1.00000000               -0.06729503               -0.16172797                0.49827956               -0.03730106                0.02358121                0.71759099
               1.41772172                8.06951134                9.99658991                0.62910740                0.00906059                0.00983807               -0.03194085               -0.02342889                0.09224781               -0.33372419
               2.41857588                8.04814077                9.92129411                0.03691618               -0.04068986                0.18845313               -0.56812264                0.24328740                4.66702161               -1.38061888
               3.41690792                8.03156367                9.93639647                0.00010000               -0.29965502                0.27778380               -0.37745013                0.51095267                9.21278078               -0.96647488
               4.41258278                8.01485468                9.95558874                0.00010000               -0.53707918                0.33632486               -0.24733336                0.46864456                9.38736897               -0.52619649
               5.40616634                7.99793648                9.97772360                0.00010000               -0.73401470                0.35310239               -0.13646351                0.39096845                9.50320527               -0.17601894
               6.39790249                7.98061424               10.00301086                0.00010000               -0.89452669                0.32408404               -0.00278738                0.26595775                9.66261025                0.14018007
               7.38827581                7.96303722               10.03198345                0.00633513               -1.00687894                0.17284213                0.16618599                0.11913960                9.89402276                0.49990459
               8.37776491                7.94621405               10.06509514                0.33703026               -0.54943904               -0.10292700                0.37348735                0.00418968                5.00857864                1.00328624
               9.37728703                7.92970192                9.99881175                0.89797596                0.02693218                0.03347540               -0.10605543               -0.00503260                0.02503482                0.31034930
              10.37830355                7.91365180                9.93213792                1.00000000                0.10165278                0.17211720               -0.57589192               -0.02639308                0.00702055               -0.46117380
               0.43789964                9.08886595               10.06002458                1.00000000               -0.01997659               -0.11206977                0.35072690               -0.03306243                0.01743059                0.59433899
               1.43769988                9.06988120                9.97808971                0.65187847                0.06197208                0.06539801               -0.21584527               -0.01236669                0.11153836               -0.30677752
               2.43913908                9.05032910                9.89800511                0.04256969               -0.00019184                0.24443478               -0.79070852                0.19907306                5.35869081               -0.99417894
               3.43769604                9.03444102                9.92128641                0.00010000               -0.30231115                0.31254690               -0.38938701                0.33161555               10.50372478               -0.66278172
               4.43309286                9.01831950                9.94810115                0.00010000               -0.56283926                0.34672436               -0.24753778                0.27880374               10.54569342               -0.32882806
               5.42643925                9.00161013                9.97672336                0.00010000               -0.77718262                0.36745511               -0.11083294                0.22355062               10.56075717               -0.10575341
               6.41754921                8.98421973               10.00825787                0.00010000               -1.02235227                0.36485615                0.06141473                0.09712224               10.71977174                0.08744402
               7.40599221                8.96502080               10.04412891                0.01555400               -1.18981000                0.30755203                0.28197093               -0.12431717               11.06778796                0.30497414
               8.39375301                8.94486320               10.08621609                0.36258392               -0.65868801               -0.15868357                0.55883862               -0.23226690                5.69673628                0.70007801
               9.39281845                8.92977410               10.01729014                0.94067499               -0.01749224               -0.01868734                0.05402373               -0.00628080                0.06287891                0.28164113
              10.39340316                8.91517827                9.94653319                0.96383799                0.05847150                0.13514246               -0.44171603               -0.02672123               -0.02516288               -0.38656936
               0.45570293               10.08797489               10.04446731                1.00000000                0.03083207               -0.08910678                0.19721816                0.06476960                0.34598343                0.48343450
               1.45601125               10.07081930                9.96043451                0.85508902                0.11473009                0.09380964               -0.38808387                0.08386601                0.62177210               -0.27139454
               2.45799753               10.05302947                9.88192423                0.52877968               -0.02307102                0.27003717               -0.95398323                0.23560994                6.23926844               -0.65587906
               3.45554983               10.03781461                9.91055953                0.35712565               -0.35038928                0.33735915               -0.42138166                0.22336377               11.43785741               -0.31389506
               4.45098974               10.02178917                9.94261280                0.35316905               -0.54063493                0.34696657               -0.27483987                0.16323661               11.42716506               -0.12767661
               5.44473713               10.00528558                9.97589672                0.37568364               -0.72777374                0.36754464               -0.10899414                0.13589699               11.40837006               -0.00971335
               6.43643427                9.98791136               10.01207994                0.42191088               -0.97955669                0.36916345                0.10177720                0.08364006               11.59162983                0.09200764
               7.42514599                9.96918827               10.05301594                0.51156826               -1.40339973                0.41674642                0.36721388               -0.32817070               12.07258915                0.21535192
               8.40836627                9.94304038               10.10219504                0.69284885               -0.91498269               -0.18228181                0.70057741               -0.53167825                6.51540237                0.45603708
               9.40684634                9.92932817               10.03503824                1.00000000               -0.07027392               -0.04459278                0.20811620                0.06850239                0.43817616                0.25201782
              10.40696079                9.91635465                9.96249745                1.00000000                0.01144542                0.11763778               -0.29910317                0.05841033                0.17479690               -0.30616426
               0.24415947                0.13700941               11.18205999                1.00000000               -0.38964896               -0.43150823                1.48909664               -0.07510414               -0.50774896                0.55581534
               1.24026298                0.10021037               11.13688686                1.00000000               -0.32147802               -0.33776754                1.18170788               -0.05602872               -0.61538175                0.01265639
               2.23772991                0.06316089               11.08943405                1.00000000               -0.17377899               -0.24619222                0.84022137               -0.04303353               -0.54755062               -0.18659617
               3.23678740                0.02700701               11.04552023                0.60713190                0.30790429               -0.18292379                0.53332649                0.40667094                0.40791321               -0.37017382
               4.24388800                0.00118034               11.01712321                0.66090541                0.49502457               -0.13124634                0.23633021               -0.00757814                1.05131821                0.02831431
               5.24668789               -0.01761045               10.98604998                0.72563082                0.18755803                0.00167475               -0.09196187                0.00195867                0.72559429                0.02174656
               6.24763916               -0.03536161               10.95148442                0.71869762                0.05138823                0.10914834               -0.43497732                0.00646076                0.58321995               -0.01286705
               7.24771566               -0.05522769               10.91769590                0.82972216                0.05281636                0.21787260               -0.78288045                0.06245073                0.33822566                0.03002653
               8.24869548               -0.07965386               10.87827663                1.00000000                0.20957184                0.33577519               -1.10996161                0.04375043               -0.12670009                0.33053777
               9.25190709               -0.10673698               10.83537645                1.00000000                0.39007461                0.41000378               -1.42547740               -0.05097711               -0.32313315                0.02276536
              10.25649698               -0.13393475               10.79220625                1.00000000                0.45898817                0.49818679               -1.72951283               -0.07987967               -0.34359041               -0.36530178
               0.28020747                1.13269432               11.16635242                1.00000000               -0.35805126               -0.41438639                1.35309841               -0.03131795               -0.05379632                0.75965406
               1.27662695                1.09683269               11.12072801                1.00000000               -0.31531065               -0.31581899                1.04696644               -0.01068553                0.00692732                0.02522900
               2.27390125                1.06069897               11.07623924                0.73994971               -0.23912833               -0.22239287                0.73133041                0.01803703                0.24350839               -0.51727810
               3.27184439                1.02517778               11.03535160                0.07201231               -0.38901534               -0.17712225                0.41689167                0.54780912                1.45761901               -0.72931844
               4.26612095                0.99986787               11.01529855                0.19308180               -0.34329674                0.09970824                0.20228704                0.33703582                2.06054713                0.49086599
               5.26497845                0.98240630               10.98802556                0.26222385                0.01957189                0.09425321               -0.09357862                0.41833281                1.47403416                0.24422175
               6.26651238                0.96572987               10.95690752                0.18279502                0.27539188               -0.02681300               -0.40764169                0.37005388                1.33404656               -0.35561083
               7.27048629                0.94695104               10.92720926                0.35772628                0.41876254                0.24479690               -0.70792656                0.44694754                1.24104885                0.54566567
               8.27488763                0.92370389               10.89446527                1.00000000                0.40257405                0.31019196               -0.98942681                0.16321693                0.61645759                0.43570168
               9.27853777                0.89736306               10.85226866                1.00000000                0.40041583                0.39200425               -1.28917055               -0.00177564                0.08915891                0.07428757
              10.28289595                0.87104712               10.80904066                1.00000000                0.43581808                0.47156000               -1.59278346               -0.03154359                0.03306475               -0.43220922
               0.31525637                2.12872168               11.15455935                1.00000000               -0.32117419               -0.38448187                1.24198482               -0.03114207                0.02978052                0.98176994
               1.31204463                2.09389399               11.10472612                1.00000000               -0.27554009               -0.27665958                0.91648187               -0.01026453                0.10852899                0.00719225
               2.30974557                2.05871303               11.05640240                0.35170451               -0.17349761               -0.17750356                0.61037319                0.01440968                0.68160692               -1.02398635
               3.30857468                2.02346457               11.01802061                0.00010000               -0.81726896               -0.16044674                0.29541887                0.85278973                3.30895745               -1.38729301
               4.29340019                2.00317450               11.02237771                0.00010000               -0.96910649                0.24458395                0.44834986                1.63738971                3.42897906               -0.94822364
               5.28919255                1.98427462               10.99434146                0.00010000               -0.14523476                0.07312291               -0.05283915                1.40130789                1.33485937               -0.47147840
               6.29049549                1.96410213               10.95549520                0.00010000                0.47440211               -0.09111142               -0.38217886                1.40596145                2.32153912                0.06104356
               7.29868059                1.94966825               10.94711297                0.00010000                0.55261544               -0.02139667               -0.61708501                1.00854679                2.58962396                0.38454428
               8.30154780                1.92654998               10.91282683                0.41873747                0.29238854                0.29120620               -0.84906240                0.23088452                0.90558785                0.81611758
               9.30452836                1.90110310               10.87029164                1.00000000                0.34750921                0.37074766               -1.14823926                0.03789836                0.33666648                0.35369028
              10.30849799                1.87549645               10.82467260                1.00000000                0.39696280                0.42143178               -1.46887512               -0.01867451                0.17964688               -0.44665797
               0.34924000                3.12500469               11.14309893                1.00000000               -0.28096904               -0.35965536                1.13147887               -0.03182244                0.02683325                0.99751180
               1.34643031                3.09129950               11.08810819                1.00000000               -0.23105669               -0.23955531                0.78088684               -0.01373260                0.02860209               -0.03313917
               2.34461887                3.05714889               11.03306949                0.16119556               -0.09958000               -0.12320457                0.43146929               -0.04135106                0.86157258               -1.14365598
               3.34443871                3.02196884               10.99470461                0.00010000               -0.32800868                0.02234909                0.12756684                0.81013170                3.47025019               -1.37040544
               4.33805869                3.00475955               10.99206442                0.00010000               -0.61808659                0.15135932                0.03579093                2.00586144                4.79796685               -1.84969080
               5.33207698                2.98386876               10.98224476                0.00010000               -0.44103579                0.06130125               -0.10700763                1.83514089                4.12067430               -1.02873589
               6.32923798                2.96390765               10.96870405                0.00010000               -0.19338019                0.06770801               -0.32067533                1.70894753                3.80608848                0.33363121
               7.32820937                2.94652311               10.95374410                0.00010000               -0.05837535               -0.11291594               -0.50759962                1.24864953                3.58710730                0.17211508
               8.32807047                2.92952802               10.93668170                0.25779747                0.10699479                0.28741412               -0.69470222                0.53881617                2.09771064                1.48329931
               9.33034927                2.90477801               10.89284157                1.00000000                0.28326518                0.33640582               -0.97788204                0.05151119                0.37489557                0.53182872
              10.33373577                2.87947575               10.84138298                1.00000000                0.33865036                0.38433311               -1.33384785               -0.02810778               -0.00907439               -0.35429660
               0.38203029                4.12152857               11.13142421                1.00000000               -0.24045202               -0.33410281                1.01625103               -0.03261328                0.02610289                0.96979511
               1.37962577                4.08910288               11.07122813                1.00000000               -0.18905401               -0.19675301                0.63837796               -0.01272900                0.02590757               -0.04822041
               2.37824921                4.05624894               11.01093706                0.07178342               -0.12295580               -0.06219016                0.25945893                0.03592517                1.37935106               -1.02223111
               3.37716665                4.02391155               10.97780966                0.00010000               -0.33158531                0.36462105               -0.21976071                0.62116699                4.52037792               -0.31589833
               4.37161750                4.00620169               10.98029609                0.00010000               -0.52096917                0.16808851               -0.12204344                1.29302566                5.91485583               -0.66759060
               5.36674727                3.98550064               10.97765236                0.00010000               -0.47987029                0.18499755               -0.18152412                1.22429848                5.49177013               -0.45815943
               6.36202010                3.96545629               10.97378131                0.00010000               -0.43570308                0.18295096               -0.27711677                1.21288332                5.31978021                0.01596707
               7.35803321                3.94740993               10.96980267                0.00010000               -0.39754378                0.13855491               -0.37991114                1.20231327                5.35004517                0.67954213
               8.35406922                3.93229826               10.96831907                0.25812473               -0.12111790                0.22139723               -0.46734143                0.56886925                2.77571311                1.62253396
               9.35561085                3.90783122               10.91441990                1.00000000                0.22355646                0.27065938               -0.80547811                0.03098600                0.07664889                0.47854996
              10.35854035                3.88318311               10.85903207                1.00000000                0.29295006                0.35115139               -1.18540230               -0.02587864                0.00048813               -0.32081568
               0.41343911                5.11832263               11.11923631                1.00000000               -0.19837472               -0.30219640                0.89185727               -0.03558502                0.07450575                0.91295455
               1.41145536                5.08736444               11.05426914                0.84915257               -0.14552033               -0.14820110                0.49196144               -0.01800782                0.11983207               -0.12039944
               2.41052870                5.05590509               10.99012118                0.02968244               -0.22730305               -0.00344297                0.10415572                0.24644668                2.69265915               -1.06018155
               3.40690930                5.02926126               10.97663903                0.00010000               -0.40992932                0.43068724               -0.21479490                0.62345458                5.68274509               -0.01922859
               4.40233012                5.00812132               10.97386883                0.00010000               -0.48004790                0.23025453               -0.20158012                0.94840044                6.38697404               -0.35278835
               5.39730834                4.98756871               10.97658579                0.00010000               -0.53718819                0.22888306               -0.20169772                0.94394442                6.61628862               -0.20990248
               6.39158635                4.96756667               10.98070677                0.00010000               -0.59473378                0.22631555               -0.22231694                0.93949830                6.65298618                0.16372893
               7.38541367                4.94929420               10.98651244                0.00010000               -0.62798932                0.18808098               -0.24294693                0.97808061                6.74949097                0.70170717
               8.37902657                4.93395596               10.99484284                0.27088641               -0.26647618                0.11981049               -0.24828464                0.48601872                3.41482018                1.30036020
               9.38008414                4.91019120               10.93592531                0.99324705                0.17439285                0.20271647               -0.62572093                0.01933815                0.02641957                0.44977283
              10.38251442                4.88649878               10.87650775                1.00000000                0.24302790                0.30948780               -1.02266852               -0.02611857                0.00103212               -0.33765952
               0.44323496                6.11548464               11.10626261                1.00000000               -0.15518124               -0.25936662                0.75818273               -0.03831620                0.06810830                0.83874059
               1.44168315                6.08613886               11.03591256                0.71490849               -0.09768208               -0.09566070                0.32504408               -0.02506551                0.16009855               -0.24872979
               2.44128132                6.05618008               10.96732219                0.01767926               -0.21318191                0.05962488               -0.09514989                0.31414189                3.56347871               -1.27901186
               3.43741951                6.03252530               10.96510721                0.00010000               -0.45016285                0.29279585               -0.19484956                0.72231034                7.03873225               -0.70342822
               4.43227807                6.01080678               10.96854037                0.00010000               -0.56193499                0.29241847               -0.21614771                0.81519439                7.43643347               -0.38906640
               5.42618081                5.99007830               10.97680951                0.00010000               -0.65967490                0.28387025               -0.18811953                0.78262883                7.71457563               -0.13852120
               6.41908457                5.96998260               10.98841442                0.00010000               -0.74876454                0.25949520               -0.15132628                0.73346525                7.88127122                0.21937822
               7.41120552                5.95117155               11.00273435                0.00010000               -0.80959835                0.18031897               -0.10508868                0.74428944                8.03363050                0.67501505
               8.40289260                5.93469447               11.01999144                0.28778654               -0.38753635                0.03642794               -0.04188411                0.35981972                4.05482707                1.20280627
               9.40345480                5.91188555               10.95697423                0.91626203                0.12551082                0.14230230               -0.45130953                0.00769558                0.03534622                0.40784484
              10.40540282                5.88937287               10.89384258                1.00000000                0.19480209                0.26533171               -0.86792598               -0.02410885                0.03045517               -0.38123064
               0.47136435                7.11313530               11.09241937                1.00000000               -0.11057323               -0.20757534                0.61588026               -0.03685710                0.03712524                0.77634889
               1.47025862                7.08545123               11.01636085                0.64114692               -0.04696207               -0.04336467                0.15257582               -0.02509227                0.13642700               -0.33222406
               2.47042511                7.05709759               10.94222180                0.02329719               -0.17649030                0.12046983               -0.30458195                0.31806863                4.30004309               -1.46220550
               3.46672881                7.03511718               10.94955105                0.00010000               -0.46720543                0.26964362               -0.27940378                0.69712683                8.43887053               -0.95867878
               4.46108100                7.01396969               10.96126362                0.00010000               -0.64718573                0.33962199               -0.22744789                0.70951879                8.69877895               -0.50871077
               5.45378510                6.99324611               10.97689590                0.00010000               -0.79592950                0.35241615               -0.15873834                0.63089592                8.90988944               -0.14585554
               6.44516241                6.97275657               10.99602349                0.00010000               -0.90987548                0.30649365               -0.07322289                0.52319474                9.09456845                0.21542831
               7.43558759                6.95290058               11.01854346                0.00010000               -0.98267231                0.17663424                0.03081899                0.46671277                9.28985963                0.64020281
               8.42550896                6.93468452               11.04455114                0.30837346               -0.50139610               -0.03418998                0.15697649                0.20164565                4.69398506                1.15353625
               9.42555966                6.91303724               10.97764943                0.88049210                0.07743266                0.08933160               -0.28414120                0.00132297                0.03480599                0.36040313
              10.42705762                6.89180541               10.91042398                1.00000000                0.14979516                0.22068431               -0.72702749               -0.02304219                0.02161311               -0.44578247
               0.49786596                8.11133314               11.07802416                1.00000000               -0.06469452               -0.15386388                0.47001829               -0.03426003                0.02112275                0.74434941
               1.49721902                8.08527157               10.99632360                0.62073971                0.00553917                0.00797260               -0.02215076               -0.01936595                0.08611136               -0.36997700
               2.49797674                8.05858948               10.91587696                0.03588841               -0.13645340                0.17646812               -0.51988653                0.30759040                5.00092692               -1.48722410
               3.49448995                8.03791817               10.93264460                0.00010000               -0.48186185                0.30451905               -0.37126816                0.63197307                9.86648931               -0.94295302
               4.48833951                8.01759922               10.95313193                0.00010000               -0.72390472                0.39168730               -0.24439032                0.57868348               10.00710130               -0.48517823
               5.48001185                7.99712662               10.97641019                0.00010000               -0.92227574                0.41446594               -0.12861831                0.46674480               10.12039439               -0.13746089
               6.46989399                7.97611248               11.00301400                0.00010000               -1.07000134                0.38281936                0.00213834                0.30462166               10.29901562                0.17802699
               7.45861183                7.95470424               11.03360719                0.00571466               -1.15525703                0.21414355                0.15947079                0.12841146               10.55383808                0.54703936
               8.44678885                7.93401067               11.06868341                0.33306551               -0.61257316               -0.09779913                0.34758787                0.00346927                5.33793648                1.07503130
               9.44636036                7.91367218               10.99769140                0.88920304                0.03083915                0.03739251               -0.12059450               -0.00177920                0.02339268                0.33289737
              10.44740564                7.89378655               10.92638481                1.00000000                0.10452716                0.17697974               -0.58293166               -0.02285617                0.01169455               -0.48164235
               0.52280228                9.11005802               11.06338295                1.00000000               -0.01873260               -0.10461560                0.32415862               -0.03075220                0.01265052                0.61746993
               1.52261496                9.08561068               10.97603123                0.64307737                0.05640161                0.06068430               -0.19749586               -0.01006187                0.10239593               -0.33792824
               2.52393032                9.06062695               10.89045365                0.03689856               -0.11282136                0.22679197               -0.72604437                0.29548351                5.79069892               -1.06808076
               3.52035853                9.04120756               10.91709107                0.00010000               -0.52420521                0.39483521               -0.42852793                0.45183374               11.27611713               -0.61704214
               4.51344621                9.02180344               10.94553388                0.00010000               -0.78758983                0.43309789               -0.26139949                0.36586820               11.21595689               -0.29431244
               5.50460673                9.00153543               10.97564340                0.00010000               -0.98844904                0.44826429               -0.10754105                0.27418998               11.23803534               -0.07939269
               6.49367723                8.98041296               11.00889541                0.00010000               -1.21745583                0.43858617                0.06433485                0.11786792               11.42763338                0.11038938
               7.48025762                8.95718345               11.04688868                0.01620087               -1.35334143                0.37081543                0.27120554               -0.13693535               11.81032751                0.33021535
               8.46661040                8.93272854               11.09160538                0.36038227               -0.72547075               -0.14956763                0.52393154               -0.25520279                6.06925213                0.74289693
               9.46574820                8.91378509               11.01773212                0.93839961               -0.01193247               -0.01336574                0.03506377               -0.00535403                0.05866454                0.29761112
              10.46637175                8.89534501               10.94210533                0.96581457                0.06235507                0.13782503               -0.44920052               -0.02384552               -0.02439832               -0.40649919
               0.54614560               10.10924082               11.04631066                1.00000000                0.03032511               -0.08171964                0.17443430                0.05877440                0.35261439                0.50253436
               1.54644885               10.08648525               10.95669273                0.85119471                0.10719689                0.08745737               -0.36262445                0.07761365                0.63699704               -0.29603069
               2.54828954               10.06312532               10.87277380                0.52513532               -0.20493557                0.24983643               -0.88312174                0.40240284                6.75918697               -0.69924577
               3.54235014               10.04581487               10.90586457                0.35798693               -0.64802674                0.46073119               -0.48664724                0.35595366               12.29632183               -0.28197728
               4.53532900               10.02626118               10.93973120                0.35348824               -0.77320016                0.44577384               -0.29544156                0.20213080               12.14888156               -0.10822459
               5.52688613               10.00609191               10.97483010                0.37571231               -0.93628353                0.45564786               -0.10677177                0.15909120               12.15332636                0.00609001
               6.51660333                9.98488420               11.01311931                0.42190901               -1.16642977                0.44712423                0.10429833                0.09404163               12.37608198                0.10659565
               7.50355754                9.96212054               11.05661879                0.51240010               -1.57600868                0.49370911                0.35470290               -0.36325175               12.89874333                0.23231233
               8.48508316                9.93101932               11.10897289                0.69265662               -0.99603621               -0.17092173                0.66116361               -0.58850846                6.94056031                0.47548911
               9.48363681                9.91340487               11.03698057                1.00000000               -0.06371291               -0.03802268                0.18206113                0.06504778                0.45179062                0.26417704
              10.48380890                9.89654305               10.95945276                1.00000000                0.01720839                0.11980449               -0.31078165                0.05753305                0.18077806               -0.32117024
               0.28561005                0.15912104               12.19683186                1.00000000               -0.38343659               -0.42385579                1.46661148               -0.07433168               -0.54290883                0.58789660
               1.28177569                0.11720303               12.14862509                1.00000000               -0.31628505               -0.33331494                1.16693147               -0.05651093               -0.66665344                0.01960161
               2.27928435                0.07505568               12.09783034                1.00000000               -0.17054277               -0.24531686                0.83967076               -0.04237762               -0.59993075               -0.18456779
               3.27836483                0.03388835               12.05088641                0.61280228                0.30977655               -0.18506898                0.54027058                0.42568859                0.37208725               -0.40451709
               4.28547988                0.00352643               12.01948708                0.67167594                0.48808420               -0.11540252                0.23727983               -0.01639390                1.00521612                0.04232697
               5.28812651               -0.01932972               11.98515900                0.73976270                0.17671457                0.00649346               -0.08600446                0.00463353                0.66320531                0.02829271
               6.28901417               -0.04107959               11.94719933                0.72958058                0.04697498                0.10830212               -0.42196313                0.00764374                0.51110526               -0.01829888
               7.28906601               -0.06481191               11.90994778                0.83607691                0.04735695                0.21422183               -0.76602766                0.06029821                0.27295264                0.03136089
               8.28996131               -0.09308357               11.86726521                1.00000000                0.20097983                0.33197529               -1.09159228                0.04450668               -0.17398420                0.34222693
               9.29308561               -0.12409485               11.82121898                1.00000000                0.38215156                0.40481345               -1.40538210               -0.05106061               -0.35824544                0.02087807
              10.29760434               -0.15525963               11.77501862                1.00000000                0.45187326                0.49134528               -1.70727003               -0.07947126               -0.37311480               -0.39561162
               0.32678474                1.15488248               12.17977393                1.00000000               -0.35414803               -0.40578582                1.33245581               -0.03128651               -0.06105652                0.80281131
               1.32324326                1.11386988               12.13113182                1.00000000               -0.31334098               -0.31121507                1.03428609               -0.01141488               -0.00542496                0.03359349
               2.32051792                1.07260251               12.08352763                0.75696939               -0.24284587               -0.22166143                0.72710941                0.02086411                0.22778382               -0.52002515
               3.31838634                1.03203766               12.03954409                0.08570041               -0.42964699               -0.17826721                0.42170026                0.58564128                1.48970181               -0.76661117
               4.31192498                1.00237240               12.01731154                0.21330770               -0.39552396                0.09524318                0.20055316                0.23582482                2.10932738                0.61202051
               5.31047586                0.98073521               11.98710506                0.28588177               -0.00466365                0.09140570               -0.09071381                0.36995440                1.48144321                0.26567231
               6.31183170                0.96000343               11.95287999                0.20081435                0.25975628               -0.01468996               -0.39823330                0.33966289                1.34060396               -0.36065622
               7.31567099                0.93733031               11.92019303                0.37027023                0.41080728                0.23433081               -0.69513504                0.43768004                1.25973901                0.55333514
               8.32004785                0.91023618               11.88463920                1.00000000                0.39960255                0.30681452               -0.97571646                0.16686467                0.63041616                0.45678481
               9.32366304                0.87995328               11.83945567                1.00000000                0.39632816                0.38755037               -1.27330075               -0.00165336                0.09165768                0.07453020
              10.32797441                0.84965382               11.79320202                1.00000000                0.43113767                0.46421582               -1.57468720               -0.03135981                0.03336130               -0.46887776
               0.36700951                2.15100532               12.16686975                1.00000000               -0.31821495               -0.37474010                1.22135375               -0.02931283                0.02947437                1.03639669
               1.36382736                2.11097873               12.11383416                1.00000000               -0.27378250               -0.27241724                0.90540083               -0.00732755                0.11701344                0.01462706
               2.36153386                2.07062245               12.06249404                0.36773364               -0.17598004               -0.17944750                0.60693928                0.02568593                0.69439499               -1.05850043
               3.36030776                2.03032300               12.02099294                0.00010000               -1.00175177               -0.16207240                0.29769673                0.89127232                3.51925892               -1.44770104
               4.34149882                2.00543129               12.02624249                0.00010000               -1.12065909                0.25142384                0.34571261                1.71602066                3.63810084               -0.99821227
               5.33789458                1.98249839               11.99371175                0.00010000               -0.11432439                0.05896010               -0.06828592                1.47712121                1.32762825               -0.47041377
               6.33921233                1.95862661               11.95172951                0.00010000                0.48461428               -0.10279654               -0.37337644                1.44706693                2.41470473                0.06827197
               7.34758686                1.93987471               11.94094699                0.00010000                0.57316482               -0.03911070               -0.61473090                1.03363185                2.69075448                0.41267646
               8.35067563                1.91305272               11.90438526                0.42499842                0.30240229                0.29074952               -0.83989968                0.25048296                0.97414537                0.85574391
               9.35363491                1.88365616               11.85887130                1.00000000                0.34502222                0.36853744               -1.13617682                0.04203248                0.35949092                0.37071287
              10.35757608                1.85402468               11.81005681                1.00000000                0.39411682                0.41357995               -1.45446269               -0.01724771                0.19156809               -0.48318967
               0.40625165                3.14738768               12.15430081                1.00000000               -0.27720762               -0.35019999                1.11024736               -0.02844281                0.02777961                1.04968288
               1.40347958                3.10842154               12.09587049                1.00000000               -0.22821452               -0.23662426                0.77160489               -0.00958219                0.02957445               -0.03146197
               2.40168736                3.06901356               12.03740663                0.17404489               -0.10383195               -0.12767607                0.43464840               -0.02609028                0.88387874               -1.20231862
               3.40140294                3.02879621               11.99602112                0.00010000               -0.38086810               -0.00577130                0.13366020                0.88534715                3.61516816               -1.53903229
               4.39407000                3.00740088               11.99237237                0.00010000               -0.72899857                0.16665881                0.02535701                2.22070862                5.03038846               -2.07804436
               5.38682297                2.98191442               11.98111474                0.00010000               -0.53366364                0.06149155               -0.11773121                1.97581261                4.31364993               -1.08484376
               6.38339673                2.95794750               11.96552306                0.00010000               -0.24527279                0.04078814               -0.31591178                1.82511528                3.97684112                0.35597585
               7.38191751                2.93654810               11.94871434                0.00010000               -0.10603344               -0.12063987               -0.49884474                1.33494123                3.76435729                0.22419138
               8.38127606                2.91605117               11.92979807                0.25602836                0.08071065                0.29041753               -0.68416257                0.57529045                2.21766326                1.56221631
               9.38353172                2.88732403               11.88310898                1.00000000                0.28081730                0.33509939               -0.96919869                0.05770509                0.41105560                0.56264125
              10.38689241                2.85792542               11.82810117                1.00000000                0.33606817                0.37805867               -1.32325477               -0.02701352               -0.00717425               -0.37728794
               0.44437292                4.14400132               12.14146789                1.00000000               -0.23630906               -0.32539406                0.99396589               -0.02944558                0.02658459                1.01513045
               1.44200983                4.10624625               12.07757640                1.00000000               -0.18677714               -0.19482341                0.63118029               -0.00917125                0.02514455               -0.05170965
               2.44063738                4.06806893               12.01357932                0.08264311               -0.11912287               -0.06672901                0.26733029                0.02834551                1.32590623               -1.06931126
               3.43962738                4.03020758               11.97568868                0.00010000               -0.39212957                0.34848958               -0.20054782                0.66430584                4.70528295               -0.41436512
               4.43279479                4.00876447               11.97908198                0.00010000               -0.63815831                0.16272832               -0.12364838                1.38957456                6.31474660               -0.75333884
               5.42686421                3.98372822               11.97586147                0.00010000               -0.58569146                0.19876251               -0.17819906                1.29944389                5.79891358               -0.50202709
               6.42108096                3.95944237               11.97104778                0.00010000               -0.53410989                0.18805323               -0.27031938                1.27729475                5.60488455                0.03355608
               7.41618201                3.93746191               11.96603979                0.00010000               -0.48377286                0.14632301               -0.37288224                1.26859733                5.63429615                0.74091771
               8.41140550                3.91886107               11.96364959                0.25423848               -0.16336236                0.22434209               -0.46637580                0.60385438                2.93961052                1.72778851
               9.41291476                3.89035815               11.90639337                1.00000000                0.22137651                0.26874848               -0.80085618                0.03495783                0.09745125                0.51202475
              10.41583303                3.86158586               11.84721477                1.00000000                0.29182687                0.34868593               -1.17948504               -0.02432384                0.00063181               -0.32925739
               0.48117289                5.14087979               12.12802867                1.00000000               -0.19443402               -0.29360925                0.86832420               -0.03277382                0.08019362                0.94947865
               1.47922855                5.10452507               12.05916349                0.83783485               -0.14399721               -0.14669706                0.48668723               -0.01498227                0.13084235               -0.13585072
               2.47829294                5.06767898               11.99123857                0.03848734               -0.26175178               -0.00814337                0.11710493                0.25428255                2.72315242               -1.12046721
               3.47399351                5.03576600               11.97422855                0.00010000               -0.49760479                0.46030176               -0.27509020                0.63761416                5.94614960                0.05956669
               4.46834085                5.01065545               11.97185895                0.00010000               -0.59297847                0.23331021               -0.20326963                1.01701264                6.82452255               -0.36187122
               5.46213394                4.98588967               11.97460903                0.00010000               -0.65659544                0.24160836               -0.19568465                0.98916927                7.01810649               -0.21095437
               6.45520894                4.96170856               11.97852641                0.00010000               -0.71315911                0.24508720               -0.21460291                0.98080931                7.03815785                0.19285608
               7.44787076                4.93947456               11.98410374                0.00010000               -0.73760123                0.20353374               -0.23878044                1.02725583                7.13654942                0.76576239
               8.44045691                4.92053802               11.99233249                0.26629449               -0.31823315                0.12144738               -0.25309293                0.51190846                3.62034166                1.39556998
               9.44150610                4.89269900               11.92966316                0.97899586                0.17467959                0.20239136               -0.63026452                0.02117176                0.04006366                0.48544688
              10.44395050                4.86489914               11.86630199                1.00000000                0.24444088                0.31079221               -1.02442570               -0.02413787                0.00746936               -0.34232536
               0.51642689                6.13812913               12.11371260                1.00000000               -0.15158881               -0.25069247                0.73382151               -0.03556096                0.06831160                0.86683060
               1.51491100                6.10331231               12.03915088                0.70553528               -0.09723962               -0.09480719                0.32235729               -0.02162821                0.16597419               -0.27653775
               2.51448210                6.06790606               11.96647640                0.02409564               -0.27539089                0.05410885               -0.07650435                0.34723484                3.72552667               -1.36556492
               3.50940319                6.03941361               11.96314763                0.00010000               -0.57353612                0.32041842               -0.20560258                0.77287937                7.40609325               -0.64376421
               4.50301138                6.01343067               11.96638568                0.00010000               -0.69043546                0.30858929               -0.21908594                0.87647197                7.87919271               -0.35704446
               5.49559448                5.98856039               11.97497204                0.00010000               -0.79495610                0.30703147               -0.18159801                0.82984325                8.18308786               -0.11125051
               6.48711226                5.96434412               11.98694008                0.00010000               -0.88484006                0.28692329               -0.14449472                0.76689347                8.35156789                0.26029933
               7.47789768                5.94153259               12.00169064                0.00010000               -0.93465153                0.20103095               -0.10370680                0.77769612                8.50974360                0.73769942
               8.46841923                5.92129002               12.01951521                0.28311254               -0.44602992                0.03812388               -0.05233617                0.37620559                4.30024388                1.28912346
               9.46897708                5.89440597               11.95244192                0.90224636                0.12653902                0.14482415               -0.45873025                0.00928532                0.04420965                0.43890665
              10.47095001                5.86780170               11.88514895                1.00000000                0.19729277                0.26894535               -0.87687667               -0.02225542                0.03640030               -0.39564300
               0.55009532                7.13586594               12.09844591                1.00000000               -0.10762653               -0.19947191                0.59172532               -0.03413349                0.03561669                0.79867984
               1.54901906                7.10262893               12.01789876                0.63312589               -0.04794961               -0.04354412                0.15451875               -0.02123225                0.13717967               -0.36314471
               2.54913633                7.06876115               11.93932917                0.02686966               -0.25462882                0.11291900               -0.27709614                0.36683779                4.53489283               -1.55542581
               3.54392648                7.04217437               11.94681897                0.00010000               -0.62064120                0.28754914               -0.27220715                0.78228173                8.92713021               -0.96202420
               4.53672351                7.01682723               11.95902775                0.00010000               -0.80545596                0.37250917               -0.22309781                0.79018852                9.21491486               -0.47424311
               5.52781736                6.99203030               11.97534972                0.00010000               -0.95744471                0.39396825               -0.15256441                0.68587361                9.44228625               -0.10744380
               6.51757461                6.96744703               11.99532206                0.00010000               -1.06692919                0.34793729               -0.06806886                0.55192130                9.63961455                0.25968812
               7.50647878                6.94349518               12.01884236                0.00010000               -1.12334876                0.20501022                0.02903473                0.48194753                9.84773285                0.69809037
               8.49510764                6.92130049               12.04604051                0.30403704               -0.56493290               -0.03147948                0.14157577                0.20602549                4.97565324                1.23236920
               9.49518012                6.89559549               11.97473770                0.86605001                0.08031499                0.09356002               -0.29797921                0.00269728                0.03573222                0.38685145
              10.49671394                6.87027804               11.90309420                1.00000000                0.15338169                0.22679510               -0.73980766               -0.02171318                0.02248351               -0.46346625
               0.58221826                8.13413970               12.08259809                1.00000000               -0.06271073               -0.14685429                0.44724507               -0.03178881                0.01907542                0.76474209
               1.58159115                8.10244142               11.99614689                0.61340886                0.00275773                0.00622892               -0.01415689               -0.01586118                0.08089904               -0.40168556
               2.58227341                8.07016444               11.91089638                0.03606100               -0.23042047                0.16547430               -0.48057547                0.37400312                5.30060684               -1.57733024
               3.57698274                8.04516460               11.92897110                0.00010000               -0.66570947                0.33529191               -0.36392431                0.74640428               10.47308305               -0.93708646
               4.56895922                8.02088086               11.95070093                0.00010000               -0.91452941                0.45033744               -0.24196927                0.67056584               10.60529344               -0.45353153
               5.55869215                7.99643976               11.97515123                0.00010000               -1.11367106                0.47860365               -0.12431974                0.52215392               10.72031514               -0.10130948
               6.54668580                7.97130286               12.00305363                0.00010000               -1.25044948                0.44375873                0.00490602                0.32375118               10.91469081                0.21553021
               7.53368316                7.94563279               12.03517286                0.00535297               -1.31231887                0.25591643                0.15405184                0.11837875               11.19014298                0.59261590
               8.52043942                7.92066043               12.07204690                0.32958754               -0.68148451               -0.09344193                0.32714068               -0.00843245                5.65756511                1.14145269
               9.52005347                7.89627717               11.99639986                0.87437353                0.03555998                0.04208353               -0.13853632               -0.00055755                0.02203277                0.35615192
              10.52115062                7.87233760               11.92047929                1.00000000                0.10971511                0.18511469               -0.60111014               -0.02121427                0.01374178               -0.49952516
               0.61285609                9.13292886               12.06650775                1.00000000               -0.01789993               -0.09847705                0.30337065               -0.02889477                0.00880759                0.63548169
               1.61267709                9.10275351               11.97413979                0.63551864                0.05185646                0.05671299               -0.18246304               -0.00806629                0.09515219               -0.36446272
               2.61389322                9.07207064               11.88348422                0.03298701               -0.22694725                0.21199070               -0.67377567                0.39313571                6.16631946               -1.12896731
               3.60813815                9.04888021               11.91271585                0.00010000               -0.75167788                0.47317317               -0.43719148                0.56497318               11.99158760               -0.59608571
               4.59885966                9.02583398               11.94287316                0.00010000               -1.01498562                0.51745948               -0.26673467                0.43823901               11.87958524               -0.27087393
               5.58783843                9.00160237               11.97457254                0.00010000               -1.20015299                0.52971157               -0.10662552                0.31058055               11.90330204               -0.05637898
               6.57485660                8.97632221               12.00954456                0.00010000               -1.41748242                0.51463042                0.06478329                0.12462748               12.11363234                0.13230092
               7.55948879                8.94861350               12.04955302                0.01683348               -1.52809987                0.43707471                0.26238131               -0.16532139               12.52504410                0.35384198
               8.54429461                8.91943166               12.09669472                0.35833729               -0.79984951               -0.14226382                0.49770493               -0.29000354                6.43069216                0.78195743
               9.54349180                8.89643716               12.01799142                0.93057184               -0.00629080               -0.00811750                0.01604608               -0.00512542                0.05724414                0.31227674
              10.54416879                8.87398034               11.93754918                0.96779602                0.06769937                0.14493878               -0.46688219               -0.02161417               -0.02369351               -0.42291212
               0.64199107               10.13217015               12.04795600                1.00000000                0.02969749               -0.07587041                0.15700631                0.05405065                0.35777475                0.51763581
               1.64228804               10.10357568               11.95318202                0.84793043                0.10091771                0.08221779               -0.34176377                0.07280006                0.64984077               -0.31670521
               2.64400942               10.07440425               11.86426180                0.52245280               -0.38845911                0.23336123               -0.82568065                0.56423909                7.20603858               -0.73428925
               3.63451886               10.05462806               11.90082659                0.35883916               -0.95037899                0.57478506               -0.50575705                0.47936124               13.09678905               -0.26730511
               4.62500184               10.03123005               11.93670397                0.35378845               -1.00516603                0.53960645               -0.30405847                0.23451450               12.87413620               -0.09626901
               5.61441554               10.00703399               11.97376128                0.37568034               -1.14173136                0.54316195               -0.10650988                0.17598189               12.88856825                0.01872432
               6.60216722                9.98159547               12.01416591                0.42179188               -1.35741279                0.52732664                0.10431712                0.09807612               13.13723205                0.11942190
               7.58726729                9.95437428               12.06010999                0.51312357               -1.76757573                0.57607800                0.34426922               -0.41116597               13.69383193                0.24687645
               8.56681570                9.91781515               12.11541832                0.69234599               -1.09325017               -0.16165016                0.63153827               -0.66086347                7.35157102                0.49466199
               9.56540228                9.89611482               12.03867947                1.00000000               -0.05918624               -0.03223337                0.15928186                0.06210986                0.46800404                0.27282680
              10.56563198                9.87523638               11.95628181                1.00000000                0.02296949                0.12560408               -0.32833496                0.05847437                0.19155921               -0.33204047
               0.32971484                0.18288320               13.21139222                1.00000000               -0.37834048               -0.41705337                1.44682240               -0.07385533               -0.57563227                0.61788731
               1.32593143                0.13558893               13.16022549                1.00000000               -0.31224346               -0.32934335                1.15397424               -0.05708025               -0.71250617                0.02613789
               2.32346997                0.08807495               13.10622747                1.00000000               -0.16795123               -0.24401864                0.83812984               -0.04191201               -0.64643686               -0.18612665
               3.32257241                0.04160131               13.05632564                0.61676612                0.31248803               -0.18622899                0.54493142                0.44335946                0.33281477               -0.43914318
               4.32971973                0.00637794               13.02186880                0.67997621                0.48336696               -0.10250716                0.23953515               -0.02422078                0.95454448                0.05646367
               5.33223975               -0.02093670               12.98432989                0.75121947                0.16763788                0.01036980               -0.07980570                0.00656914                0.60157298                0.03514256
               6.33307249               -0.04708892               12.94304516                0.73870594                0.04345381                0.10754839               -0.40919935                0.00868678                0.44012455               -0.02335965
               7.33310882               -0.07509097               12.90237535                0.84181059                0.04360534                0.21095025               -0.74851496                0.05788422                0.20713218                0.03325564
               8.33394459               -0.10755730               12.85644479                1.00000000                0.19399743                0.32768418               -1.07230298                0.04378153               -0.22273204                0.35395618
               9.33698877               -0.14279279               12.80726881                1.00000000                0.37454015                0.39941310               -1.38437928               -0.05089072               -0.39410846                0.01935071
              10.34143540               -0.17821378               12.75806085                1.00000000                0.44466240                0.48451557               -1.68386486               -0.07859118               -0.40286028               -0.42560759
               0.37627055                1.17871266               13.19300154                1.00000000               -0.35057959               -0.39802298                1.31429510               -0.03160624               -0.06768589                0.84306032
               1.37276475                1.13229550               13.14141373                1.00000000               -0.31129461               -0.30705326                1.02261750               -0.01243633               -0.01654101                0.04157744
               2.37004466                1.08563476               13.09078142                0.77110570               -0.24551230               -0.22054614                0.72313850                0.02241174                0.21375270               -0.52427112
               3.36785451                1.03973902               13.04378561                0.09752518               -0.46490642               -0.17838947                0.42502809                0.61785486                1.51664454               -0.80321324
               4.36074653                1.00535287               13.01930961                0.23088078               -0.44078205                0.08857439                0.19914869                0.15758196                2.15196563                0.69521385
               5.35903887                0.97916699               12.98621128                0.30675843               -0.02550197                0.08966793               -0.08826562                0.33260217                1.48872923                0.28280292
               6.36023649                0.95398657               12.94894285                0.21707467                0.24414954               -0.00432890               -0.38975835                0.31666990                1.34696689               -0.36471570
               7.36392186                0.92701853               12.91330656                0.38229046                0.39984137                0.22457211               -0.68246012                0.42320387                1.27677426                0.55920909
               8.36823332                0.89571954               12.87495094                1.00000000                0.39431233                0.30316457               -0.96207205                0.16723067                0.64318324                0.47810867
               9.37180811                0.86120134               12.82680264                1.00000000                0.39185773                0.38284233               -1.25734334               -0.00151534                0.09395368                0.07552518
              10.37607047                0.82663138               12.77754691                1.00000000                0.42623676                0.45736399               -1.55622160               -0.03084898                0.03361089               -0.50482152
               0.42191704                2.17492274               13.17898642                1.00000000               -0.31564373               -0.36562294                1.20316225               -0.02820320                0.02960201                1.08670310
               1.41876061                2.12944787               13.12283413                1.00000000               -0.27211826               -0.26837394                0.89489909               -0.00537424                0.12500486                0.02163229
               2.41647468                2.08366403               13.06854118                0.38282571               -0.17746026               -0.18087630                0.60200239                0.03434048                0.70516119               -1.08990605
               3.41521140                2.03803352               13.02397454                0.00010000               -1.15156409               -0.16232826                0.29801042                0.92036091                3.68264906               -1.50495650
               4.39344340                2.00814943               13.02929196                0.00010000               -1.24766546                0.25031554                0.28003896                1.78247206                3.82859603               -1.03727378
               5.39025809                1.98085665               12.99297574                0.00010000               -0.09445226                0.04275872               -0.07652870                1.54177510                1.34984133               -0.47182648
               6.39155435                1.95282450               12.94802767                0.00010000                0.47909175               -0.11388348               -0.36817325                1.47412616                2.50181053                0.07856306
               7.39983993                1.92940047               12.93481836                0.00010000                0.57760221               -0.05521977               -0.61045801                1.04905672                2.79195239                0.44485116
               8.40310640                1.89850599               12.89602884                0.43153872                0.31033516                0.28942364               -0.83191381                0.26296854                1.04456417                0.89826200
               9.40604663                1.86486405               12.84756811                1.00000000                0.34259735                0.36537172               -1.12482425                0.04433420                0.38297741                0.38927737
              10.40995834                1.83093350               12.79558334                1.00000000                0.39117124                0.40703280               -1.44047362               -0.01618447                0.20374941               -0.51869611
               0.46665623                3.17140020               13.16530387                1.00000000               -0.27402482               -0.34097109                1.09159764               -0.02582282                0.02921606                1.09650609
               1.46391598                3.12692802               13.10354028                1.00000000               -0.22552088               -0.23360869                0.76250733               -0.00631748                0.03149757               -0.03021588
               2.46214581                3.08201724               13.04176246                0.18678320               -0.10698269               -0.13166287                0.43559001               -0.01275952                0.90271362               -1.25541953
               3.46177633                3.03649246               12.99737782                0.00010000               -0.42864859               -0.03083516                0.13645167                0.94500986                3.74374494               -1.69452671
               4.45357284                3.01035918               12.99257156                0.00010000               -0.82885173                0.17494534                0.01651007                2.39129824                5.24603186               -2.25658915
               5.44519929                2.98002217               12.97989014                0.00010000               -0.61988192                0.05545799               -0.12539733                2.09256840                4.50557491               -1.12725765
               6.44117520                2.95170890               12.96238581                0.00010000               -0.29888924                0.01497760               -0.31174314                1.91385377                4.14938902                0.38187061
               7.43922151                2.92591413               12.94376721                0.00010000               -0.15730497               -0.12807897               -0.49131448                1.40382524                3.93857204                0.28283229
               8.43802910                2.90150801               12.92299845                0.25484090                0.05228860                0.29068126               -0.67726541                0.59980501                2.33661147                1.64374039
               9.44026728                2.86850877               12.87345759                1.00000000                0.27893951                0.33267377               -0.96169341                0.06060430                0.44648409                0.59555108
              10.44360789                2.83477203               12.81491789                1.00000000                0.33406126                0.37318257               -1.31401589               -0.02608202               -0.00535143               -0.39956948
               0.51034496                4.16810332               13.15130353                1.00000000               -0.23277338               -0.31663584                0.97446337               -0.02690621                0.02777957                1.05423829
               1.50801722                4.12477569               13.08385174                1.00000000               -0.18449540               -0.19275331                0.62383277               -0.00631076                0.02530117               -0.05570151
               2.50665505                4.08103077               13.01628367                0.09343183               -0.11237833               -0.07092848                0.27212105                0.02110035                1.27490790               -1.11149044
               3.50576966                4.03741682               12.97379870                0.00010000               -0.44576998                0.32505958               -0.17621609                0.70265761                4.86792549               -0.54335544
               4.49773965                4.01164833               12.97782312                0.00010000               -0.75049579                0.16105075               -0.12878051                1.47081223                6.69175918               -0.83074696
               5.49075974                3.98196581               12.97408838                0.00010000               -0.69000934                0.21084383               -0.17696383                1.36397198                6.10174266               -0.53369847
               6.48393946                3.95312406               12.96837493                0.00010000               -0.63212131                0.19112956               -0.26485241                1.32763349                5.88535215                0.05687468
               7.47811732                3.92683889               12.96234503                0.00010000               -0.57158042                0.15222352               -0.36674126                1.31563166                5.91199233                0.80513771
               8.47250786                3.90431962               12.95899155                0.25094775               -0.20613088                0.22468628               -0.46557543                0.62617590                3.10147956                1.83320591
               9.47399470                3.87151753               12.89840278                1.00000000                0.22011647                0.26714064               -0.79835545                0.03630895                0.11933551                0.54443076
              10.47691019                3.83839715               12.83544237                1.00000000                0.29154868                0.34730288               -1.17635017               -0.02312419                0.00063159               -0.34011481
               0.55277335                5.16506749               13.13660279                1.00000000               -0.19110391               -0.28496470                0.84791223               -0.03046865                0.08624186                0.97950032
               1.55086231                5.12307295               13.06400289                0.82735725               -0.14233300               -0.14514278                0.48093189               -0.01236039                0.14241215               -0.15156633
               2.54992669                5.08059867               12.99246328                0.04739321               -0.28251985               -0.01262914                0.12585648                0.25303734                2.70650599               -1.17500516
               3.54521191                5.04299365               12.97113722                0.00010000               -0.57433008                0.48213840               -0.34450915                0.64219841                6.18913561                0.12045746
               4.53844009                5.01358019               12.96980344                0.00010000               -0.71044530                0.24243790               -0.20969929                1.07716267                7.28463493               -0.36972879
               5.53100301                4.98423905               12.97267210                0.00010000               -0.77926458                0.25733912               -0.19311429                1.02398652                7.41475400               -0.20719082
               6.52285480                4.95553149               12.97641471                0.00010000               -0.83322136                0.26344429               -0.20869861                1.00887112                7.41566540                0.22605654
               7.51433858                4.92895860               12.98173683                0.00010000               -0.84904099                0.21740164               -0.23511693                1.05890957                7.51415534                0.83192456
               8.50587398                4.90600174               12.98978099                0.26227517               -0.37113296                0.12246526               -0.25777369                0.52656644                3.82119335                1.49124913
               9.50691592                4.87385159               12.92332002                0.96370698                0.17560934                0.20358091               -0.63804487                0.02134530                0.05335775                0.52041792
              10.50938616                4.84171809               12.85601924                1.00000000                0.24702424                0.31353203               -1.03188287               -0.02302107                0.01362589               -0.35087032
               0.59372465                6.16240402               13.12093904                1.00000000               -0.14858178               -0.24220393                0.71315679               -0.03323711                0.06845868                0.88886856
               1.59223884                6.12187284               13.04235971                0.69693125               -0.09647769               -0.09403183                0.31903927               -0.01845979                0.17185140               -0.30327367
               2.59179510                6.08077819               12.96579210                0.03076541               -0.33033684                0.04852137               -0.06277014                0.37314047                3.86006901               -1.44417018
               3.58563210                6.04705959               12.96099515                0.00010000               -0.68787966                0.35297878               -0.23387654                0.80399117                7.74735549               -0.54921336
               4.57803751                6.01649709               12.96415865                0.00010000               -0.81719614                0.32946930               -0.22954016                0.92307332                8.32052772               -0.32067590
               5.56928818                5.98711260               12.97317755                0.00010000               -0.93200895                0.33395024               -0.17917794                0.86146740                8.64666990               -0.08144400
               6.55939733                5.95839294               12.98552452                0.00010000               -1.02314605                0.31526467               -0.13973959                0.78407945                8.81209444                0.30341928
               7.54882526                5.93118692               13.00066021                0.00010000               -1.06255638                0.22107830               -0.10287596                0.79305948                8.97414795                0.80170701
               8.53814620                5.90676892               13.01894471                0.27898624               -0.50600014                0.03992400               -0.06201248                0.38274693                4.54106823                1.37463955
               9.53870525                5.87558915               12.94779963                0.88778447                0.12852777                0.14823740               -0.47008892                0.01017853                0.05249707                0.47179629
              10.54071676                5.84466779               12.87630505                1.00000000                0.20115028                0.27438307               -0.89115393               -0.02172967                0.03855879               -0.40895286
               0.63317098                7.16022341               13.10425388                1.00000000               -0.10520271               -0.19189424                0.57177763               -0.03184886                0.03427972                0.81581530
               1.63211895                7.12119232               13.01945123                0.62583917               -0.04841143               -0.04380045                0.15541042               -0.01772225                0.13810002               -0.39143177
               2.63220275                7.08156909               12.93667987                0.03090686               -0.32730589                0.10548142               -0.25571789                0.41152407                4.74693393               -1.63765548
               3.62557283                7.05005322               12.94410691                0.00010000               -0.76771015                0.31099876               -0.27615443                0.85577216                9.38505755               -0.95287073
               4.61684855                7.02016958               12.95680167                0.00010000               -0.96181634                0.40930399               -0.22540177                0.85462830                9.71701518               -0.43485748
               5.60633651                6.99091805               12.97384461                0.00010000               -1.11932418                0.43825096               -0.15024779                0.72222435                9.96423462               -0.06812751
               6.59446206                6.96183678               12.99466212                0.00010000               -1.22563566                0.39038174               -0.06499858                0.56154842               10.17309615                0.30462850
               7.58182379                6.93338017               13.01912415                0.00010000               -1.26676868                0.23294870                0.02685223                0.47797964               10.39188741                0.75631553
               8.56912669                6.90680022               13.04738265                0.30020944               -0.63015857               -0.02916996                0.12734879                0.20015621                5.25210566                1.31032890
               9.56922062                6.87681633               12.97168984                0.85161546                0.08337969                0.09761748               -0.31205015                0.00344557                0.03830115                0.41316210
              10.57079428                6.84720575               12.89562783                1.00000000                0.15736615                0.23366358               -0.75502244               -0.02081571                0.02404059               -0.48004723
               0.67114986                8.15856614               13.08696906                1.00000000               -0.06111570               -0.14068293                0.42893883               -0.02976203                0.01737476                0.78067430
               1.67053871                8.12099683               12.99604046                0.60689424                0.00074054                0.00469910               -0.00811076               -0.01278725                0.07654071               -0.42973512
               2.67116467                8.08288781               12.90626545                0.03707526               -0.31958236                0.15565461               -0.44949847                0.43803149                5.57322042               -1.65466891
               3.66414706                8.05327956               12.92536612                0.00010000               -0.84497129                0.36885671               -0.35959195                0.85119327               11.04178947               -0.93386791
               4.65426525                8.02468317               12.94829254                0.00010000               -1.10407984                0.51066728               -0.24077757                0.74653653               11.18573928               -0.42459202
               5.64206546                7.99587762               12.97392379                0.00010000               -1.30495350                0.54398756               -0.12214356                0.55911362               11.30788150               -0.06674424
               6.62816618                7.96620058               13.00311212                0.00010000               -1.43220251                0.50549571                0.00600356                0.32378079               11.51738961                0.25233101
               7.61342141                7.93584589               13.03668822                0.00515906               -1.47265092                0.29714961                0.14885212                0.08847483               11.81169417                0.63776200
               8.59871316                7.90618552               13.07522622                0.32650046               -0.75263895               -0.09019734                0.30938312               -0.03226213                5.97144452                1.20736374
               9.59836863                7.87754150               12.99492068                0.85952032                0.04042243                0.04673421               -0.15711902               -0.00132298                0.02079602                0.37966413
              10.59952161                7.84934106               12.91436261                1.00000000                0.11529755                0.19392439               -0.62234168               -0.02063972                0.01381133               -0.51798030
               0.70771435                9.15740975               13.06945036                1.00000000               -0.01728273               -0.09345453                0.28714297               -0.02738648                0.00568529                0.64995536
               1.70754153                9.12128630               12.97238197                0.62887976                0.04831445                0.05349270               -0.17065694               -0.00632053                0.08949286               -0.38746610
               2.70868064                9.08468219               12.87697814                0.03029814               -0.33700929                0.19982798               -0.63257717                0.48725630                6.50462227               -1.18017140
               3.70080134                9.05743036               12.90834724                0.00010000               -0.97497101                0.54838632               -0.43386535                0.66987155               12.66120984               -0.58291605
               4.68918122                9.03038292               12.94019919                0.00010000               -1.23999845                0.59955087               -0.26640907                0.49896131               12.52880498               -0.25249933
               5.67600137                9.00179780               12.97351089                0.00010000               -1.41059118                0.61056504               -0.10559406                0.33469339               12.55751711               -0.03591843
               6.66096940                8.97194670               13.01019108                0.00010000               -1.61965137                0.59146884                0.06407179                0.11792202               12.78591053                0.15296624
               7.64360835                8.93932316               13.05213630                0.01744200               -1.70917782                0.50491149                0.25435929               -0.20950346               13.22376608                0.37695954
               8.62678584                8.90499627               13.10155948                0.35641492               -0.87848630               -0.13600781                0.47662578               -0.33700995                6.78763557                0.82119720
               9.62603862                8.87775102               13.01805304                0.91567212               -0.00017440               -0.00280934               -0.00461973               -0.00736347                0.05777602                0.32905604
              10.62678236                8.85108424               12.93276768                0.96979229                0.07437365                0.15479593               -0.49192870               -0.02098899               -0.02414144               -0.43915179
               0.74284904               10.15669705               13.04945078                1.00000000                0.02908212               -0.07127043                0.14376857                0.05043188                0.36203772                0.53002644
               1.74313986               10.12206668               12.94985745                0.84512699                0.09583508                0.07803836               -0.32515548                0.06919959                0.66127649               -0.33447411
               2.74476574               10.08688437               12.85626019                0.52043244               -0.56480535                0.22021876               -0.78016955                0.71753996                7.60688692               -0.76343789
               3.73184375               10.06424729               12.89574943                0.35965255               -1.24443537                0.68169307               -0.50391342                0.59373176               13.84956462               -0.25823033
               4.71987703               10.03667419               12.93365003                0.35406947               -1.23240967                0.62912641               -0.30380131                0.26166223               13.58853075               -0.08785522
               5.70719556               10.00808892               12.97269990                0.37560406               -1.34388867                0.62911159               -0.10526061                0.18720688               13.61332284                0.02897918
               6.69299926                9.97802995               13.01520566                0.42157627               -1.55068961                0.60832582                0.10313384                0.09574627               13.88306800                0.13053753
               7.67618177                9.94594412               13.06350418                0.51377563               -1.97270777                0.66209637                0.33448305               -0.47088731               14.46995651                0.25995179
               8.65354510                9.90346537               13.12160365                0.69200332               -1.20241848               -0.15309070                0.60626555               -0.74701470                7.75862699                0.51511312
               9.65213340                9.87748531               13.04016621                0.99380055               -0.05548580               -0.02657075                0.13737893                0.05805863                0.49083274                0.28444871
              10.65243539                9.85243698               12.95288606                1.00000000                0.03019906                0.13527437               -0.35646969                0.06047034                0.20675608               -0.34363069
               0.37643086                0.20826013               14.22576831                1.00000000               -0.37405498               -0.41106565                1.42947082               -0.07350342               -0.60544929                0.64584885
               1.37269031                0.15534931               14.17170457                1.00000000               -0.30877018               -0.32565246                1.14214777               -0.05752124               -0.75372033                0.03188321
               2.37025546                0.10222523               14.11459294                1.00000000               -0.16552616               -0.24218587                0.83422084               -0.04162439               -0.68836027               -0.18847902
               3.36937979                0.05018556               14.06178504                0.61927522                0.31555351               -0.18610619                0.54556990                0.45856910                0.29377762               -0.47072192
               4.37656653                0.00977409               14.02427778                0.68628967                0.48009176               -0.09205665                0.24219480               -0.03155269                0.90212430                0.07055443
               5.37898162               -0.02238966               13.98356289                0.76046249                0.16023388                0.01350810               -0.07387601                0.00774453                0.54047639                0.04230671
               6.37977121               -0.05334217               13.93901534                0.74629820                0.04137007                0.10687794               -0.39745971                0.00947817                0.37073789               -0.02813598
               7.37980902               -0.08600922               13.89497748                0.84693862                0.04210034                0.20807057               -0.73165376                0.05520659                0.14139588                0.03573120
               8.38061321               -0.12301675               13.84581915                1.00000000                0.18891777                0.32310580               -1.05307526                0.04190784               -0.27289219                0.36569265
               9.38358738               -0.16277551               13.79353140                1.00000000                0.36749196                0.39399928               -1.36317619               -0.05048212               -0.43090801                0.01814947
              10.38796305               -0.20274391               13.74134133                1.00000000                0.43756710                0.47788093               -1.65995540               -0.07733675               -0.43298646               -0.45540572
               0.42860665                1.20414948               14.20605983                1.00000000               -0.34740937               -0.39115425                1.29837833               -0.03190513               -0.07353750                0.88060827
               1.42513255                1.15209279               14.15158417                1.00000000               -0.30927773               -0.30322470                1.01179581               -0.01318616               -0.02637124                0.04889631
               2.42242109                1.09980337               14.09799040                0.78261800               -0.24707533               -0.21909668                0.71823702                0.02364619                0.20117615               -0.52926760
               3.42019104                1.04832450               14.04804466                0.10769173               -0.49412394               -0.17769484                0.42587613                0.64401677                1.54011091               -0.83791338
               4.41253861                1.00885353               14.02129452                0.24620875               -0.47869212                0.08248858                0.19788898                0.09619670                2.19021227                0.75652969
               5.41061720                0.97774542               13.98533975                0.32529127               -0.04314228                0.08863370               -0.08627195                0.30235740                1.49589106                0.29837522
               6.41167577                0.94772661               13.94508482                0.23183483                0.22905884                0.00485427               -0.38249745                0.29803963                1.35359690               -0.36816098
               7.41519838                0.91607148               13.90654383                0.39379235                0.38698332                0.21601529               -0.67065139                0.40517063                1.29257017                0.56442731
               8.41941543                0.88021431               13.86539776                1.00000000                0.38738796                0.29936039               -0.94888169                0.16484757                0.65471029                0.49959330
               9.42294614                0.84116449               13.81430880                1.00000000                0.38713276                0.37811292               -1.24163388               -0.00134173                0.09592853                0.07725283
              10.42715809                0.80203490               13.76207759                1.00000000                0.42119495                0.45118486               -1.53770994               -0.03008149                0.03374108               -0.54018132
               0.47990613                2.20043705               14.19093299                1.00000000               -0.31334358               -0.35743923                1.18716529               -0.02739738                0.03006793                1.13332932
               1.47677270                2.14928482               14.13173214                1.00000000               -0.27047295               -0.26465878                0.88501809               -0.00376804                0.13243333                0.02817276
               2.47449667                2.09784329               14.07453409                0.39701260               -0.17813662               -0.18203441                0.59620163                0.04149271                0.71450218               -1.11871946
               3.47320996                2.04663166               14.02695315                0.00010000               -1.27135658               -0.16214909                0.29693961                0.94291303                3.81710169               -1.55964873
               4.44906954                2.01142387               14.03184327                0.00010000               -1.35271349                0.24422026                0.24015306                1.83455277                4.00084335               -1.07211809
               5.44615569                1.97938301               13.99218118                0.00010000               -0.08318044                0.02556022               -0.08113928                1.59170289                1.38785369               -0.47381788
               6.44740593                1.94675491               13.94436605                0.00010000                0.46345214               -0.12444755               -0.36493323                1.48798723                2.58421830                0.09268166
               7.45542474                1.91831108               13.92873783                0.00010000                0.57056144               -0.06967066               -0.60566053                1.05467402                2.89292116                0.48064084
               8.45881716                1.88297046               13.88774698                0.43825406                0.31576086                0.28744809               -0.82491190                0.26890681                1.11560661                0.94293872
               9.46173995                1.84478675               13.83637482                1.00000000                0.34017181                0.36179483               -1.11422937                0.04525776                0.40711059                0.40947865
              10.46562060                1.80627979               13.78124734                1.00000000                0.38806438                0.40200498               -1.42703895               -0.01536155                0.21615240               -0.55339940
               0.53036315                3.19700069               14.17613276                1.00000000               -0.27122075               -0.33249403                1.07529548               -0.02380965                0.03108218                1.13897127
               1.52765094                3.14679961               14.11112064                1.00000000               -0.22295253               -0.23076039                0.75384942               -0.00374957                0.03423850               -0.02930732
               2.52590410                3.09616268               14.04611843                0.19933910               -0.10911061               -0.13524983                0.43517346               -0.00130967                0.91871368               -1.30369913
               3.52546873                3.04508152               13.99875015                0.00010000               -0.47128914               -0.05252983                0.13724595                0.99058601                3.86082876               -1.83513887
               4.51647832                3.01373793               13.99270257                0.00010000               -0.91742589                0.17468952                0.01151544                2.52229283                5.44997832               -2.40435714
               5.50712021                2.97825662               13.97860680                0.00010000               -0.69854403                0.04446419               -0.12980818                2.18456444                4.69486288               -1.16046873
               6.50250744                2.94523765               13.95928820                0.00010000               -0.35219498               -0.01019718               -0.30799909                1.97734372                4.32212228                0.41307051
               7.50007632                2.91467807               13.93888805                0.00010000               -0.20947685               -0.13580200               -0.48528917                1.45530527                4.10924034                0.34769579
               8.49831790                2.88596327               13.91625276                0.25404482                0.02328244                0.28860982               -0.67298674                0.61412453                2.45426873                1.72838072
               9.50054196                2.84840038               13.86387511                1.00000000                0.27734437                0.32987911               -0.95539735                0.06112154                0.48203787                0.63048883
              10.50386479                2.81007500               13.80182086                1.00000000                0.33228248                0.37012122               -1.30585356               -0.02524448               -0.00353762               -0.42192536
               0.57983209                4.19378717               14.16095716                1.00000000               -0.22963780               -0.30832033                0.95745730               -0.02503670                0.02953620                1.08828958
               1.57753572                4.14466961               14.09005306                1.00000000               -0.18217584               -0.19069189                0.61636921               -0.00417561                0.02624260               -0.06017227
               2.57618858                4.09513830               14.01902175                0.10399901               -0.10446428               -0.07461200                0.27453060                0.01480407                1.23029060               -1.15002045
               3.57544643                4.04558107               13.97216436                0.00010000               -0.49241430                0.29485907               -0.15089261                0.73733453                5.01316654               -0.70534051
               4.56634029                4.01491766               13.97650637                0.00010000               -0.85495845                0.15937062               -0.13388022                1.53557888                7.04584192               -0.90254284
               5.55834726                3.98027229               13.97232219                0.00010000               -0.79044661                0.22000309               -0.17629776                1.41654212                6.40178233               -0.55600315
               6.55053136                3.94655097               13.96575073                0.00010000               -0.72710164                0.19212215               -0.26049164                1.36364123                6.16215555                0.08588551
               7.54380523                3.91559504               13.95870497                0.00010000               -0.65770096                0.15598959               -0.36207169                1.34514796                6.18424361                0.87320529
               8.53737734                3.88874265               13.95433808                0.24810068               -0.24772868                0.22232862               -0.46576140                0.63844873                3.26125889                1.94027951
               9.53885065                3.85138433               13.89042626                1.00000000                0.21945693                0.26550661               -0.79732329                0.03662950                0.14178220                0.57664124
              10.54176648                3.81368221               13.82368776                1.00000000                0.29158233                0.34720299               -1.17478957               -0.02222255                0.00041465               -0.35292801
               0.62809753                5.19083429               14.14498692                1.00000000               -0.18812247               -0.27658743                0.83018147               -0.02871862                0.09234411                1.00445913
               1.62621630                5.14298578               14.06878213                0.81756659               -0.14043994               -0.14355586                0.47439661               -0.01022931                0.15418145               -0.16736504
               2.62528873                5.09467044               13.99375570                0.05623808               -0.28901198               -0.01661201                0.13052444                0.24261889                2.64501244               -1.22508259
               3.62043606                5.05097870               13.96733837                0.00010000               -0.63950305                0.49392958               -0.40949222                0.63961119                6.41135075                0.15393919
               4.61249867                5.01692535               13.96766496                0.00010000               -0.83091589                0.25506339               -0.21867346                1.12886174                7.76817677               -0.37850264
               5.60381775                4.98265668               13.97074674                0.00010000               -0.90205770                0.27433512               -0.19270921                1.04847466                7.80877982               -0.19930363
               6.59445751                4.94908010               13.97435244                0.00010000               -0.95150779                0.28070647               -0.20462734                1.02406499                7.78798387                0.26335465
               7.58478759                4.91779786               13.97940140                0.00010000               -0.95799639                0.22921801               -0.23281521                1.07424797                7.88388612                0.90092571
               8.57529759                4.89040984               13.98717702                0.25873819               -0.42262968                0.12192467               -0.26322612                0.53182435                4.01783783                1.58811778
               9.57633500                4.85371051               13.91690226                0.94762054                0.17634995                0.20438707               -0.64517151                0.02126232                0.06689712                0.55490247
              10.57882459                4.81701906               13.84566433                1.00000000                0.24895888                0.31659234               -1.03844659               -0.02195270                0.02056448               -0.36149868
               0.67495474                6.18825542               14.12797574                1.00000000               -0.14597651               -0.23410266                0.69565315               -0.03125768                0.06845039                0.90647038
               1.67349497                6.14179850               14.04553166                0.68897956               -0.09533532               -0.09331172                0.31496981               -0.01553019                0.17759357               -0.32882331
               2.67304803                6.09480606               13.96522100                0.03755718               -0.37556130                0.04321283               -0.05375975                0.38958801                3.96235521               -1.51580684
               3.66598375                6.05545966               13.95847010                0.00010000               -0.79042472                0.38836478               -0.27936243                0.81413216                8.06536534               -0.42435477
               4.65723954                6.02001892               13.96179488                0.00010000               -0.94108729                0.35354237               -0.24509033                0.95633895                8.76993957               -0.28167236
               5.64716200                5.98575900               13.97138848                0.00010000               -1.06840291                0.36324076               -0.18000857                0.87850165                9.10965224               -0.04940983
               6.63587148                5.95216510               13.98414528                0.00010000               -1.16007788                0.34359524               -0.13720805                0.78599450                9.26633294                0.34888839
               7.62396045                5.92017940               13.99963312                0.00010000               -1.18851532                0.23978057               -0.10340760                0.79122250                9.42933530                0.86766772
               8.61210117                5.89118115               14.01827497                0.27535143               -0.56468803                0.04078631               -0.07217501                0.37895705                4.77776745                1.46137773
               9.61266668                5.85547207               13.94304014                0.87297269                0.13045825                0.15135826               -0.48160836                0.00994409                0.06077501                0.50592667
              10.61471034                5.82001406               13.86732587                1.00000000                0.20436550                0.28002414               -0.90411021               -0.02109193                0.03998325               -0.42241012
               0.72038622                7.18615223               14.10988146                1.00000000               -0.10311596               -0.18493591                0.55530790               -0.02985781                0.03311022                0.82921530
               1.71935506                7.14111954               14.02100697                0.61918205               -0.04834473               -0.04412570                0.15520946               -0.01434657                0.13921894               -0.41746026
               2.71941933                7.09553470               13.93421481                0.03527422               -0.39246111                0.09833709               -0.23972857                0.44952895                4.93566012               -1.71096814
               3.71150584                7.05874599               13.94129588                0.00010000               -0.90466093                0.33936248               -0.29252337                0.91345930                9.81676220               -0.92492178
               4.70132611                7.02399619               13.95451971                0.00010000               -1.11321167                0.44862849               -0.23410067                0.90261500               10.21268544               -0.38848697
               5.68924161                6.98992150               13.97234477                0.00010000               -1.27845552                0.48397959               -0.15129549                0.74120045               10.48092479               -0.02713273
               6.67575700                6.95595200               13.99402209                0.00010000               -1.38228071                0.43277132               -0.06415477                0.55348287               10.69909963                0.35076990
               7.66159599                6.92259347               14.01937940                0.00010000               -1.40864706                0.25982360                0.02339820                0.45580339               10.92607746                0.81595879
               8.64758406                6.89122557               14.04858749                0.29682505               -0.69475122               -0.02751355                0.11345514                0.18394477                5.52456833                1.38985297
               9.64770097                6.85673768               13.96849669                0.83719576                0.08673635                0.10175901               -0.32705926                0.00301467                0.04154343                0.44077332
              10.64931878                6.82261954               13.88799375                1.00000000                0.16178159                0.24120427               -0.77214339               -0.02018177                0.02540827               -0.49670590
               0.76442296                8.18455670               14.09117687                1.00000000               -0.05973854               -0.13529928                0.41416379               -0.02805380                0.01598986                0.79341774
               1.76382558                8.14091598               13.99598468                0.60105861               -0.00054014                0.00338232               -0.00395976               -0.00998952                0.07301998               -0.45493902
               2.76441216                8.09677280               13.90190641                0.03870050               -0.40170700                0.14688889               -0.42561516                0.49659966                5.82302650               -1.72225273
               3.75579144                8.06224691               13.92177926                0.00010000               -1.01479143                0.40462907               -0.36155658                0.94270725               11.57987937               -0.92411136
               4.74411633                8.02899149               13.94588538                0.00010000               -1.28806178                0.57151570               -0.24256280                0.80688405               11.75309151               -0.39302280
               5.73003020                7.99543859               13.97270836                0.00010000               -1.49235842                0.60931953               -0.12215697                0.57921578               11.88649436               -0.03178531
               6.71426916                7.96082052               14.00317370                0.00010000               -1.61136269                0.56679973                0.00534478                0.30648469               12.11130320                0.28939545
               7.69780295                7.92537588               14.03814990                0.00508724               -1.63166501                0.33716347                0.14275740                0.04050309               12.42303548                0.68410152
               8.68163586                7.89063087               14.07823456                0.32369601               -0.82349723               -0.08736999                0.29203581               -0.06610504                6.28171865                1.27588974
               9.68133300                7.85750726               13.99325748                0.84470919                0.04535602                0.05175336               -0.17596440               -0.00272920                0.02057729                0.40472777
              10.68254298                7.82483814               13.90803245                1.00000000                0.12099798                0.20271568               -0.64429144               -0.02001623                0.01406299               -0.53768982
               0.80710658                9.18344625               14.07225061                1.00000000               -0.01674106               -0.08934314                0.27436915               -0.02612987                0.00313094                0.66193139
               1.80693917                9.14118719               13.97072665                0.62296289                0.04569048                0.05096234               -0.16178225               -0.00475900                0.08518744               -0.40783375
               2.80802039                9.09847247               13.87083268                0.02849038               -0.43989421                0.18992975               -0.60076280                0.57472046                6.81667537               -1.22428745
               3.79814129                9.06683857               13.90403854                0.00010000               -1.18741428                0.62060809               -0.42852071                0.76414521               13.29490931               -0.56858205
               4.78427211                9.03542651               13.93754498                0.00010000               -1.45721986                0.67898850               -0.26472834                0.54874844               13.16259738               -0.23463967
               5.76899689                9.00210789               13.97246066                0.00010000               -1.61613516                0.68984818               -0.10500099                0.34788298               13.20119619               -0.01625293
               6.75194940                8.96728800               14.01082600                0.00010000               -1.82005946                0.66782703                0.06215920                0.09919964               13.44820533                0.17322247
               7.73259570                8.92933674               14.05464020                0.01804493               -1.89094140                0.57308497                0.24576304               -0.26721807               13.91237924                0.40105748
               8.71413058                8.88947817               14.10622723                0.35445560               -0.95782934               -0.13009002                0.45624862               -0.39368241                7.14276095                0.86328132
               9.71343912                8.85777275               14.01789903                0.89994148                0.00630540                0.00351098               -0.02709731               -0.01003931                0.05999225                0.34895904
              10.71425668                8.82667385               13.92771061                0.97172149                0.08175688                0.16444361               -0.51972889               -0.02066893               -0.02545319               -0.45811169
               0.84841848               10.18276984               14.05083137                1.00000000                0.02856875               -0.06764087                0.13364570                0.04772894                0.36579522                0.54056678
               1.84870417               10.14193523               13.94667891                0.84267785                0.09183506                0.07480396               -0.31227888                0.06657751                0.67196960               -0.35014550
               2.85025518               10.10057139               13.84865841                0.51888375               -0.72919300                0.20989187               -0.74475591                0.85967116                7.97746993               -0.78851013
               3.83412031               10.07465907               13.89074832                0.36041521               -1.52165990                0.78204949               -0.49522978                0.69789565               14.56495256               -0.24910720
               4.81982199               10.04257126               13.93062794                0.35433384               -1.44969685                0.71447567               -0.30021723                0.28381199               14.28720271               -0.08039210
               5.80512637               10.00923555               13.97165607                0.37549631               -1.53988408                0.71276625               -0.10389240                0.19323815               14.32632010                0.03800091
               6.78902430                9.97417706               14.01622858                0.42127830               -1.74289775                0.68890675                0.10055583                0.08759112               14.61665256                0.14053260
               7.77026842                9.93683758               14.06679965                0.51439310               -2.18490461                0.75008324                0.32362394               -0.54012793               15.23267192                0.27258873
               8.74532621                9.88802907               14.12754363                0.69157758               -1.31659433               -0.14490921                0.58079766               -0.84344149                8.16594000                0.53792162
               9.74393653                9.85757747               14.04142705                0.98583898               -0.04994093               -0.01952723                0.11192547                0.05463860                0.51828630                0.30080486
              10.74432739                9.82812701               13.94915242                1.00000000                0.03908618                0.14531612               -0.39042846                0.06202486                0.21964588               -0.35987515
               0.42573332                0.23521712               15.23998163                1.00000000               -0.37009238               -0.40569799                1.41378607               -0.07319330               -0.63251429                0.67173878
               1.42203240                0.17646739               15.18306844                1.00000000               -0.30555147               -0.32215340                1.13082040               -0.05789787               -0.79076914                0.03695955
               2.41962229                0.11751044               15.12291188                1.00000000               -0.16346407               -0.24021792                0.82938057               -0.04144682               -0.72642531               -0.19124084
               3.41876312                0.05966765               15.06723704                0.62051845                0.31810377               -0.18550026                0.54452247                0.47120461                0.25643157               -0.49916287
               4.42598437                0.01375555               15.02671270                0.69103508                0.47742986               -0.08375800                0.24470334               -0.03846482                0.84969864                0.08473294
               5.42831172               -0.02364428               14.98285237                0.76792519                0.15441432                0.01604902               -0.06885458                0.00815880                0.47987178                0.04976412
               6.42907266               -0.05979061               14.93509596                0.75258205                0.04106068                0.10632488               -0.38733520                0.00993069                0.30313634               -0.03271596
               7.42913293               -0.09750905               14.88774227                0.85147444                0.04300875                0.20557707               -0.71618849                0.05223662                0.07632319                0.03878837
               8.42993283               -0.13940067               14.83538328                1.00000000                0.18577546                0.31842409               -1.03457267                0.03919356               -0.32413190                0.37738055
               9.43284844               -0.18398461               14.78000528                1.00000000                0.36114889                0.38875857               -1.34232994               -0.04984665               -0.46866428                0.01710935
              10.43715581               -0.22879442               14.72486174                1.00000000                0.43073703                0.47161597               -1.63609076               -0.07578942               -0.46361331               -0.48527558
               0.48375112                1.23116014               15.21896911                1.00000000               -0.34443570               -0.38503631                1.28411727               -0.03208877               -0.07867940                0.91556970
               1.48030676                1.17324586               15.16164964                1.00000000               -0.30717104               -0.29962674                1.00152016               -0.01380515               -0.03494694                0.05555040
               2.47760770                1.11510826               15.10514617                0.79175162               -0.24770768               -0.21744139                0.71274359                0.02440984                0.19027448               -0.53508997
               3.47535261                1.05781264               15.05230313                0.11635468               -0.51760066               -0.17662981                0.42551548                0.66454209                1.56176303               -0.87136302
               4.46725569                1.01291797               15.02326739                0.25962802               -0.50931137                0.07717298                0.19695358                0.04757156                2.22520387                0.80570512
               5.46516638                0.97651621               14.98448585                0.34186181               -0.05756698                0.08787641               -0.08475153                0.27676739                1.50283324                0.31378292
               6.46610435                0.94127264               14.94129290                0.24533804                0.21469714                0.01326877               -0.37652742                0.28199621                1.36066406               -0.37123585
               7.46946033                0.90454672               14.89989353                0.40480638                0.37291010                0.20890542               -0.66003932                0.38477073                1.30745025                0.56948296
               8.47356255                0.86378357               14.85597331                1.00000000                0.37932615                0.29552150               -0.93645662                0.16024795                0.66505270                0.52106714
               9.47704685                0.81990297               14.80196996                1.00000000                0.38225860                0.37359675               -1.22649113               -0.00108900                0.09750528                0.07944327
              10.48120772                0.77592174               14.74679271                1.00000000                0.41608724                0.44583318               -1.51950361               -0.02909562                0.03370295               -0.57537886
               0.54092012                2.22751640               15.20272973                1.00000000               -0.31119352               -0.35023383                1.17295400               -0.02660378                0.03083194                1.17674220
               1.53780818                2.17047486               15.14053449                1.00000000               -0.26882044               -0.26124529                0.87567142               -0.00232322                0.13921348                0.03424088
               2.53554371                2.11316161               15.08046522                0.41046286               -0.17819645               -0.18263322                0.58968418                0.04715297                0.72258447               -1.14533538
               3.53424425                2.05613505               15.02991333                0.00010000               -1.36557345               -0.16170865                0.29425666                0.95967706                3.93433989               -1.61276696
               4.50823224                2.01529901               15.03409502                0.00010000               -1.43759297                0.23454847                0.21626958                1.87191356                4.15943666               -1.10441604
               5.50549239                1.97811325               14.99135296                0.00010000               -0.07750852                0.00777876               -0.08391263                1.62601524                1.43382559               -0.47461127
               6.50668207                1.94047477               14.94072900                0.00010000                0.44125096               -0.13435085               -0.36311655                1.48939285                2.66337092                0.11053925
               7.51431741                1.90666906               14.92270514                0.00010000                0.55497359               -0.08229043               -0.60128777                1.05082081                2.99315376                0.51934921
               8.51778154                1.86650976               14.87953060                0.44508934                0.31855404                0.28504780               -0.81884206                0.26915673                1.18653812                0.98902852
               9.52068849                1.82348732               14.82528352                1.00000000                0.33774106                0.35820696               -1.10454769                0.04527879                0.43174689                0.43097128
              10.52453636                1.78012224               14.76704256                1.00000000                0.38478683                0.39856776               -1.41437102               -0.01461172                0.22873571               -0.58772381
               0.59730212                3.22415547               15.18680978                1.00000000               -0.26870363               -0.32507237                1.06098147               -0.02226287                0.03347581                1.17787188
               1.59461508                3.16802095               15.11861727                1.00000000               -0.22057767               -0.22820513                0.74593519               -0.00152820                0.03797289               -0.02877105
               2.59289057                3.11145560               15.05046593                0.21174323               -0.11031653               -0.13842628                0.43396521                0.00816834                0.93242055               -1.34757528
               3.59240875                3.05457847               15.00012274                0.00010000               -0.50874023               -0.07066271                0.13670031                1.02287286                3.97034928               -1.96120826
               4.58271576                3.01760894               14.99280187                0.00010000               -0.99489125                0.16680390                0.00959263                2.61798668                5.64610233               -2.53327775
               5.57251093                2.97667178               14.97729397                0.00010000               -0.76896859                0.02962801               -0.13169101                2.25176604                4.88055299               -1.18653458
               6.56733639                2.93858562               14.95622583                0.00010000               -0.40345914               -0.03486239               -0.30471949                2.01734307                4.49334462                0.45016843
               7.56444175                2.90290091               14.93406142                0.00010000               -0.26044851               -0.14397071               -0.48087640                1.48981641                4.27568814                0.41815350
               8.56212742                2.86948453               14.90953871                0.25351039               -0.00509015                0.28455950               -0.67088183                0.61982005                2.57033397                1.81594690
               9.56433994                2.82706711               14.85434965                1.00000000                0.27591104                0.32679381               -0.95019143                0.06003672                0.51811153                0.66736137
              10.56764564                2.78389310               14.78880082                1.00000000                0.33056985                0.36864382               -1.29839070               -0.02444635               -0.00161039               -0.44436411
               0.65274388                4.22101495               15.17045267                1.00000000               -0.22663962               -0.30086908                0.94288790               -0.02403461                0.03195239                1.11808791
               1.65047749                4.16591076               15.09617912                1.00000000               -0.17971637               -0.18869540                0.60873071               -0.00298954                0.02827577               -0.06533225
               2.64914956                4.11039309               15.02177428                0.11428303               -0.09645607               -0.07789182                0.27635040                0.00955862                1.19362179               -1.18503132
               3.64854837                4.05472180               14.97078085                0.00010000               -0.53254481                0.25941112               -0.12655509                0.76814563                5.14582532               -0.89637538
               4.63849866                4.01863509               14.97514552                0.00010000               -0.94986691                0.15563452               -0.13689429                1.58317475                7.37875557               -0.97167543
               5.62955103                3.97870581               14.97056243                0.00010000               -0.88494303                0.22574480               -0.17527563                1.45613151                6.69850501               -0.57122630
               6.62079980                3.93977752               14.96316509                0.00010000               -0.81680970                0.19092009               -0.25712203                1.38536315                6.43481532                0.12026967
               7.61321483                3.90378964               14.95510359                0.00010000               -0.73940291                0.15740250               -0.35917804                1.35867089                6.45090183                0.94538127
               8.60601174                3.87220095               14.94967633                0.24557813               -0.28670866                0.21713415               -0.46727276                0.64180017                3.41892919                2.04996349
               9.60748066                3.83002320               14.88245632                1.00000000                0.21918620                0.26343219               -0.79655413                0.03603886                0.16473256                0.60904817
              10.61039547                3.78749512               14.81194658                1.00000000                0.29148045                0.34784568               -1.17298844               -0.02142340               -0.00000400               -0.36702646
               0.70702982                5.21813809               15.15320642                1.00000000               -0.18526575               -0.26880316                0.81530361               -0.02720703                0.09813842                1.02525946
               1.70517716                5.16424705               15.07349082                0.80826786               -0.13795576               -0.14196137                0.46639924               -0.00861826                0.16548780               -0.18318497
               2.70427070                5.10989776               14.99507377                0.06492176               -0.28237458               -0.01950721                0.13010313                0.22369290                2.54693197               -1.27041192
               3.69952967                5.05976669               14.96294738                0.00010000               -0.69377256                0.49465884               -0.45745512                0.63205162                6.61385991                0.15160711
               4.69039525                5.02072163               14.96542997                0.00010000               -0.95192696                0.26869050               -0.22770467                1.17196200                8.26927637               -0.39048571
               5.68049113                4.98118668               14.96881791                0.00010000               -1.02177166                0.29102848               -0.19318647                1.06310931                8.20051619               -0.18820824
               6.66995982                4.94240403               14.97232216                0.00010000               -1.06496982                0.29617716               -0.20227722                1.02709176                8.15543853                0.30459343
               7.65919173                4.90604896               14.97708052                0.00010000               -1.06149722                0.23863140               -0.23234780                1.07453173                8.24638375                0.97316468
               8.64872987                4.87382721               14.98451646                0.25558897               -0.47125888                0.11925253               -0.26903800                0.52847918                4.21034658                1.68688768
               9.64976655                4.83233576               14.91041659                0.93097515                0.17717285                0.20450271               -0.65151419                0.02059916                0.08036377                0.58939278
              10.65227333                4.79085001               14.83525031                1.00000000                0.25067754                0.31975237               -1.04339646               -0.02110009                0.02856388               -0.37395180
               0.75998182                6.21563889               15.13485211                1.00000000               -0.14363734               -0.22657488                0.68080837               -0.02911819                0.06824545                0.92063768
               1.75854545                6.16307153               15.04865910                0.68154144               -0.09390275               -0.09284768                0.31048607               -0.01215606                0.18304045               -0.35314869
               2.75810377                6.11000294               14.96471691                0.04437146               -0.40899596                0.03832804               -0.04799309                0.39498894                4.02820775               -1.58138261
               3.75036553                6.06461497               14.95540791                0.00010000               -0.87929257                0.42394658               -0.33909017                0.80397310                8.36269904               -0.28069379
               4.74051792                6.02400890               14.95925684                0.00010000               -1.06173558                0.37938546               -0.26286040                0.97847630                9.23515109               -0.24222573
               5.72913082                5.98452638               14.96957738                0.00010000               -1.20192820                0.39344205               -0.18307637                0.88268311                9.57370576               -0.01554966
               6.71647935                5.94570106               14.98278036                0.00010000               -1.29242680                0.37098701               -0.13683633                0.77427499                9.71555590                0.39693387
               7.70328228                5.90856227               14.99859206                0.00010000               -1.30924095                0.25667995               -0.10582545                0.77365774                9.87633538                0.93635213
               8.69029453                5.87458600               15.01750121                0.27213430               -0.62062172                0.04052337               -0.08295408                0.36609367                5.01013690                1.55042489
               9.69086985                5.83411325               14.93816746                0.85789290                0.13252116                0.15393541               -0.49288547                0.00914194                0.06870001                0.54160413
              10.69294496                5.79389017               14.85822284                1.00000000                0.20751081                0.28575209               -0.91593481               -0.02055798                0.04120884               -0.43666594
               0.81158217                7.21360659               15.11536004                1.00000000               -0.10121851               -0.17867720                0.54162900               -0.02803870                0.03219832                0.83968845
               1.81056998                7.16239009               15.02255542                0.61306643               -0.04775659               -0.04465822                0.15400720               -0.01090771                0.14078335               -0.44170562
               2.81062703                7.11066432               14.93188530                0.03986738               -0.44834040                0.09109735               -0.22810987                0.47911934                5.09925214               -1.77718122
               3.80160317                7.06824563               14.93825644                0.00010000               -1.02868308                0.37198521               -0.32153103                0.95225835               10.22486841               -0.87357654
               4.79005337                7.02830934               14.95211965                0.00010000               -1.25752749                0.48942744               -0.24846511                0.93449808               10.70889724               -0.33472409
               5.77645262                6.98905552               14.97081870                0.00010000               -1.43219773                0.52998203               -0.15522962                0.74453211               10.99578558                0.01612813
               6.76140942                6.94982377               14.99337902                0.00010000               -1.53363395                0.47417566               -0.06563901                0.52991941               11.21954784                0.39884336
               7.74577994                6.91118256               15.01959211                0.00010000               -1.54543264                0.28524259                0.01809085                0.41764443               11.45186714                0.87813349
               8.73050077                6.87463768               15.04965175                0.29381342               -0.75673583               -0.02612167                0.09866115                0.15886653                5.79316373                1.47263307
               9.73064523                6.83541446               14.96514866                0.82276495                0.09037858                0.10602350               -0.34314007                0.00199061                0.04501523                0.47038539
              10.73230834                6.79656505               14.88018496                1.00000000                0.16631094                0.24901201               -0.78978282               -0.01954340                0.02661443               -0.51358441
               0.86185404                8.21206534               15.09525234                1.00000000               -0.05844762               -0.13063544                0.40201473               -0.02656161                0.01490112                0.80367469
               1.86126956                8.16217836               14.99596126                0.59580061               -0.00117087                0.00226484               -0.00151683               -0.00736148                0.07034252               -0.47803386
               2.86183062                8.11182489               14.89775315                0.04077627               -0.47519416                0.13900604               -0.40767879                0.54757687                6.05195400               -1.78260292
               3.85176568                8.07205468               14.91813499                0.00010000               -1.17163189                0.44220168               -0.37154833                1.01783045               12.09242654               -0.90165750
               4.83839798                8.03379745               14.94344129                0.00010000               -1.46293230                0.63191170               -0.24850749                0.85145093               12.31219990               -0.35537637
               5.82250703                7.99512602               14.97148065                0.00010000               -1.67236423                0.67347560               -0.12477823                0.58393921               12.45877643                0.00520243
               6.80495070                7.95518458               15.00321902                0.00010000               -1.78428881                0.62662472                0.00254380                0.27428262               12.69837446                0.32788690
               7.78682126                7.91426712               15.03954337                0.00512021               -1.78553685                0.37559990                0.13481825               -0.02231268               13.02584278                0.73292785
               8.76923996                7.87406357               15.08106694                0.32108114               -0.89194838               -0.08424226                0.27344454               -0.10759632                6.58878951                1.34836903
               9.76898229                7.83623372               14.99140139                0.82982458                0.05064756                0.05730829               -0.19614794               -0.00416508                0.02120881                0.43222845
              10.77025291                7.79887041               14.90147678                1.00000000                0.12706236                0.21184938               -0.66732774               -0.01924203                0.01448548               -0.55789450
               0.91082489                9.21099388               15.07493774                1.00000000               -0.01616846               -0.08592399                0.26402091               -0.02505832                0.00103697                0.67202307
               1.91066321                9.16243539               14.96914632                0.61765904                0.04386844                0.04904399               -0.15546314               -0.00333950                0.08206656               -0.42626341
               2.91170226                9.11344444               14.86496288                0.02733945               -0.53379899                0.18189110               -0.57657052                0.65346897                7.10872996               -1.26325566
               3.89998723                9.07708966               14.89977682                0.00010000               -1.38456028                0.68954545               -0.42588120                0.84553628               13.90010407               -0.54792032
               4.88401105                9.04094757               14.93490462                0.00010000               -1.66214740                0.75514921               -0.26473614                0.58753642               13.78279938               -0.21436391
               5.86674428                9.00252503               14.97141087                0.00010000               -1.81285454                0.76660502               -0.10609851                0.35114868               13.83528561                0.00413623
               6.84775396                8.96235626               15.01143426                0.00010000               -2.01447905                0.74254326                0.05834360                0.07037773               14.10196454                0.19404500
               7.82645470                8.91869456               15.05705156                0.01867775               -2.06858604                0.64049374                0.23530142               -0.33522605               14.59231050                0.42724015
               8.80638224                8.87295283               15.11068445                0.35230637               -1.03498040               -0.12362798                0.43377470               -0.45686891                7.49565552                0.90905395
               9.80575509                8.83656063               15.01751110                0.88319819                0.01339412                0.01058235               -0.05167967               -0.01213775                0.06391135                0.37087131
              10.80665012                8.80080204               14.92237311                0.97344559                0.08950356                0.17427252               -0.54832946               -0.01962691               -0.02629793               -0.47749668
               0.95846985               10.21034686               15.05212370                1.00000000                0.02823588               -0.06470159                0.12561666                0.04573421                0.36930180                0.54978963
               1.95875221               10.16315924               14.94361188                0.84050972                0.08879397                0.07238553               -0.30259686                0.06469279                0.68234680               -0.36430493
               2.96024573               10.11546271               14.84136507                0.51768553               -0.87894681                0.20182699               -0.71753241                0.98866422                8.32687623               -0.81078887
               3.94117327               10.08584559               14.88584484                0.36112359               -1.77661958                0.87559277               -0.48643962                0.79049068               15.25094451               -0.23678203
               4.92471334               10.04890043               14.92764569                0.35458366               -1.65259776                0.79528577               -0.29728893                0.30085499               14.96981813               -0.07227548
               5.90812132               10.01045812               14.97062206                0.37536665               -1.72623066                0.79330846               -0.10406287                0.19445460               15.02728517                0.04670132
               6.89018872                9.97003544               15.01721677                0.42091313               -1.93005786                0.76791809                0.09574181                0.07442040               15.33876429                0.15004724
               7.86952016                9.92707700               15.06997665                0.51501695               -2.39761061                0.83824398                0.31029777               -0.61567511               15.98332224                0.28547182
               8.84223651                9.87159101               15.13321961                0.69095347               -1.43149154               -0.13618241                0.55265735               -0.94615441                8.57208943                0.56417671
               9.84089033                9.83644537               15.04240472                0.97676541               -0.04294788               -0.01152606                0.08196404                0.05176652                0.54846924                0.31850381
              10.84137756                9.80235586               14.94507749                0.98754627                0.04872255                0.15538198               -0.42543819                0.06379210                0.23285923               -0.37678789
               0.47760695                0.26371996               16.25404403                1.00000000               -0.36622754               -0.40071857                1.39896316               -0.07288203               -0.65717619                0.69577376
               1.47394468                0.19892611               16.19432098                1.00000000               -0.30242999               -0.31883584                1.11981227               -0.05821779               -0.82413946                0.04135982
               2.47155835                0.13393185               16.13118055                1.00000000               -0.16185372               -0.23836106                0.82439033               -0.04132475               -0.76072578               -0.19450458
               3.47070760                0.07007013               16.07267549                0.62066356                0.31934113               -0.18491812                0.54349888                0.48112444                0.22159566               -0.52430721
               4.47794518                0.01835938               16.02917185                0.69467819                0.47440979               -0.07740655                0.24675193               -0.04509342                0.79749922                0.09909656
               5.48019580               -0.02466134               15.98218580                0.77407121                0.14994266                0.01818240               -0.06539701                0.00776803                0.41949991                0.05730730
               6.48094403               -0.06639037               15.93126864                0.75778669                0.04261841                0.10592217               -0.37899800                0.01000127                0.23757063               -0.03724352
               7.48104817               -0.10953598               15.88065371                0.85544654                0.04617674                0.20342460               -0.70222897                0.04894042                0.01245451                0.04241214
               8.48186756               -0.15664919               15.82512770                1.00000000                0.18437348                0.31375205               -1.01700582                0.03591384               -0.37607331                0.38891012
               9.48473564               -0.20636268               15.76668480                1.00000000                0.35551519                0.38377960               -1.32205578               -0.04898874               -0.50732630                0.01597723
              10.48897787               -0.25631137               15.70861951                1.00000000                0.42422309                0.46578681               -1.61251404               -0.07399053               -0.49482858               -0.51559619
               0.54167198                1.25971277               16.23174218                1.00000000               -0.34154300               -0.37943716                1.27091252               -0.03218804               -0.08330309                0.94819924
               1.53825655                1.19573775               16.17161458                1.00000000               -0.30494453               -0.29620490                0.99167428               -0.01438670               -0.04252858                0.06140308
               2.53557309                1.13154824               16.11224527                0.79868604               -0.24757363               -0.21575114                0.70713811                0.02471849                0.18103058               -0.54195722
               3.53330508                1.06822095               16.05655497                0.12359328               -0.53565604               -0.17567061                0.42545474                0.67982148                1.58246370               -0.90380140
               4.52485997                1.01758531               16.02523359                0.27149451               -0.53283638                0.07208435                0.19681549                0.00865081                2.25775148                0.84835945
               5.52264835                0.97552049               15.98364471                0.35691145               -0.06893061                0.08719970               -0.08373918                0.25429799                1.50917561                0.32933177
               6.52348136                0.93466885               15.93755428                0.25786848                0.20093121                0.02115719               -0.37172927                0.26774582                1.36795068               -0.37438648
               7.52666698                0.89249827               15.89334304                0.41539078                0.35793472                0.20330761               -0.65067269                0.36287644                1.32146619                0.57437607
               8.53064006                0.84648833               15.84666863                1.00000000                0.37049297                0.29174058               -0.92499330                0.15394133                0.67417941                0.54228546
               9.53407684                0.79747511               15.78977898                1.00000000                0.37732959                0.36945883               -1.21213658               -0.00072680                0.09858024                0.08162447
              10.53818665                0.74834650               15.73168752                1.00000000                0.41098092                0.44142872               -1.50185610               -0.02789325                0.03344281               -0.61104322
               0.60491324                2.25613122               16.21439207                1.00000000               -0.30917631               -0.34387947                1.16014229               -0.02563549                0.03155838                1.21718956
               1.60182148                2.19300201               16.14924557                1.00000000               -0.26718596               -0.25790924                0.86681321               -0.00083429                0.14493135                0.03977544
               2.59956952                2.12961682               16.08632777                0.42350577               -0.17772608               -0.18230638                0.58250650                0.05143313                0.72905365               -1.17036139
               3.59826696                2.06655672               16.03283829                0.00010000               -1.43754362               -0.16155561                0.28983882                0.97094661                4.04116674               -1.66451240
               4.57081865                2.01980106               16.03616866                0.00010000               -1.50343674                0.22182834                0.20218010                1.89475489                4.30862077               -1.13432125
               5.56819822                1.97708266               15.99050293                0.00010000               -0.07487439               -0.01020140               -0.08634722                1.64453331                1.48306363               -0.47325930
               6.56932116                1.93403277               15.93710371                0.00010000                0.41439949               -0.14319569               -0.36242435                1.47865188                2.73989594                0.13155242
               7.57648621                1.89453018               15.91671208                0.00010000                0.53241923               -0.09277888               -0.59803965                1.03815341                3.09201395                0.56009393
               8.57996955                1.84918562               15.87137014                0.45199665                0.31883593                0.28240755               -0.81384274                0.26463095                1.25691511                1.03571145
               9.58286293                1.80102649               15.81428387                1.00000000                0.33538407                0.35498515               -1.09610811                0.04484182                0.45662982                0.45319358
              10.58667723                1.75251721               15.75295991                1.00000000                0.38142978                0.39685977               -1.40288083               -0.01374906                0.24140825               -0.62215948
               0.66741769                3.25283518               16.19735239                1.00000000               -0.26634296               -0.31894639                1.04838939               -0.02031197                0.03648471                1.21378969
               1.66475426                3.19057956               16.12603934                1.00000000               -0.21853204               -0.22562945                0.73870733                0.00125358                0.04234108               -0.02935744
               2.66304705                3.12790211               16.05479773                0.22417632               -0.11072425               -0.13934968                0.43219133                0.01500185                0.94398050               -1.38760950
               3.66253977                3.06498984               16.00148416                0.00010000               -0.54089597               -0.08638983                0.13597978                1.04222549                4.07571871               -2.07423373
               4.65222913                3.02202188               15.99289443                0.00010000               -1.06162295                0.15274936                0.01000515                2.68208991                5.83789356               -2.64976758
               5.64130732                2.97531646               15.97597298                0.00010000               -0.83111244                0.01205858               -0.13139780                2.29413105                5.06111469               -1.20584305
               6.63560688                2.93180493               15.95319381                0.00010000               -0.45150605               -0.05863710               -0.30224739                2.03457847                4.66100170                0.49305506
               7.63227719                2.89064269               15.92927052                0.00010000               -0.30852616               -0.15233035               -0.47826044                1.50786832                4.43682781                0.49339398
               8.62943636                2.85213648               15.90283513                0.25314522               -0.03175524                0.27892752               -0.67100618                0.61828887                2.68433454                1.90580308
               9.63164209                2.80457482               15.84487128                1.00000000                0.27469420                0.32359302               -0.94641374                0.05796664                0.55496974                0.70632244
              10.63493024                2.75628369               15.77585304                1.00000000                0.32881515                0.36874925               -1.29162357               -0.02368037                0.00066565               -0.46611417
               0.72901824                4.24975229               16.17981491                1.00000000               -0.22386192               -0.29475709                0.93008936               -0.02259657                0.03407906                1.14481589
               1.72677963                4.18848942               16.10222767                0.99234386               -0.17794782               -0.18687332                0.60277003               -0.00090012                0.03205098               -0.07326391
               2.72545929                4.12682983               16.02454875                0.12433726               -0.08939635               -0.07912670                0.28084996                0.00316326                1.16604522               -1.22219066
               3.72499170                4.06482892               15.96963326                0.00010000               -0.56627321                0.21969736               -0.10423974                0.79217534                5.27275733               -1.10998616
               4.71413382                4.02285605               15.97376848                0.00010000               -1.03469547                0.14912145               -0.13578703                1.61397198                7.69213962               -1.03800563
               5.70429779                3.97732383               15.96881668                0.00010000               -0.97236619                0.22805552               -0.17328687                1.48162662                6.98943705               -0.58056137
               6.69468650                3.93286003               15.96060829                0.00010000               -0.89928789                0.18758813               -0.25496508                1.39282665                6.70169057                0.15939926
               7.68631203                3.89148357               15.95152141                0.00010000               -0.81416493                0.15649983               -0.35857924                1.35739575                6.71108360                1.02159741
               8.67840320                3.85476417               15.94499263                0.24328502               -0.32184905                0.20931129               -0.47081721                0.63734390                3.57475066                2.16281145
               9.67987505                3.80749835               15.87449518                1.00000000                0.21913309                0.26062047               -0.79512559                0.03471782                0.18883722                0.64268551
              10.68278586                3.75989219               15.80022800                1.00000000                0.29108131                0.34900322               -1.16943095               -0.02070691               -0.00079898               -0.38091963
               0.78949150                5.24694004               16.16129299                1.00000000               -0.18327812               -0.26188656                0.80270419               -0.02542398                0.10163472                1.04238493
               1.78765871                5.18684210               16.07811011                0.79923951               -0.13603411               -0.14092461                0.45872373               -0.00545542                0.17510332               -0.19989630
               2.78677081                5.12631958               15.99635776                0.07337275               -0.26508266               -0.02314821                0.12716005                0.19728919                2.42731085               -1.31645731
               3.78235706                5.06938378               15.95818926                0.00010000               -0.73785771                0.48538988               -0.48151382                0.61954134                6.79783711                0.10942358
               4.77201366                5.02500431               15.96311087                0.00010000               -1.07105943                0.28143352               -0.23390430                1.20665274                8.77552101               -0.40619076
               5.76093587                4.97987757               15.96688301                0.00010000               -1.13549927                0.30616930               -0.19378251                1.06835998                8.58824120               -0.17472234
               6.74930367                4.93555670               15.97030690                0.00010000               -1.17074537                0.30934451               -0.20170687                1.01882670                8.51701007                0.34945524
               7.73752097                4.89377269               15.97475445                0.00010000               -1.15676114                0.24556438               -0.23423134                1.06101408                8.60166438                1.04899959
               8.72616845                4.85632271               15.98179626                0.25273872               -0.51562689                0.11450907               -0.27579792                0.51699234                4.39957155                1.78821740
               9.72720843                4.80978722               15.90387198                0.91398238                0.17799893                0.20368680               -0.65619172                0.01925280                0.09427689                0.62394045
              10.72972843                4.76326376               15.82479640                1.00000000                0.25200022                0.32269479               -1.04540087               -0.02045233                0.03702092               -0.38803891
               0.84870566                6.24451456               16.14159191                1.00000000               -0.14146723               -0.21971363                0.66805723               -0.02696632                0.06862277                0.93134777
               1.84729098                6.18567093               16.05174138                0.67448992               -0.09211350               -0.09294129                0.30580404               -0.00804716                0.18924531               -0.37627914
               2.84686339                6.12636687               15.96426114                0.05110830               -0.42965953                0.03176292               -0.04402351                0.38991600                4.05446149               -1.64208801
               3.83869779                6.07453672               15.95168830                0.00010000               -0.95451478                0.45818001               -0.40582976                0.77648252                8.63949177               -0.13387887
               4.82777309                6.02848472               15.95653767                0.00010000               -1.17925966                0.40564812               -0.28000199                0.99193159                9.72080972               -0.20459222
               5.81511260                5.98344722               15.96772696                0.00010000               -1.33025874                0.42316070               -0.18751254                0.87621368               10.03826819                0.01951883
               6.80116792                5.93904692               15.98140856                0.00010000               -1.41731489                0.39667591               -0.13858311                0.75092548               10.15966345                0.44775262
               7.78676630                5.89639486               15.99751661                0.00010000               -1.42197016                0.27160711               -0.11046219                0.74235359               10.31537471                1.00838420
               8.77272851                5.85705435               16.01661588                0.26925397               -0.67236240                0.03948992               -0.09493637                0.34497838                5.23818457                1.64239007
               9.77331905                5.81157209               15.93318243                0.84262872                0.13476179                0.15621177               -0.50439825                0.00756862                0.07615046                0.57807993
              10.77542375                5.76634609               15.84900718                1.00000000                0.21046944                0.29150784               -0.92702499               -0.02009827                0.04216087               -0.45264145
               0.90663943                7.24254577               16.12071404                1.00000000               -0.09939674               -0.17310346                0.52988110               -0.02637572                0.03156660                0.84758546
               1.90564546                7.18498327               16.02408711                0.60740596               -0.04680428               -0.04532644                0.15200576               -0.00751489                0.14299104               -0.46490056
               2.90570334                7.12695483               15.92965261                0.04459110               -0.49383024                0.08381484               -0.21980949                0.49891215                5.23522510               -1.83884352
               3.89576886                7.07854738               15.93486526                0.00010000               -1.13807753                0.40783286               -0.36161213                0.97082363               10.61074976               -0.79655394
               4.88294179                7.03311727               15.94955041                0.00010000               -1.39354530                0.53071375               -0.26689368                0.95174868               11.21148613               -0.27476243
               5.86789795                6.98834078               15.96924017                0.00010000               -1.57836252                0.57516247               -0.16145189                0.73441721               11.51074330                0.06174399
               6.85137454                6.94349021               15.99270931                0.00010000               -1.67686746                0.51380526               -0.06946625                0.49350333               11.73494680                0.44941122
               7.83436060                6.89920483               16.01974122                0.00010000               -1.67418783                0.30900628                0.01050020                0.36639377               11.96948129                0.94364645
               8.81789079                6.85711251               16.05056071                0.29110230               -0.81462675               -0.02443989                0.08206016                0.12658778                6.05752477                1.55939101
               9.81806807                6.81291146               15.96163389                0.80829321                0.09438427                0.11086477               -0.36079503                0.00048467                0.04834042                0.50221379
              10.81977847                6.76909392               15.87219809                1.00000000                0.17104046                0.25730103               -0.80816788               -0.01884642                0.02771020               -0.53079030
               0.96330314                8.24105249               16.09921716                1.00000000               -0.05715174               -0.12652097                0.39156389               -0.02527210                0.01409755                0.81180009
               1.96273162                8.18476440               15.99595434                0.59105903               -0.00128108                0.00140181               -0.00053445               -0.00497093                0.06849461               -0.49959331
               2.96327752                8.12804316               15.89375284                0.04317887               -0.53898959                0.13203028               -0.39437406                0.58950608                6.26021816               -1.83767280
               3.95195183                8.08269337               15.91434830                0.00010000               -1.31314276                0.48114683               -0.38971906                1.07443014               12.58250346               -0.86209945
               4.93701466                8.03909900               15.94091523                0.00010000               -1.62619151                0.69087796               -0.25873075                0.88046717               12.86742765               -0.30987143
               5.91942800                7.99495046               15.97021279                0.00010000               -1.84203633                0.73542146               -0.13012663                0.57495213               13.02659543                0.04508927
               6.90017394                7.94932302               16.00322457                0.00010000               -1.94780566                0.68404641               -0.00269788                0.22989901               13.27922642                0.36860323
               7.88047189                7.90257498               16.04084627                0.00525804               -1.93101483                0.41217163                0.12442647               -0.09631751               13.62017737                0.78500677
               8.86155364                7.85656555               16.08370345                0.31860178               -0.95622749               -0.08029650                0.25250242               -0.15461149                6.89217865                1.42524792
               9.86134734                7.81378938               15.98933452                0.81481737                0.05641349                0.06376928               -0.21825861               -0.00564113                0.02238360                0.46253390
              10.86268191                7.77149211               15.89468590                1.00000000                0.13345723                0.22146475               -0.69139583               -0.01831575                0.01500931               -0.57777285
               1.01871017                9.24001535               16.07753103                1.00000000               -0.01547987               -0.08293827                0.25512917               -0.02415321               -0.00068408                0.68061301
               2.01855537                9.18501131               15.96761739                0.61288686                0.04271614                0.04768114               -0.15131293               -0.00208988                0.07997139               -0.44327210
               3.01956449                9.12959544               15.85930127                0.02668688               -0.61768704                0.17540379               -0.55831966                0.72206216                7.38409331               -1.29846143
               4.00620163                9.08817032               15.89552092                0.00010000               -1.56352215                0.75470169               -0.42767305                0.91230712               14.48169471               -0.51749218
               4.98829405                9.04693483               15.93225026                0.00010000               -1.85143292                0.82723172               -0.26786388                0.61526803               14.39182793               -0.18994435
               5.96917297                9.00304921               15.97033869                0.00010000               -1.99730202                0.83983760               -0.10973256                0.34546519               14.46076987                0.02619095
               6.94834800                8.95717114               16.01199287                0.00010000               -2.19906246                0.81449816                0.05201274                0.03350527               14.74746477                0.21610102
               7.92519172                8.90744826               16.05934623                0.01938388               -2.23819259                0.70609247                0.22218967               -0.41022124               15.26307559                0.45601374
               8.90358415                8.85550657               16.11490273                0.34995357               -1.10815133               -0.11616250                0.40831087               -0.52375584                7.84520899                0.95851624
               9.90302869                8.81418685               16.01686543                0.86570405                0.02112796                0.01854663               -0.07865065               -0.01413338                0.06887381                0.39495658
              10.90400671                8.77352321               15.91674402                0.97498901                0.09780206                0.18451908               -0.57812017               -0.01850744               -0.02678311               -0.49701448
               1.07282816               10.23939372               16.05334370                1.00000000                0.02815736               -0.06216278                0.11870818                0.04422941                0.37271798                0.55803206
               2.07310973               10.18571802               15.94062698                0.83860180                0.08657937                0.07067140               -0.29563751                0.06331262                0.69268022               -0.37735505
               3.07455975               10.13155124               15.83430776                0.51675557               -1.01255759                0.19557998               -0.69673834                1.10299535                8.66032635               -0.83111537
               4.05285858               10.09778741               15.88101953                0.36178023               -2.00593102                0.96170891               -0.48025719                0.87031526               15.91293867               -0.21914097
               5.03444113               10.05564363               15.92468216                0.35482199               -1.83787964                0.87088022               -0.29702946                0.31269870               15.63745055               -0.06253947
               6.01610099               10.01174722               15.96957481                0.37522098               -1.89980686                0.86980034               -0.10688543                0.19126997               15.71647153                0.05565762
               6.99644499                9.96561299               16.01814342                0.42049232               -2.10844806                0.84418433                0.08805463                0.05717932               16.04931476                0.15950744
               7.97393203                9.91669683               16.07300561                0.51568376               -2.60525253                0.92485681                0.29389125               -0.69450299               16.72124584                0.29899602
               8.94433994                9.85424230               16.13859677                0.69013369               -1.54419977               -0.12642700                0.52111567               -1.05124701                8.97525539                0.59354132
               9.94304803                9.81416032               16.04306633                0.96697929               -0.03504551               -0.00265282                0.04894592                0.04894333                0.58042301                0.33772061
              10.94363903                9.77518249               15.94064366                0.98739533                0.05909966                0.16592778               -0.46212664                0.06544886                0.24647932               -0.39421167
               0.53203590                0.29373630               17.26796090                1.00000000               -0.36228041               -0.39602152                1.38452358               -0.07245367               -0.68015717                0.71853805
               1.52841309                0.22270740               17.20546469                1.00000000               -0.29913148               -0.31580614                1.10903702               -0.05826966               -0.85460845                0.04499931
               2.52605327                0.15149090               17.13939969                1.00000000               -0.16046801               -0.23690045                0.81914535               -0.04077672               -0.79169561               -0.19853246
               3.52520373                0.08142256               17.07810702                0.62009081                0.31853905               -0.18487331                0.54252778                0.48713802                0.18881452               -0.54533528
               4.53242405                0.02361399               17.03164774                0.69787519                0.47005954               -0.07256507                0.24696151               -0.05223455                0.74404264                0.11323953
               5.53460492               -0.02541597               16.98154443                0.77933453                0.14660546                0.02016849               -0.06384280                0.00639071                0.35924276                0.06441630
               6.53535616               -0.07310676               16.92751600                0.76210418                0.04590160                0.10565929               -0.37206498                0.00971254                0.17456121               -0.04178134
               7.53552296               -0.12203947               16.87369769                0.85887904                0.05120583                0.20153478               -0.68942817                0.04535578               -0.04978206                0.04660549
               8.53638027               -0.17470433               16.81504317                1.00000000                0.18435720                0.30911633               -1.00020507                0.03229436               -0.42839105                0.40017478
               9.53921010               -0.22985343               16.75356417                1.00000000                0.35047682                0.37898254               -1.30220752               -0.04795498               -0.54677845                0.01456302
              10.54338981               -0.28524235               16.69261146                1.00000000                0.41797108                0.46028268               -1.58913840               -0.07192317               -0.52662630               -0.54657117
               0.60234026                1.28977609               17.24438736                1.00000000               -0.33871642               -0.37431612                1.25847140               -0.03225471               -0.08754425                0.97895763
               1.59895310                1.21954934               17.18148313                1.00000000               -0.30261701               -0.29308967                0.98241512               -0.01480876               -0.04935405                0.06634687
               2.59628792                1.14912189               17.11928893                0.80264390               -0.24697661               -0.21444858                0.70215749                0.02516379                0.17366564               -0.55060130
               3.59401357                1.07957382               17.06081222                0.12946080               -0.54834777               -0.17534734                0.42872674                0.68947044                1.60220684               -0.93608812
               4.58532097                1.02288834               17.02720370                0.28241989               -0.54921792                0.06688773                0.19752068               -0.02360729                2.28743845                0.88677391
               5.58302921                0.97478571               16.98281106                0.37101137               -0.07779664                0.08678847               -0.08325089                0.23375895                1.51346865                0.34380869
               6.58376503                0.92794983               16.93385832                0.26972938                0.18730443                0.02865237               -0.36793613                0.25524208                1.37464996               -0.37803759
               7.58677530                0.87997588               16.88688008                0.42560538                0.34225819                0.19914631               -0.64254245                0.34026550                1.33437973                0.57889486
               8.59061020                0.82838684               16.83747344                1.00000000                0.36121344                0.28809098               -0.91455959                0.14641468                0.68198011                0.56303519
               9.59399957                0.77393639               16.77772723                1.00000000                0.37246522                0.36561625               -1.19863433               -0.00025745                0.09906188                0.08331781
              10.59805950                0.71936047               16.71675559                1.00000000                0.40599371                0.43779415               -1.48486630               -0.02646132                0.03292932               -0.64776125
               0.67184430                2.28624998               17.22593258                1.00000000               -0.30731884               -0.33838326                1.14871328               -0.02455470                0.03233304                1.25492986
               1.66877111                2.21684561               17.15787076                1.00000000               -0.26561200               -0.25488182                0.85877134                0.00077072                0.14909546                0.04437152
               2.66653206                2.14720193               17.09211535                0.43699231               -0.17722084               -0.18197351                0.57458840                0.05537192                0.73304429               -1.19476157
               3.66522669                2.07791561               17.03571011                0.00010000               -1.48960233               -0.16374996                0.28481152                0.97813430                4.14254599               -1.71649547
               4.63674001                2.02495175               17.03813862                0.00010000               -1.55040406                0.20627130                0.19291212                1.90340196                4.45129643               -1.16209424
               5.63421861                1.97631980               16.98962601                0.00010000               -0.07345871               -0.02722712               -0.09036416                1.64595879                1.53148227               -0.46966930
               6.63527084                1.92746629               16.93348052                0.00010000                0.38363240               -0.15038405               -0.36248404                1.45587489                2.81280410                0.15479059
               7.64189126                1.88194345               16.91074435                0.00010000                0.50386060               -0.10082066               -0.59636413                1.01764459                3.18849573                0.60205030
               8.64534805                1.83105749               16.86325375                0.45891920                0.31700283                0.27956345               -0.81020796                0.25592988                1.32637345                1.08228752
               9.64823132                1.77745889               16.80336136                1.00000000                0.33321887                0.35229286               -1.08916807                0.04389450                0.48125081                0.47522692
              10.65201243                1.72351353               16.73898495                1.00000000                0.37811103                0.39711296               -1.39271035               -0.01274024                0.25393401               -0.65736162
               0.74065791                3.28300842               17.20777757                1.00000000               -0.26413491               -0.31396552                1.03737247               -0.01788917                0.03947000                1.24636882
               1.73801657                3.21445170               17.13339142                1.00000000               -0.21662784               -0.22354490                0.73213488                0.00437801                0.04678438               -0.03038124
               2.73632536                3.14548242               17.05910975                0.23743205               -0.10950668               -0.14063428                0.43079401                0.01899670                0.95432716               -1.42267108
               3.73582643                3.07629882               17.00284233                0.00010000               -0.56702702               -0.10493197                0.13634854                1.05442171                4.18455261               -2.18006636
               4.72498482                3.02701377               16.99300197                0.00010000               -1.11962938                0.13533918                0.01491371                2.71801845                6.02118824               -2.75128498
               5.71343384                2.97424117               16.97466602                0.00010000               -0.88629703               -0.00676278               -0.13049976                2.31048666                5.23321771               -1.21877687
               6.70725888                2.92494215               16.95018088                0.00010000               -0.49484315               -0.08069374               -0.30145238                2.02881681                4.82279563                0.54096244
               7.70353698                2.87795946               16.92449622                0.00010000               -0.35227602               -0.16028910               -0.47769703                1.50984304                4.59151719                0.57229395
               8.70021336                2.83397811               16.89611859                0.25287629               -0.05577798                0.27192793               -0.67344246                0.61038612                2.79546988                1.99706629
               9.70242142                2.78098225               16.83542137                1.00000000                0.27410356                0.32086568               -0.94526009                0.05576720                0.59242345                0.74709134
              10.70569543                2.72730273               16.76296835                1.00000000                0.32740061                0.37099220               -1.28707535               -0.02288108                0.00379322               -0.48639224
               0.80859995                4.27997067               17.18905446                1.00000000               -0.22152857               -0.28998152                0.91854694               -0.02107843                0.03862161                1.16843401
               1.80638467                4.21237471               17.10823452                0.98089749               -0.17675416               -0.18581469                0.59908614                0.00082288                0.03970003               -0.08377854
               2.80506487                4.14438924               17.02739128                0.13406936               -0.08004423               -0.08130979                0.28720800               -0.00726659                1.14609847               -1.26330328
               3.80478378                4.07581697               16.96869605                0.00010000               -0.59534184                0.18006526               -0.08808334                0.80880792                5.38555882               -1.32218651
               4.79315803                4.02765853               16.97242978                0.00010000               -1.11419105                0.14074284               -0.12850772                1.62973377                7.98271628               -1.09827577
               5.78249996                3.97618454               16.96709669                0.00010000               -1.05145752                0.22703912               -0.17144762                1.49099803                7.27050360               -0.58600123
               6.77212888                3.92585241               16.95806579                0.00010000               -0.97238983                0.18253549               -0.25464007                1.38614179                6.96085371                0.20254751
               7.76305217                3.87873767               16.94793201                0.00010000               -0.87979498                0.15371430               -0.36061330                1.34211599                6.96330485                1.10138570
               8.75453298                3.83649605               16.94025998                0.24114192               -0.35150645                0.19950990               -0.47816635                0.62644724                3.72762856                2.27904516
               9.75602204                3.78387621               16.86655380                1.00000000                0.21904304                0.25725299               -0.79349701                0.03339227                0.21461962                0.67778065
              10.75891384                3.73093337               16.78855796                1.00000000                0.28918078                0.35036601               -1.16218266               -0.02080926               -0.00083931               -0.39263086
               0.87542827                5.27720879               17.16926050                1.00000000               -0.18138162               -0.25629377                0.79122285               -0.02456955                0.10487106                1.05670057
               1.87361445                5.21073541               17.08266530                0.79026400               -0.13452513               -0.14028807                0.45303165               -0.00380539                0.18419620               -0.21970380
               2.87273776                5.14385623               16.99761697                0.08137143               -0.24405751               -0.02614530                0.12614074                0.16729664                2.29990032               -1.36859313
               3.86873330                5.07990013               16.95331710                0.00010000               -0.77629221                0.47222131               -0.47465779                0.60337229                6.95840924                0.03786766
               4.85721192                5.02982862               16.96075188                0.00010000               -1.18366884                0.29094917               -0.23632366                1.23096200                9.27299730               -0.42614891
               5.84505992                4.97878195               16.96494226                0.00010000               -1.23916681                0.31875239               -0.19487932                1.06447844                8.96937355               -0.16015559
               6.83242858                4.92859286               16.96828803                0.00010000               -1.26621316                0.32006457               -0.20313349                1.00029380                8.87142122                0.39766459
               7.81973566                4.88103375               16.97239590                0.00010000               -1.24124086                0.25027547               -0.23881446                1.03528638                8.94899390                1.12891226
               8.80760377                4.83796831               16.97900051                0.25010285               -0.55418562                0.10866487               -0.28589313                0.49764922                4.58566382                1.89358008
               9.80865195                4.78612731               16.89729276                0.89679448                0.17805724                0.20183660               -0.65721199                0.01606367                0.10881250                0.65775257
              10.81116491                4.73431005               16.81434229                1.00000000                0.25129635                0.32511358               -1.04267871               -0.02048417                0.04633004               -0.40335548
               0.94105533                6.27484479               17.14821325                1.00000000               -0.13942049               -0.21378737                0.65655615               -0.02563024                0.06922823                0.93919800
               1.93966112                6.20956895               17.05477518                0.66773806               -0.09046229               -0.09281431                0.30104827               -0.00508388                0.19623894               -0.39964963
               2.93924608                6.14386633               16.96383644                0.05764852               -0.43911454                0.02697626               -0.04160089                0.37540345                4.04195311               -1.70039800
               3.93087883                6.08526140               16.94729131                0.00010000               -1.01753165                0.48772090               -0.46797102                0.73991242                8.89612378                0.00227540
               4.91889545                6.03347751               16.95365680                0.00010000               -1.29267688                0.43039527               -0.29427206                0.99972298               10.22766624               -0.17118343
               5.90502529                5.98255959               16.96582713                0.00010000               -1.45062420                0.45113042               -0.19278939                0.86124274               10.50179282                0.05522908
               6.88988297                5.93225370               16.98000870                0.00010000               -1.53214225                0.42015564               -0.14240841                0.71811572               10.59800753                0.50153191
               7.87438245                5.88374318               16.99638282                0.00010000               -1.52452797                0.28460426               -0.11764338                0.69990778               10.74610651                1.08451989
               8.85939241                5.83866935               17.01560249                0.26663001               -0.71904428                0.03848121               -0.10865336                0.31622898                5.46168326                1.73819957
               9.86000156                5.78791294               16.92807950                0.82724525                0.13731371                0.15896705               -0.51773917                0.00444994                0.08287041                0.61518842
              10.86213868                5.73743564               16.83968234                1.00000000                0.21371159                0.29802351               -0.93962429               -0.01926808                0.04276993               -0.47095268
               1.00546735                7.27293304               17.12595766                1.00000000               -0.09761234               -0.16802173                0.51908545               -0.02507713                0.03127286                0.85325241
               2.00449123                7.20887912               17.02559553                0.60213558               -0.04569853               -0.04563616                0.14941828               -0.00473170                0.14586359               -0.48733998
               3.00455338                7.14439575               16.92748911                0.04934625               -0.52854308                0.07782203               -0.21381403                0.50851864                5.34113250               -1.89746852
               3.99392037                7.08965455               16.93102420                0.00010000               -1.23225992                0.44478194               -0.40903500                0.97076490               10.97519915               -0.69550908
               4.97990818                7.03843653               16.94678178                0.00010000               -1.52058903                0.57113269               -0.28694671                0.95683015               11.72480583               -0.21070217
               5.96350859                6.98780456               16.96758966                0.00010000               -1.71504388                0.61848477               -0.16921742                0.71318734               12.02639126                0.10953615
               6.94560731                6.93699597               16.99198970                0.00010000               -1.80952098                0.55096873               -0.07552297                0.44700290               12.24496536                0.50282222
               7.92731817                6.88672583               17.01980212                0.00010000               -1.79243594                0.33095333                0.00040549                0.30527142               12.47853524                1.01297365
               8.90975859                6.83873793               17.05129296                0.28862810               -0.86717580               -0.02214193                0.06314751                0.08918489                6.31700942                1.65052757
               9.90997465                6.78930665               16.95793276                0.79377803                0.09877753                0.11699609               -0.38035407               -0.00107280                0.05119141                0.53694218
              10.91173414                6.74027052               16.86402160                1.00000000                0.17594863                0.26666902               -0.82786277               -0.01803029                0.02884155               -0.54761268
               1.06866163                8.27148436               17.10308362                1.00000000               -0.05578488               -0.12267206                0.38190546               -0.02425686                0.01352140                0.81822867
               2.06810378                8.20865622               16.99595057                0.58675414               -0.00102993                0.00090964               -0.00075297               -0.00302114                0.06735633               -0.52003627
               3.06864103                8.14542278               16.88986566                0.04579885               -0.59252131                0.12622680               -0.38449573                0.62140108                6.44705750               -1.88890438
               4.05625335                8.09415703               16.91034060                0.00010000               -1.43794961                0.52070182               -0.41462154                1.11145764               13.05158849               -0.80244721
               5.03988204                8.04490017               16.93826667                0.00010000               -1.77618777                0.74726125               -0.27230284                0.89469528               13.42211555               -0.25612445
               6.02072960                7.99492929               16.96887812                0.00010000               -1.99901426                0.79411356               -0.13782795                0.55406913               13.59091950                0.08805423
               6.99990175                7.94327308               17.00316506                0.00010000               -2.09918374                0.73817308               -0.01041305                0.17606847               13.85366653                0.41188820
               7.97874592                7.89036225               17.04203190                0.00551202               -2.06532333                0.44648298                0.11130860               -0.17791915               14.20538551                0.84062145
               8.95859529                7.83822651               17.08611698                0.31622855               -1.01492035               -0.07540447                0.22881786               -0.20503771                7.19122355                1.50645924
               9.95844752                7.79025286               16.98703622                0.79969291                0.06275242                0.07106501               -0.24236315               -0.00704344                0.02391271                0.49617592
              10.95985033                7.74276902               16.88764886                1.00000000                0.14028181                0.23167349               -0.71656889               -0.01722630                0.01567949               -0.59636149
               1.13063849                9.27047960               17.08004033                1.00000000               -0.01460959               -0.08011011                0.24682230               -0.02342719               -0.00210728                0.68805335
               2.13049239                9.20889731               16.96612006                0.60860428                0.04210535                0.04683713               -0.14897402               -0.00106696                0.07871379               -0.45919800
               3.13148059                9.14692029               16.85379649                0.02641345               -0.69101306                0.17023217               -0.54452559                0.77949715                7.64429358               -1.33089505
               4.11667213                9.10006858               16.89122336                0.00010000               -1.72253769                0.81542555               -0.43381477                0.96328796               15.04254591               -0.47481689
               5.09702984                9.05338176               16.92954735                0.00010000               -2.02275342                0.89428337               -0.27420448                0.63216393               14.99163037               -0.16055616
               6.07621706                9.00368683               16.96921622                0.00010000               -2.16670623                0.90848695               -0.11606600                0.33187868               15.07825104                0.05027678
               7.05369571                8.95175944               17.01247452                0.00010000               -2.37053542                0.88257093                0.04294656               -0.00944350               15.38437911                0.23965811
               8.02880635                8.89565549               17.06149536                0.02021314               -2.39642465                0.76879590                0.20617046               -0.48918984               15.92366033                0.48746168
               9.00576722                8.83722984               17.11885067                0.34746388               -1.17575404               -0.10763837                0.37968191               -0.59209612                8.19046137                1.01143903
              10.00529127                8.79072795               17.01593809                0.84768433                0.02950319                0.02725666               -0.10792277               -0.01607285                0.07469631                0.42119465
              11.00635729                8.74490399               16.91081070                0.97639314                0.10660139                0.19516643               -0.60904100               -0.01728869               -0.02700505               -0.51605414
               1.19135766               10.26988216               17.05449786                1.00000000                0.02840943               -0.05974457                0.11204274                0.04299823                0.37614122                0.56556231
               2.19164175               10.20959297               16.93769913                0.83692091                0.08510224                0.06956515               -0.29100791                0.06219939                0.70307935               -0.38956091
               3.19305970               10.14882742               16.82743030                0.51603660               -1.12920535                0.19071301               -0.68083606                1.20154003                8.98072050               -0.85005325
               4.16905765               10.11046555               16.87623969                0.36238988               -2.20763188                1.03969627               -0.47729122                0.93647249               16.55426211               -0.19460549
               5.14890707               10.06278584               16.92170510                0.35504933               -2.00340777                0.94040804               -0.29993978                0.31939658               16.29118807               -0.05066562
               6.12898949               10.01309902               16.96848435                0.37506482               -2.05814217                0.94121916               -0.11266987                0.18417602               16.39414902                0.06512892
               7.10774422                9.96092450               17.01897786                0.42002507               -2.27488843                0.91650611                0.07734550                0.03680781               16.74790565                0.16911061
               8.08349172                9.90573817               17.07585448                0.51643147               -2.80316590                1.00826729                0.27441107               -0.77400068               17.44546432                0.31325561
               9.05168090                9.83607374               17.14364192                0.68918142               -1.65199072               -0.11560957                0.48628459               -1.15564036                9.37387359                0.62562346
              10.05045191                9.79079799               17.04338363                0.95676128               -0.02642119                0.00700419                0.01329079                0.04599401                0.61375479                0.35834585
              11.05115248                9.74667235               16.93583496                0.98725333                0.07005732                0.17683615               -0.50010071                0.06695544                0.26040508               -0.41193827
               0.58899622                0.32523780               18.28173450                1.00000000               -0.35825084               -0.39175498                1.37040044               -0.07152472               -0.70264939                0.74115284
               1.58541371                0.24778921               18.21650172                1.00000000               -0.29570559               -0.31305964                1.09863139               -0.05733450               -0.88410586                0.04794579
               2.58308211                0.17018272               18.14756345                1.00000000               -0.15889346               -0.23621687                0.81274102               -0.03828976               -0.82168513               -0.20406579
               3.58223584                0.09375301               18.08352605                0.61980972                0.31532554               -0.18569185                0.53762655                0.48633661                0.15458450               -0.56226063
               4.58938862                0.02951225               18.03411108                0.70111565                0.46382740               -0.06823417                0.24374964               -0.06083625                0.68793384                0.12587694
               5.59151239               -0.02590628               17.98090894                0.78391309                0.14466838                0.02213563               -0.06371018                0.00392772                0.30057512                0.07083406
               6.59228199               -0.07991063               17.92382734                0.76564271                0.05064841                0.10542130               -0.36580186                0.00921756                0.11486932               -0.04619764
               7.59252536               -0.13496864               17.86686514                0.86179974                0.05756399                0.19981466               -0.67729689                0.04162813               -0.11014820                0.05138125
               8.59343327               -0.19350625               17.80512360                1.00000000                0.18532066                0.30446985               -0.98384184                0.02847782               -0.48077174                0.41119975
               9.59623177               -0.25439755               17.74064065                1.00000000                0.34587427                0.37418311               -1.28250108               -0.04682530               -0.58678211                0.01288994
              10.60035075               -0.31553106               17.67683674                1.00000000                0.41189800                0.45488445               -1.56578003               -0.06957401               -0.55882593               -0.57803410
               0.66572956                1.32132025               18.25691161                1.00000000               -0.33616530               -0.36990983                1.24645151               -0.03179710               -0.09139504                1.00901081
               1.66236790                1.24465862               18.19126288                1.00000000               -0.30061227               -0.29040326                0.97419576               -0.01463930               -0.05487862                0.07022260
               2.65971731                1.16782056               18.12628842                0.80269930               -0.24667282               -0.21409782                0.69917329                0.02732134                0.17037604               -0.56243934
               3.65743445                1.09189610               18.06512950                0.13495075               -0.55537035               -0.17781580                0.43762125                0.69340547                1.61872278               -0.96844012
               4.64860990                1.02882991               18.02918400                0.29328582               -0.55856689                0.06243279                0.19780732               -0.05204812                2.30912239                0.91762847
               5.64626311                0.97431508               17.98197970                0.38465058               -0.08522803                0.08702976               -0.08367531                0.21436280                1.51343221                0.35501415
               6.64690534                0.92114358               17.93019555                0.28113535                0.17381691                0.03583241               -0.36522581                0.24456737                1.37976978               -0.38198121
               7.64973945                0.86702951               17.88049219                0.43546475                0.32635800                0.19618421               -0.63570301                0.31762039                1.34600447                0.58299177
               8.65343250                0.80953845               17.82837744                1.00000000                0.35182387                0.28462347               -0.90511263                0.13807552                0.68847648                0.58326976
               9.65677593                0.74934428               17.76580629                1.00000000                0.36780051                0.36172228               -1.18593227                0.00021556                0.09894235                0.08447768
              10.66078851                0.68901779               17.70199019                1.00000000                0.40125888                0.43441371               -1.46853937               -0.02474968                0.03212407               -0.68531802
               0.74168354                2.31783960               18.23736634                1.00000000               -0.30629202               -0.33397863                1.13803421               -0.02335334                0.03361620                1.29054502
               1.73862062                2.24198115               18.16642099                1.00000000               -0.26462402               -0.25252226                0.85272127                0.00255151                0.15233590                0.04740957
               2.73639106                2.16590077               18.09781954                0.45424301               -0.17630082               -0.18239011                0.56656901                0.05904587                0.73470317               -1.21906512
               3.73509460                2.09019670               18.03853452                0.00010000               -1.52311907               -0.17467663                0.28394346                0.98821482                4.22835729               -1.75768197
               4.70592868                2.03076090               18.04002690                0.00010000               -1.58043135                0.19375570                0.18182924                1.89284614                4.58408194               -1.18872950
               5.70348597                1.97583432               17.98869564                0.00010000               -0.07348854               -0.04224164               -0.09756627                1.62873814                1.57534180               -0.46602009
               6.70445891                1.92080602               17.92985403                0.00010000                0.34984605               -0.15523371               -0.36325413                1.42239903                2.88004088                0.17963868
               7.71048290                1.86895505               17.90478479                0.00010000                0.47105519               -0.10642964               -0.59642963                0.99052955                3.28134849                0.64485112
               8.71388001                1.81218622               17.85516598                0.46578314                0.31369266                0.27665592               -0.80819022                0.24349696                1.39461070                1.12852022
               9.71675675                1.75283689               17.79250050                1.00000000                0.33143629                0.34899606               -1.08372233                0.04179355                0.50529871                0.49627285
              10.72050873                1.69315722               17.72510571                1.00000000                0.37519863                0.39825215               -1.38366291               -0.01178498                0.26627651               -0.69405632
               0.81697939                3.31464067               18.21809984                1.00000000               -0.26216268               -0.31007824                1.02732778               -0.01589947                0.04285518                1.27551190
               1.81435777                3.23960817               18.14068204                1.00000000               -0.21483570               -0.22205880                0.72655878                0.00741349                0.05213580               -0.03212445
               2.81268268                3.16417275               18.06341361                0.25093229               -0.10095795               -0.14221082                0.42980154                0.01615308                0.96360216               -1.45275046
               3.81233861                3.08840256               18.00421113                0.00010000               -0.59267346               -0.11431380                0.13663304                1.05510214                4.25345777               -2.23176127
               4.80082921                3.03270502               17.99319270                0.00010000               -1.17729226                0.11898618                0.01820117                2.72632592                6.18552127               -2.84427017
               5.78879276                2.97347024               17.97336298                0.00010000               -0.92983069               -0.02533784               -0.13283129                2.29598799                5.39388968               -1.22590099
               6.78223260                2.91803891               17.94716476                0.00010000               -0.53114653               -0.10010918               -0.30310903                2.00200106                4.97882852                0.59261605
               7.77816983                2.86490091               17.91971658                0.00010000               -0.39059991               -0.16717221               -0.47933786                1.49668531                4.73958741                0.65418285
               8.77442060                2.81507157               17.88936628                0.25263766               -0.07645146                0.26384674               -0.67827977                0.59386256                2.90271529                2.08862131
               9.77664080                2.75632420               17.82596608                1.00000000                0.27457809                0.31728458               -0.94695720                0.05119866                0.62898358                0.78977185
              10.77991216                2.69698283               17.75011154                1.00000000                0.32713574                0.37542051               -1.28548992               -0.02153550                0.00669611               -0.50279861
               0.89143055                4.31163803               18.19818585                1.00000000               -0.21937444               -0.28627050                0.90802237               -0.01980916                0.04541045                1.18857244
               1.88923681                4.23753997               18.11420939                0.96845825               -0.17554122               -0.18504057                0.59563493                0.00234637                0.05055574               -0.09600106
               2.88791973                4.16305655               18.03029291                0.14232403               -0.07862159               -0.08350988                0.29212084               -0.00976066                1.12858933               -1.30474402
               3.88766438                4.08791042               17.96787159                0.00010000               -0.62661073                0.15716576               -0.06527026                0.80679014                5.47562598               -1.48247266
               4.87538751                4.03314063               17.97119833                0.00010000               -1.17962635                0.12746412               -0.12072927                1.62181851                8.25584320               -1.16213299
               5.86407185                3.97532756               17.96538773                0.00010000               -1.11596283                0.22368891               -0.17216827                1.48288200                7.53962595               -0.58918467
               6.85306826                3.91880383               17.95551549                0.00010000               -1.03439561                0.17640860               -0.25664934                1.36649549                7.21296189                0.24963113
               7.84338394                3.86561160               17.94430914                0.00010000               -0.93671394                0.14996055               -0.36518357                1.31389299                7.20642154                1.18451693
               8.83433398                3.81746316               17.93542930                0.23907694               -0.37572377                0.18901166               -0.48890072                0.60676259                3.87664948                2.39767286
               9.83586946                3.75918258               17.85862524                0.99006147                0.22133895                0.25461931               -0.79974610                0.03022802                0.24447759                0.71869957
              10.83876076                3.70066563               17.77698434                1.00000000                0.28912952                0.35447181               -1.16037634               -0.01950516                0.00533692               -0.39887384
               0.96477933                5.30891526               18.17711745                1.00000000               -0.17931580               -0.25183355                0.78028179               -0.02400018                0.10810773                1.06821843
               1.96298618                5.23590736               18.08717074                0.78138082               -0.13311596               -0.13961362                0.44824001               -0.00284693                0.19306684               -0.24192866
               2.96211702                5.16250256               17.99888058                0.08862522               -0.22979221               -0.02848957                0.12725663                0.14525561                2.18172570               -1.42301514
               3.95839033                5.09154588               17.94869611                0.00010000               -0.81342865                0.44823521               -0.43108664                0.59436370                7.10032784               -0.04843032
               4.94584844                5.03525430               17.95838440                0.00010000               -1.28015672                0.29452621               -0.23779596                1.24006159                9.75082281               -0.45385244
               5.93278720                4.97794402               17.96298543                0.00010000               -1.32849892                0.32884184               -0.19695966                1.05187429                9.34385309               -0.14484046
               6.91927846                4.92156708               17.96624423                0.00010000               -1.34994167                0.32860266               -0.20664831                0.97301111                9.21876446                0.44940717
               7.90578836                4.86790013               17.96997816                0.00010000               -1.31467980                0.25337165               -0.24597417                0.99977178                9.28699776                1.21308194
               8.89298487                4.81885180               17.97607839                0.24760496               -0.58727362                0.10313666               -0.29990777                0.47239896                4.77004275                2.00517350
               9.89404289                4.76141658               17.89072774                0.87950869                0.17855477                0.20266369               -0.66123481                0.01238028                0.12762950                0.69199853
              10.89655596                4.70407227               17.80394282                1.00000000                0.25130712                0.32910461               -1.04630913               -0.01879700                0.05874594               -0.42260207
               1.03696636                6.30660136               18.15472303                1.00000000               -0.13737782               -0.20874053                0.64538992               -0.02487608                0.06972691                0.94491613
               2.03559258                6.23474770               18.05776235                0.66127304               -0.08900168               -0.09231390                0.29652942               -0.00347511                0.20319361               -0.42344012
               3.03518632                6.16248676               17.96342912                0.06388845               -0.43963377                0.02368400               -0.03964482                0.35538682                3.99693017               -1.75729116
               4.02679990                6.09687513               17.94232888                0.00010000               -1.06978607                0.50210143               -0.51466826                0.70671164                9.13702211                0.10867457
               5.01379060                6.03903115               17.95065223                0.00010000               -1.40016708                0.45195280               -0.30406819                1.00266358               10.75205540               -0.14330153
               5.99879656                5.98190440               17.96387117                0.00010000               -1.56091123                0.47682442               -0.19849066                0.83876978               10.96272097                0.09196841
               6.98257238                5.92537589               17.97856039                0.00010000               -1.63509570                0.44116100               -0.14810146                0.67787847               11.02998639                0.55852305
               7.96609465                5.87067903               17.99516374                0.00010000               -1.61534386                0.29575463               -0.12740774                0.64948434               11.16845257                1.16507586
               8.95026550                5.81952589               18.01444282                0.26418580               -0.75990214                0.03783767               -0.12481656                0.28361441                5.68015212                1.83951736
               9.95089660                5.76323586               17.92282765                0.81179094                0.14039748                0.16384998               -0.53403091                0.00210936                0.08851521                0.65177814
              10.95307345                5.70724772               17.83021469                1.00000000                0.21768448                0.30514375               -0.95505671               -0.01773094                0.04310645               -0.49273002
               1.10798914                7.30474045               18.13109575                1.00000000               -0.09578628               -0.16334851                0.50846979               -0.02427217                0.03115349                0.85742045
               2.10703128                7.23406108               18.02707548                0.59719759               -0.04459079               -0.04542794                0.14638194               -0.00300474                0.14908654               -0.50919426
               3.10709732                7.16297624               17.92537633                0.05402515               -0.55255527                0.07354714               -0.20931306                0.50845694                5.41579001               -1.95346297
               4.09598017                7.10158791               17.92668456                0.00010000               -1.31124403                0.47850695               -0.45808019                0.95499081               11.31853495               -0.57767705
               5.08087244                7.04429336               17.94381148                0.00010000               -1.63811559                0.60898947               -0.30598410                0.95107299               12.25066814               -0.14504935
               6.06321786                6.98748051               17.96585583                0.00010000               -1.84055244                0.65902970               -0.17764234                0.68241893               12.54184569                0.15931335
               7.04406140                6.93039030               17.99119885                0.00010000               -1.92949078                0.58500409               -0.08354130                0.39279088               12.74878449                0.55920328
               8.02462804                6.87381522               18.01974933                0.00010000               -1.89805309                0.35075686               -0.01223333                0.23756428               12.97850228                1.08614597
               9.00610033                6.81960856               18.05182366                0.28632844               -0.91323975               -0.01944332                0.04177750                0.04933315                6.57147803                1.74548884
              10.00636325                6.76469358               17.95402681                0.77922271                0.10386407                0.12358601               -0.40152905               -0.00181533                0.05372704                0.57555296
              11.00817761                6.71017514               17.85564084                1.00000000                0.18143652                0.27640281               -0.84897903               -0.01700634                0.03030447               -0.56204353
               1.17783965                8.30333439               18.10685527                1.00000000               -0.05429535               -0.11891398                0.37230495               -0.02355495                0.01310337                0.82357596
               2.17729670                8.23383914               17.99593928                0.58284891               -0.00055088                0.00088563               -0.00194068               -0.00172432                0.06665835               -0.53956151
               3.17782864                8.16395770               17.88606292                0.04852302               -0.63570530                0.12183332               -0.37703228                0.64279293                6.61164247               -1.93714181
               4.16458259                8.10644527               17.90605587                0.00010000               -1.54545899                0.55934937               -0.44336227                1.12873757               13.50033785               -0.72167798
               5.14691946                8.05121094               17.93546917                0.00010000               -1.91172968                0.79959599               -0.28745530                0.89505370               13.97805092               -0.19509225
               6.12634800                7.99508499               17.96745624                0.00010000               -2.14129848                0.84840064               -0.14712827                0.52289923               14.15162373                0.13372231
               7.10409349                7.93707597               18.00301631                0.00010000               -2.23601640                0.78806005               -0.02039433                0.11521190               14.42086475                0.45765006
               8.08162767                7.87769417               18.04307244                0.00589861               -2.18598450                0.47798504                0.09542748               -0.26391091               14.78060707                0.89952318
               9.06037380                7.81913703               18.08827981                0.31394998               -1.06669803               -0.06990688                0.20237165               -0.25681374                7.48549039                1.59123201
              10.06029371                7.76570758               17.98448725                0.78444870                0.06982030                0.07848685               -0.26826302               -0.00809550                0.02582164                0.53295154
              11.06177020                7.71277578               17.88035452                1.00000000                0.14764907                0.24204460               -0.74265870               -0.01599173                0.01646971               -0.61295687
               1.24650855                9.30236217               18.08246747                1.00000000               -0.01350646               -0.07722466                0.23840731               -0.02289776               -0.00330875                0.69475748
               2.24637348                9.23407879               17.96463791                0.60475825                0.04192561                0.04647684               -0.14814082               -0.00035455                0.07804794               -0.47424059
               3.24734706                9.16541290               17.84841076                0.02641182               -0.75358987                0.16624210               -0.53395820                0.82505279                7.88997839               -1.36113810
               4.23130168                9.11277489               17.88684462                0.00010000               -1.86066327                0.87086890               -0.44302113                0.99794069               15.58415377               -0.41840820
               5.21013379                9.06028528               17.92676617                0.00010000               -2.17454323                0.95519382               -0.28292280                0.63872038               15.58325595               -0.12613897
               6.18781082                9.00444852               17.96801737                0.00010000               -2.31886704                0.97142789               -0.12469859                0.31147110               15.68767592                0.07624781
               7.16375645                8.94615150               18.01285180                0.00010000               -2.52610257                0.94562656                0.03126580               -0.05670600               16.01195151                0.26461546
               8.13728877                8.88337492               18.06346964                0.02121768               -2.54028996                0.82747649                0.18727525               -0.56957457               16.57283409                0.52134923
               9.11295065                8.81821042               18.12249637                0.34492113               -1.23630903               -0.09823735                0.34782395               -0.65985684                8.53052979                1.06702219
              10.11256259                8.76626332               18.01470698                0.82932085                0.03853627                0.03642810               -0.13931891               -0.01790022                0.08124837                0.44926772
              11.11372138                8.71501604               17.90456320                0.97768183                0.11587909                0.20597184               -0.64075930               -0.01601435               -0.02697112               -0.53427648
               1.31394845               10.30178990               18.05558455                1.00000000                0.02904252               -0.05722734                0.10492796                0.04186860                0.37963201                0.57263190
               2.31423888               10.23476868               17.93480682                0.83545638                0.08425685                0.06898826               -0.28837625                0.06117206                0.71356654               -0.40107672
               3.31563359               10.16728254               17.82069104                0.51547712               -1.22849251                0.18696427               -0.66858227                1.28335162                9.28962964               -0.86786490
               4.28966903               10.12386264               17.87147370                0.36295725               -2.38066791                1.10877489               -0.47704049                0.98834823               17.17678571               -0.16213819
               5.26802023               10.07031482               17.91868337                0.35527025               -2.14789138                1.00295387               -0.30554743                0.32118928               16.93166263               -0.03653159
               6.24671120               10.01451355               17.96732141                0.37490046               -2.19936314                1.00650239               -0.12111853                0.17372226               17.06028489                0.07510627
               7.22403297                9.95598850               18.01969033                0.41951898               -2.42669710                0.98369990                0.06382272                0.01415950               17.43398873                0.17884351
               8.19817726                9.89424370               18.07849383                0.51729550               -2.98723564                1.08687816                0.25214581               -0.85196183               18.15482867                0.32819922
               9.16428826                9.81717228               18.14832247                0.68817266               -1.75235839               -0.10381418                0.44822734               -1.25661763                9.76650892                0.65975316
              10.16313009                9.76643614               18.04333214                0.94627109               -0.01718861                0.01728180               -0.02460826                0.04289723                0.64804615                0.38006899
              11.16394449                9.71689521               17.93064164                0.98713900                0.08143936                0.18791790               -0.53870556                0.06821829                0.27455928               -0.42971628
               0.64844847                0.35820515               19.29536890                1.00000000               -0.35464463               -0.38806824                1.35707887               -0.06998005               -0.72570557                0.76399535
               1.64490202                0.27414400               19.22743732                1.00000000               -0.29266153               -0.31094800                1.08938394               -0.05460631               -0.91562987                0.05085140
               2.64259524                0.18995965               19.15565451                1.00000000               -0.15771109               -0.23426237                0.80535823               -0.03531981               -0.85818765               -0.21125650
               3.64174780                0.10697044               19.08885955                0.61959810                0.31022964               -0.17738860                0.52994263                0.47576538                0.11377128               -0.57588111
               4.64879983                0.03598568               19.03652273                0.70414785                0.45761826               -0.06605942                0.23914201               -0.07022333                0.63575763                0.13542817
               5.65090017               -0.02614080               18.98027022                0.78776615                0.14487545                0.02400956               -0.06354263                0.00097213                0.24630202                0.07695478
               6.65169734               -0.08676715               18.92019996                0.76849466                0.05617818                0.10506603               -0.35945467                0.00880234                0.05890518               -0.05038442
               7.65202373               -0.14826594               18.86015175                0.86423781                0.06459977                0.19820045               -0.66543984                0.03793416               -0.16861992                0.05670509
               8.65298934               -0.21298801               18.79536633                1.00000000                0.18687908                0.29978563               -0.96770385                0.02457988               -0.53291599                0.42215939
               9.65576131               -0.27992692               18.72791414                1.00000000                0.34158824                0.36930134               -1.26284686               -0.04566143               -0.62701993                0.01121853
              10.65982110               -0.34710993               18.66129586                1.00000000                0.40597893                0.44950788               -1.54250443               -0.06699222               -0.59113601               -0.60942244
               0.73180982                1.35432446               19.26931639                1.00000000               -0.33311063               -0.36662499                1.23464961               -0.03105220               -0.09452367                1.03873203
               1.72847871                1.27103452               19.20096704                1.00000000               -0.29904975               -0.28846801                0.96667747               -0.01224180               -0.05856873                0.07470719
               2.72582882                1.18761702               19.13327239                0.78779224               -0.24931351               -0.21321056                0.69969922                0.03396954                0.17443296               -0.58174865
               3.72349244                1.10519655               19.06956465                0.14098878               -0.55878019               -0.16450489                0.44535555                0.67733652                1.63668698               -1.01589211
               4.71465322                1.03532508               19.03115985                0.30437283               -0.56030696                0.05913913                0.19422360               -0.08182830                2.31900658                0.93724509
               5.71228630                0.97409929               18.98113756                0.39790133               -0.09026417                0.08784568               -0.08586869                0.19782905                1.50899575                0.36220315
               6.71284794                0.91428351               18.92655380                0.29212568                0.16136005                0.04285032               -0.36385338                0.23509668                1.38349837               -0.38536424
               7.71551350                0.85371606               18.87416602                0.44492775                0.31088456                0.19410129               -0.63016584                0.29544422                1.35659078                0.58687902
               8.71906563                0.79000985               18.81937119                1.00000000                0.34260781                0.28135343               -0.89656025                0.12926211                0.69398839                0.60318705
               9.72236566                0.72376609               18.75400859                1.00000000                0.36342807                0.35757443               -1.17401547                0.00057782                0.09833652                0.08555679
              10.72633419                0.65738515               18.68738480                1.00000000                0.39685291                0.43104942               -1.45298218               -0.02277181                0.03105460               -0.72279429
               0.81440732                2.35087265               19.24869326                1.00000000               -0.30426871               -0.33126600                1.12693881               -0.02276062                0.03748933                1.32491686
               1.81136463                2.26837464               19.17492518                1.00000000               -0.26473593               -0.25068536                0.84718002                0.00447933                0.15592896                0.04944428
               2.80911260                2.18569544               19.10344673                0.45519566               -0.18890783               -0.18314918                0.56715001                0.07725930                0.74264898               -1.24972588
               3.80758647                2.10368034               19.04138898                0.00010000               -1.54260372               -0.14350149                0.30831846                0.95485396                4.32916797               -1.83973974
               4.77826052                2.03716846               19.04177521                0.00010000               -1.58440764                0.18159297                0.16084395                1.84129728                4.70579122               -1.21900812
               5.77589832                1.97561611               18.98767469                0.00010000               -0.07390085               -0.05341124               -0.10688533                1.59873382                1.61622492               -0.46420970
               6.77678251                1.91408986               18.92621543                0.00010000                0.31539797               -0.15752457               -0.36556388                1.38169401                2.94179570                0.20634015
               7.78220628                1.85561608               18.89881576                0.00010000                0.43710225               -0.10986451               -0.59825474                0.95814543                3.36989983                0.68892039
               8.78552455                1.79263906               18.84708994                0.47249139                0.30956443                0.27386854               -0.80778338                0.22805115                1.46155312                1.17440316
               9.78839757                1.72722457               18.78168691                1.00000000                0.33014999                0.34434336               -1.07966352                0.03810867                0.52883384                0.51716611
              10.79212755                1.66151106               18.71131169                1.00000000                0.37299835                0.39914887               -1.37580471               -0.01113862                0.27825133               -0.73105786
               0.89635062                3.34769914               19.22832413                1.00000000               -0.26051114               -0.30740688                1.01686094               -0.01514490                0.04722733                1.30234923
               1.89374551                3.26602081               19.14792260                1.00000000               -0.21411565               -0.22043295                0.72185619                0.00894939                0.05887621               -0.03594159
               2.89206831                3.18395404               19.06770578                0.25872102               -0.13145065               -0.14340211                0.42810278                0.05837842                0.97179438               -1.48044789
               3.89111650                3.10232652               19.00557499                0.00010000               -0.62624579               -0.09989004                0.14158102                1.04036591                4.32579675               -2.29693542
               4.87954339                3.03895694               18.99336600                0.00010000               -1.18884578                0.10278577                0.00948394                2.66013944                6.35222529               -2.93211282
               5.86733958                2.97303107               18.97200939                0.00010000               -0.95307740               -0.04188539               -0.13923282                2.26265396                5.55344711               -1.22738788
               6.86048184                2.91113302               18.94411870                0.00010000               -0.56061857               -0.11621461               -0.30683868                1.95859517                5.13225257                0.64746203
               7.85612721                2.85151877               18.91490946                0.00010000               -0.42318379               -0.17248229               -0.48313171                1.47073503                4.88184097                0.73951732
               8.85201817                2.79548722               18.88255299                0.25236292               -0.09356876                0.25491679               -0.68529853                0.56797552                3.00596118                2.18103111
               9.85425583                2.73065296               18.81648223                1.00000000                0.27601324                0.31319847               -0.95118561                0.04199433                0.66463452                0.83124272
              10.85753843                2.66536812               18.73725855                1.00000000                0.32825987                0.38067752               -1.28632457               -0.01974243                0.00859800               -0.51931651
               0.97746108                4.34472451               19.20721491                1.00000000               -0.21723608               -0.28315820                0.89741869               -0.01919269                0.05367708                1.20578042
               1.97528872                4.26396598               19.12014722                0.95572543               -0.17433134               -0.18384666                0.59152952                0.00350147                0.06362695               -0.10981986
               2.97397446                4.18282739               19.03323370                0.14817936               -0.09489171               -0.08471615                0.29526889                0.02475824                1.12509277               -1.34607230
               3.97339089                4.10168254               18.96739065                0.00010000               -0.66078459                0.10738588               -0.02789356                0.82581610                5.57159518               -1.63935692
               4.96075877                4.03922417               18.97001519                0.00010000               -1.22077833                0.11703657               -0.11952067                1.57457656                8.51610078               -1.23164253
               5.94897532                3.97477840               18.96365332                0.00010000               -1.16460288                0.21853159               -0.17492881                1.46394815                7.80424756               -0.58692007
               6.93746671                3.91176556               18.95293280                0.00010000               -1.08542699                0.17015415               -0.26076910                1.33586659                7.46056505                0.30125676
               7.92726678                3.85216644               18.94062834                0.00010000               -0.98584151                0.14610049               -0.37199334                1.27430352                7.44212544                1.27120899
               8.91774988                3.79773739               18.93048197                0.23702197               -0.39551177                0.17855215               -0.50207374                0.57794824                4.01965621                2.51940909
               9.91935655                3.73348853               18.85055888                0.97073551                0.22762457                0.25559569               -0.81909628                0.02357423                0.27427224                0.76584985
              10.92230237                3.66912461               18.76535044                1.00000000                0.29458216                0.36297693               -1.17417883               -0.01783125                0.01600069               -0.40575768
               1.05748383                5.34203598               19.18486614                1.00000000               -0.17711703               -0.24798481                0.76912228               -0.02370272                0.11128451                1.07732089
               2.05571266                5.26234388               19.09163010                0.77287746               -0.13184559               -0.13852846                0.44367887               -0.00230412                0.20204718               -0.26570586
               3.05484691                5.18225972               19.00016210                0.09524083               -0.22383091               -0.03013167                0.12944888                0.13870305                2.09082201               -1.47896608
               4.05123604                5.10447424               18.94469537                0.00010000               -0.84539280                0.38819462               -0.37560826                0.60216170                7.25655845               -0.18917659
               5.03793906                5.04129767               18.95599596                0.00010000               -1.35794415                0.29801157               -0.23710973                1.22814804               10.19875495               -0.48664301
               6.02407715                4.97740170               18.96100307                0.00010000               -1.40639578                0.33750773               -0.19947096                1.03173307                9.71380411               -0.12646745
               7.00981114                4.91453610               18.96415506                0.00010000               -1.42178520                0.33519891               -0.21186182                0.93812455                9.55965065                0.50539676
               7.99564145                4.85444078               18.96747641                0.00010000               -1.37780529                0.25535430               -0.25557932                0.95622247                9.61659371                1.30138971
               8.98225504                4.79905826               18.97300235                0.24516866               -0.61506719                0.09885178               -0.31668650                0.44528789                4.95181024                2.12157446
               9.98334011                4.73576487               18.88406806                0.86218097                0.18273134                0.20804482               -0.67849086                0.01064254                0.14733653                0.73397627
              10.98590966                4.67262766               18.79341611                1.00000000                0.25695570                0.33792114               -1.06747872               -0.01750320                0.06809053               -0.44117889
               1.13637123                6.33976481               19.16112105                1.00000000               -0.13523275               -0.20433847                0.63404977               -0.02458319                0.07008253                0.94909945
               2.13501891                6.26119541               19.06070577                0.65508904               -0.08765375               -0.09127890                0.29208549               -0.00301646                0.20993391               -0.44743189
               3.13461816                6.18222476               18.96304354                0.06974781               -0.43113696                0.02164883               -0.03748957                0.33321014                3.92874997               -1.81307716
               4.12639617                6.10944643               18.93699795                0.00010000               -1.11119466                0.49498884               -0.54334683                0.67897657                9.36167229                0.16113103
               5.11239426                6.04518441               18.94757544                0.00010000               -1.50123055                0.47104630               -0.30972536                0.99466777               11.28465789               -0.12003589
               6.09637155                5.98152856               18.96185731                0.00010000               -1.66020733                0.50020306               -0.20381147                0.80830546               11.41831182                0.13041616
               7.07919012                5.91846954               18.97704667                0.00010000               -1.72512404                0.45940071               -0.15530762                0.63116574               11.45487231                0.61898860
               8.06186907                5.85727352               18.99383466                0.00010000               -1.69292857                0.30496370               -0.13963121                0.59334205               11.58226474                1.24959359
               9.04533155                5.79971443               19.01310615                0.26184825               -0.79345396                0.03762256               -0.14462390                0.25157693                5.89433212                1.94511649
              10.04599999                5.73764943               18.91739888                0.79627759                0.14475872                0.16966159               -0.55313859                0.00302549                0.09479791                0.69009863
              11.04822672                5.67588303               18.82058121                1.00000000                0.22267259                0.31310784               -0.97286022               -0.01651454                0.04485923               -0.51181341
               1.21413097                7.33794921               19.13612705                1.00000000               -0.09385866               -0.15903300                0.49759377               -0.02386903                0.03102001                0.86081125
               2.21319238                7.26051830               19.02852317                0.59251667               -0.04354351               -0.04464240                0.14297785               -0.00230638                0.15219370               -0.53051764
               3.21326010                7.18269269               18.92330285                0.05853283               -0.56682287                0.07103762               -0.20569129                0.49974270                5.46045441               -2.00731606
               4.20185592                7.11437402               18.92186260                0.00010000               -1.37549053                0.50584924               -0.50284700                0.92417992               11.64191602               -0.45387937
               5.18575029                7.05071860               18.94066210                0.00010000               -1.74488978                0.64296116               -0.32183352                0.93400837               12.78715761               -0.08104948
               6.16695813                6.98740576               18.96403682                0.00010000               -1.95303968                0.69568144               -0.18595896                0.64244477               13.05465112                0.21071746
               7.14668949                6.92372412               18.99031887                0.00010000               -2.03473615                0.61517920               -0.09319998                0.33235088               13.24496372                0.61830696
               8.12626340                6.86054006               19.01955745                0.00010000               -1.98894119                0.36794379               -0.02747325                0.16560432               13.46882857                1.16251534
               9.10691067                6.79981071               19.05212851                0.28415141               -0.95156938               -0.01679914                0.01777324                0.00883901                6.82146978                1.84289120
              10.10723202                6.73915810               18.94990218                0.76458718                0.11007535                0.12911473               -0.42428472               -0.00158236                0.05653957                0.61692794
              11.10911218                6.67888982               18.84704202                1.00000000                0.18801588                0.28522475               -0.87120512               -0.01590464                0.03177157               -0.57406914
               1.29075567                8.33658415               19.11052972                1.00000000               -0.05263762               -0.11518717                0.36232385               -0.02313524                0.01275029                0.82846219
               2.29022930                8.26030256               18.99591176                0.57927262                0.00008121                0.00133335               -0.00394328               -0.00104782                0.06606954               -0.55826162
               3.29075730                8.18364551               18.88232502                0.05123551               -0.66877190                0.11883582               -0.37124221                0.65371008                6.75403207               -1.98285955
               4.27685386                8.11956342               18.90147336                0.00010000               -1.63573052                0.59542820               -0.47186442                1.12709934               13.92897254               -0.62117180
               5.25804269                8.05804363               18.93251756                0.00010000               -2.03194623                0.84630925               -0.30210580                0.88253483               14.53515954               -0.12863889
               6.23621493                7.99544219               18.96593556                0.00010000               -2.26699220                0.89704239               -0.15715805                0.48281575               14.70728617                0.18123487
               7.21270284                7.93077313               19.00275717                0.00010000               -2.35601838                0.83268065               -0.03235913                0.04915963               14.97936354                0.50541895
               8.18909457                7.86463240               19.04394045                0.00643223               -2.29062809                0.50605154                0.07678311               -0.35198058               15.34477482                0.96100344
               9.16689028                7.79937845               19.09016442                0.31175884               -1.11026634               -0.06415409                0.17301203               -0.30854299                7.77467016                1.67787778
              10.16688924                7.74023173               18.98167096                0.76909162                0.07774569                0.08551577               -0.29586086               -0.00867673                0.02822815                0.57163202
              11.16844519                7.68158752               18.87279569                1.00000000                0.15559548                0.25207604               -0.76930645               -0.01475805                0.01735162               -0.62753118
               1.36623144                9.33564547               19.08480847                1.00000000               -0.01213774               -0.07417630                0.22943414               -0.02254490               -0.00435553                0.70112162
               2.36611006                9.26054497               18.96315725                0.60132645                0.04210014                0.04655228               -0.14857662                0.00006222                0.07771891               -0.48850696
               3.36707344                9.18506941               18.84311732                0.02656765               -0.80551361                0.16320210               -0.52569439                0.85828626                8.12170553               -1.38954390
               4.34999979                9.12628258               18.88236294                0.00010000               -1.97756169                0.92006009               -0.45321789                1.01612755               16.10732649               -0.34800745
               5.32752221                9.06764478               18.92388889                0.00010000               -2.30574238                1.00885904               -0.29265842                0.63569760               16.16667035               -0.08736487
               6.30388494                9.00534661               18.96672225                0.00010000               -2.45198691                1.02754366               -0.13494228                0.28531184               16.28822064                0.10359929
               7.27848247                8.94037773               19.01309983                0.00010000               -2.66332365                1.00255948                0.01724863               -0.10683925               16.62896770                0.29060872
               8.25061847                8.87066109               19.06524086                0.02244734               -2.66709950                0.88106862                0.16561266               -0.64942537               17.20905313                0.55717851
               9.22514048                8.79852763               19.12580715                0.34239974               -1.28845337               -0.08809200                0.31259766               -0.72550883                8.86436339                1.12399125
              10.22484940                8.74086842               19.01315171                0.81073143                0.04824668                0.04586590               -0.17272744               -0.01959369                0.08843254                0.47836920
              11.22610542                8.68393134               18.89799552                0.97885386                0.12560119                0.21668094               -0.67288261               -0.01473419               -0.02669424               -0.55166301
               1.44050577               10.33510063               19.05659642                1.00000000                0.03008255               -0.05448405                0.09692811                0.04073131                0.38321121                0.57945458
               2.44080660               10.26123361               18.93193160                0.83420196                0.08398178                0.06886408               -0.28745586                0.06009980                0.72403960               -0.41198741
               3.44218541               10.18690955               18.81405866                0.51503253               -1.31027826                0.18401453               -0.65900852                1.34774692                9.58796753               -0.88470599
               4.41460103               10.13796462               18.86669888                0.36348699               -2.52464005                1.16820379               -0.47848112                1.02568695               17.78163447               -0.12144420
               5.39169261               10.07822081               18.91559415                0.35548353               -2.27064044                1.05760261               -0.31286684                0.31846186               17.55893833               -0.02035615
               6.36918823               10.01599306               18.96606198                0.37473073               -2.32205139                1.06464508               -0.13164827                0.16050334               17.71437161                0.08537991
               7.34525158                9.95082432               19.02025432                0.41897980               -2.56160336                1.04465871                0.04780685               -0.01005367               18.10677819                0.18856950
               8.31795616                9.88225377               19.08089740                0.51831146               -3.15394042                1.15926855                0.22737783               -0.92661683               18.84793018                0.34368219
               9.28217277                9.79761661               19.15260647                0.68716990               -1.84312520               -0.09110222                0.40691878               -1.35200750               10.15152218                0.69501949
              10.28109365                9.74114904               19.04289147                0.93563106               -0.00740534                0.02806256               -0.06444437                0.03965179                0.68288505                0.40236478
              11.28202467                9.68592114               18.92506085                0.98704884                0.09310112                0.19898031               -0.57735898                0.06913488                0.28887657               -0.44737446
               0.71034528                0.39262274               20.30887608                1.00000000               -0.35297753               -0.38522046                1.34568335               -0.06834630               -0.74826415                0.78582322
               1.70681551                0.30174679               20.23828940                1.00000000               -0.29245811               -0.30818926                1.08172847               -0.05254390               -0.94871308                0.05296892
               2.70449612                0.21072183               20.16367062                1.00000000               -0.15862306               -0.23284620                0.80055257               -0.03485530               -0.89863839               -0.21204117
               3.70364305                0.12082520               20.09412490                0.62022301                0.30984888               -0.17763693                0.53059694                0.47500654                0.06973007               -0.58604058
               4.71069310                0.04294659               20.03889392                0.70695176                0.45590761               -0.06242515                0.23584294               -0.07394916                0.58673676                0.14210887
               5.71276120               -0.02610185               19.97963809                0.79103575                0.14427307                0.02565245               -0.06180231                0.00015794                0.19522335                0.08323643
               6.71357856               -0.09362599               19.91663824                0.77078498                0.06126977                0.10468202               -0.35255884                0.00876778                0.00565143               -0.05444072
               7.71398660               -0.16186307               19.85355635                0.86623728                0.07169979                0.19661487               -0.65366166                0.03438872               -0.22559237                0.06248915
               8.71501256               -0.23307278               19.78576952                1.00000000                0.18876244                0.29513575               -0.95187041                0.02076446               -0.58464710                0.43326575
               9.71776184               -0.30636207               19.71538371                1.00000000                0.33760230                0.36447130               -1.24352247               -0.04451132               -0.66720349                0.00980751
              10.72176460               -0.37989739               19.64598665                1.00000000                0.40027588                0.44434693               -1.51976780               -0.06427588               -0.62328036               -0.64020365
               0.80053777                1.38877053               20.28160460                1.00000000               -0.32972468               -0.36462695                1.22349061               -0.02935407               -0.09833278                1.06697580
               1.79724052                1.29866489               20.21059643                1.00000000               -0.29647027               -0.28661523                0.95971907               -0.01034717               -0.06075921                0.07888012
               2.79460837                1.20839337               20.14028241                0.79072543               -0.24798945               -0.21244849                0.69731538                0.03340254                0.17938367               -0.59625481
               3.79228073                1.11904883               20.07403661                0.15026658               -0.55956179               -0.17168182                0.43471197                0.68176997                1.65133581               -1.05043355
               4.78341713                1.04232233               20.03306848                0.31502421               -0.56158327                0.06140024                0.18502705               -0.09142281                2.32216327                0.94594984
               5.78104907                0.97415468               19.98026232                0.41061808               -0.09351405                0.08900664               -0.09029163                0.18537691                1.50395555                0.36830819
               6.78154685                0.90742083               19.92291849                0.30257640                0.15024026                0.04969557               -0.36359415                0.22617956                1.38699272               -0.38768541
               7.78405387                0.84010308               19.86788887                0.45390353                0.29614273                0.19265393               -0.62575141                0.27387702                1.36672887                0.59076777
               8.78746970                0.76987858               19.81044623                1.00000000                0.33375828                0.27826295               -0.88881731                0.12034615                0.69894937                0.62304683
               9.79072904                0.69728265               19.74232598                1.00000000                0.35937337                0.35343194               -1.16300245                0.00086651                0.09738297                0.08706023
              10.79465717                0.62454608               19.67293055                1.00000000                0.39281304                0.42798562               -1.43852298               -0.02067662                0.02976750               -0.75937638
               0.88996948                2.38533020               20.25990512                1.00000000               -0.29837467               -0.33022619                1.11537141               -0.02210990                0.04049684                1.35803635
               1.88698573                2.29601448               20.18336459                1.00000000               -0.25946178               -0.24987974                0.83968438                0.00278855                0.16295001                0.05249239
               2.88478024                2.20647286               20.10916254                0.44928228               -0.18181253               -0.18082715                0.57738913                0.06174393                0.77148290               -1.28388270
               3.88334948                2.11739156               20.04470089                0.00010000               -1.55107247               -0.12933208                0.33660899                0.93076627                4.42546109               -1.94319837
               4.85375879                2.04417459               20.04324378                0.00010000               -1.59896168                0.17502216                0.13288031                1.81544570                4.79725188               -1.25094037
               5.85137025                1.97567829               19.98655794                0.00010000               -0.08025226               -0.06054145               -0.11725606                1.56266286                1.66235375               -0.46094808
               6.85215375                1.90736792               19.92254276                0.00010000                0.28180679               -0.15750255               -0.36823324                1.33712295                3.00110235                0.23632410
               7.85700638                1.84199001               19.89281970                0.00010000                0.40430857               -0.11121999               -0.60250194                0.92215234                3.45578858                0.73506171
               8.86023992                1.77249248               19.83901032                0.47892510                0.30526491                0.27107938               -0.80865571                0.21069523                1.52746091                1.22026312
               9.86311168                1.70070657               19.77090723                1.00000000                0.32921460                0.33972189               -1.07697127                0.03343668                0.55203176                0.53849617
              10.86682421                1.62866232               19.69758961                1.00000000                0.37125300                0.40058387               -1.36945078               -0.01070972                0.28968878               -0.76739424
               0.97872700                3.38216601               20.23843706                1.00000000               -0.25733694               -0.30592842                1.00523581               -0.01637131                0.05227181                1.32842057
               1.97615363                3.29366730               20.15511916                1.00000000               -0.21304174               -0.21892045                0.71688061                0.00578225                0.06459514               -0.03900386
               2.97446617                3.20477682               20.07197567                0.26133452               -0.14796521               -0.13970349                0.42727704                0.05964001                0.98379804               -1.51175323
               3.97319433                3.11646218               20.00704275                0.00010000               -0.65134253               -0.06943246                0.15623167                1.00056284                4.47366674               -2.46703714
               4.96143932                3.04582278               19.99338238                0.00010000               -1.20426647                0.08516111                0.00451796                2.60848622                6.53578028               -3.00182432
               5.94910900                2.97294385               19.97057832                0.00010000               -0.97308681               -0.05414029               -0.14546295                2.21584706                5.71921029               -1.22231091
               6.94197758                2.90427078               19.94102798                0.00010000               -0.58683211               -0.12876550               -0.31162691                1.90428165                5.28363334                0.70672030
               7.93737236                2.83787868               19.91005395                0.00010000               -0.45052652               -0.17605942               -0.48854480                1.43501460                5.01866771                0.82919090
               8.93296705                2.77530017               19.87566031                0.25198073               -0.10722096                0.24547510               -0.69382018                0.53775191                3.10529020                2.27427689
               9.93522794                2.70407708               19.80694237                1.00000000                0.27822157                0.31035884               -0.95827021                0.03161705                0.69983088                0.86935600
              10.93853148                2.63255775               19.72438504                1.00000000                0.33035435                0.38652984               -1.28994677               -0.01826057                0.01013745               -0.54016323
               1.06663947                4.37921163               20.21613423                1.00000000               -0.21489078               -0.28052337                0.88609962               -0.02004996                0.06233363                1.22178795
               2.06449056                4.29163607               20.12603998                0.94464740               -0.17306549               -0.18163036                0.58638776                0.00223445                0.07753185               -0.12416109
               3.06317816                4.20367879               20.03619829                0.15459763               -0.10878881               -0.08317170                0.29650263                0.03844262                1.13813809               -1.38508606
               4.06231478                4.11600291               19.96731372                0.00010000               -0.68656524                0.08464324               -0.01484085                0.83461670                5.70621484               -1.87141549
               5.04944685                4.04587781               19.96880791                0.00010000               -1.25377968                0.10692093               -0.11586495                1.53345462                8.76467494               -1.28488618
               6.03723919                3.97459548               19.96188915                0.00010000               -1.20711534                0.21334187               -0.17699767                1.43549884                8.06814351               -0.57674446
               7.02530455                3.90479261               19.95030010                0.00010000               -1.12809540                0.16451854               -0.26595743                1.29469482                7.70319389                0.35795853
               8.01467728                3.83846882               19.93686927                0.00010000               -1.02539941                0.14214559               -0.38086350                1.22549837                7.67070812                1.36165743
               9.00479656                3.77740198               19.92538783                0.23490950               -0.40954221                0.16794691               -0.51946193                0.54536493                4.15492478                2.64457788
              10.00648644                3.70691375               19.84224331                0.95133939                0.23505511                0.25895153               -0.84244787                0.01694284                0.30057854                0.81340106
              11.00949766                3.63639292               19.75350077                1.00000000                0.30112221                0.37300819               -1.19391753               -0.01757338                0.02646642               -0.41746795
               1.15347711                5.37655554               20.19249989                1.00000000               -0.17459523               -0.24445949                0.75743790               -0.02413011                0.11461970                1.08509724
               2.15173116                5.29003469               20.09604432                0.76475504               -0.13044649               -0.13650428                0.43869077               -0.00319724                0.21122000               -0.28982714
               3.15086818                5.20311339               20.00146956                0.10139019               -0.20217610               -0.02971630                0.13154244                0.12056736                2.01993588               -1.53440306
               4.14768764                5.11815505               19.94118394                0.00010000               -0.86761725                0.34638046               -0.34558333                0.60172356                7.41015187               -0.39019562
               5.13351584                5.04796120               19.95364220                0.00010000               -1.43917290                0.30432420               -0.23184789                1.21165878               10.61511554               -0.51886843
               6.11890418                4.97721069               19.95899601                0.00010000               -1.47588532                0.34417459               -0.20138865                1.00261633               10.07556034               -0.10317282
               7.10399813                4.90756115               19.96200699                0.00010000               -1.48156163                0.33996194               -0.21821207                0.89494183                9.89299551                0.56592906
               8.08927295                4.84072160               19.96486657                0.00010000               -1.42843533                0.25605218               -0.26763265                0.90505678                9.93782678                1.39335712
               9.07542943                4.77865911               19.96974466                0.24272359               -0.63485422                0.09500397               -0.33785573                0.41629431                5.12792867                2.24131842
              10.07657586                4.70925611               19.87715792                0.84480997                0.18961267                0.21449821               -0.70406714                0.00949389                0.16294320                0.78431438
              11.07922168                4.64001792               19.78259325                1.00000000                0.26458151                0.34963121               -1.09416420               -0.01840438                0.07093138               -0.45338071
               1.23919856                6.37432244               20.16740403                1.00000000               -0.13297957               -0.20037640                0.62237263               -0.02463529                0.07010910                0.95257098
               2.23786876                6.28890599               20.06360406                0.64910580               -0.08647062               -0.08949751                0.28744198               -0.00348917                0.21619293               -0.47127765
               3.23746915                6.20308446               19.96267933                0.07520812               -0.41836583                0.02175228               -0.03551123                0.30616671                3.84536851               -1.86770956
               4.22950145                6.12293052               19.93146194                0.00010000               -1.14223784                0.49399284               -0.55992888                0.63257203                9.57269246                0.16611321
               5.21462439                6.05196430               19.94445772                0.00010000               -1.59049410                0.48845247               -0.31276929                0.97369941               11.81537961               -0.10382941
               6.19769157                5.98147897               19.95979494                0.00010000               -1.74659590                0.52029653               -0.20824818                0.76887400               11.86506122                0.17065901
               7.17969247                5.91159185               19.97545424                0.00010000               -1.80055544                0.47423942               -0.16380504                0.57763998               11.87075582                0.68277899
               8.16168046                5.84358987               19.99237112                0.00010000               -1.75522739                0.31190700               -0.15450563                0.53161235               11.98631343                1.33725513
               9.14458793                5.77930206               20.01155034                0.25954237               -0.81814758                0.03745063               -0.16853595                0.21847103                6.10447894                2.05298997
              10.14531751                5.71120371               19.91176487                0.78070448                0.15090204                0.17519755               -0.57579724                0.00440692                0.10228775                0.73348850
              11.14760597                5.64338554               19.81075749                1.00000000                0.22884604                0.32306825               -0.99357577               -0.01623329                0.04764719               -0.52337789
               1.32381731                7.37254801               20.14104762                1.00000000               -0.09179562               -0.15501101                0.48634265               -0.02372647                0.03078171                0.86396261
               2.32289935                7.28824474               20.02993503                0.58803381               -0.04251612               -0.04330783                0.13916244               -0.00227774                0.15493010               -0.55121316
               3.32296699                7.20354844               19.92126250                0.06275512               -0.57200534                0.07007890               -0.20267910                0.48343463                5.47875276               -2.05918809
               4.31145925                7.12803491               19.91662762                0.00010000               -1.42628064                0.52954821               -0.53809539                0.88249309               11.94592530               -0.33111682
               5.29444137                7.05773025               19.93737480                0.00010000               -1.84025675                0.67235375               -0.33327769                0.90588845               13.33004204               -0.01973464
               6.27465411                6.98761662               19.96213665                0.00010000               -2.05006694                0.72726406               -0.19374575                0.59391187               13.56117329                0.26293311
               7.25344004                6.91704594               19.98933485                0.00010000               -2.12295663                0.64057692               -0.10434620                0.26632537               13.73135373                0.67959548
               8.23219498                6.84695974               20.01919987                0.00010000               -2.06275163                0.38204800               -0.04547844                0.08988258               13.94831941                1.24115238
               9.21218500                6.77940812               20.05217913                0.28204300               -0.98072259               -0.01430630               -0.00951494               -0.03254500                7.06685154                1.94153943
              10.21258053                6.71276006               19.94554112                0.74986214                0.11741779                0.13434877               -0.44919796               -0.00096707                0.05996216                0.65971379
              11.21453336                6.64647928               19.83821674                1.00000000                0.19528315                0.29430600               -0.89412648               -0.01498835                0.03304866               -0.58420420
               1.40733057                8.37122222               20.11410175                1.00000000               -0.05077841               -0.11150552                0.35180096               -0.02290981                0.01238988                0.83330441
               2.40682279                8.28803983               19.99586042                0.57597029                0.00085533                0.00220362               -0.00668586               -0.00082604                0.06530655               -0.57618851
               3.40734768                8.20448604               19.87863808                0.05381130               -0.69266435                0.11699758               -0.36665370                0.65450694                6.87613200               -2.02637611
               4.39296950                8.13352148               19.89661858                0.00010000               -1.70936138                0.62771586               -0.49544315                1.10713654               14.33810054               -0.50378490
               5.37316045                8.06541137               19.92942706                0.00010000               -2.13576925                0.88655763               -0.31431252                0.85846428               15.09116667               -0.05882128
               6.35025411                7.99602425               19.96431307                0.00010000               -2.37422937                0.93887366               -0.16719845                0.43510968               15.25548240                0.22978036
               7.32567586                7.92440339               20.00236913                0.00010000               -2.45690950                0.87102966               -0.04609877               -0.02081327               15.52708859                0.55458396
               8.30111592                7.85123083               20.04460810                0.00712954               -2.37695831                0.53009050                0.05527867               -0.44099577               15.89628082                1.02431246
               9.27813670                7.77901594               20.09174005                0.30964621               -1.14444612               -0.05799616                0.14032330               -0.35990335                8.05806915                1.76469026
              10.27822700                7.71389069               19.97857004                0.75360647                0.08655348                0.09250634               -0.32537180               -0.00909660                0.03116929                0.61097986
              11.27986777                7.64927166               19.86496839                1.00000000                0.16407632                0.26191690               -0.79626675               -0.01357689                0.01825401               -0.64050132
               1.48972389                9.37031790               20.08705615                1.00000000               -0.01048778               -0.07095607                0.21969335               -0.02232138               -0.00530420                0.70739865
               2.48961901                9.28828882               19.96166637                0.59824867                0.04257934                0.04701949               -0.15012339                0.00025670                0.07749993               -0.50206085
               3.49057547                9.20588839               19.83789687                0.02677701               -0.84711816                0.16098582               -0.51914126                0.87891960                8.34061051               -1.41625798
               4.47267665                9.14058922               19.87778026                0.00010000               -2.07337921                0.96201978               -0.46188773                1.01848695               16.61280199               -0.26494295
               5.44910789                9.07546140               19.92091300                0.00010000               -2.41561772                1.05429039               -0.30187825                0.62401612               16.74076575               -0.04527423
               6.42436429                9.00639409               19.96531852                0.00010000               -2.56453475                1.07587217               -0.14607212                0.25447392               16.87828656                0.13172907
               7.39781719                8.93446653               20.01319678                0.00010000               -2.78008904                1.05237636                0.00118579               -0.15876457               17.23376209                0.31724978
               8.36876251                8.85756155               20.06678190                0.02394699               -2.77450590                0.92867254                0.14129904               -0.72752702               17.83031056                0.59450586
               9.34232708                8.77824820               20.12874832                0.33996615               -1.33098189               -0.07709503                0.27374993               -0.78817102                9.19058438                1.18103368
              10.34214287                8.71461019               20.01125243                0.79197658                0.05863999                0.05566124               -0.20817037               -0.02120822                0.09613344                0.50763291
              11.34349988                8.65171762               19.89110555                0.97990709                0.13570033                0.22727036               -0.70511506               -0.01348227               -0.02615530               -0.56837431
               1.57094232               10.36980310               20.05752312                1.00000000                0.03151181               -0.05148047                0.08786277                0.03955538                0.38686580                0.58615212
               2.57125744               10.28898022               19.92905770                0.83315376                0.08416719                0.06914064               -0.28800880                0.05897559                0.73440499               -0.42233677
               3.57262566               10.20770576               19.80751087                0.51465386               -1.37456041                0.18173705               -0.65142504                1.39410156                9.87650262               -0.90053312
               4.54376623               10.15276188               19.86190408                0.36398378               -2.63948778                1.21726557               -0.48041511                1.04852920               18.36957293               -0.07326785
               5.51983591               10.08649718               19.91242603                0.35569438               -2.37138819                1.10357815               -0.32075418                0.31179242               18.17256064               -0.00260622
               6.49633846               10.01754170               19.96468845                0.37455559               -2.42513950                1.11476067               -0.14365398                0.14510377               18.35536994                0.09569957
               7.47133312                9.94545091               20.02064647                0.41841269               -2.67773735                1.09843844                0.02956258               -0.03527884               18.76519639                0.19815934
               8.44278372                9.86980428               20.08304139                0.51950867               -3.30042430                1.22427341                0.20033985               -0.99672327               19.52297690                0.35965119
               9.40532463                9.77747404               20.15646084                0.68622494               -1.92251509               -0.07741591                0.36211093               -1.44026312               10.52697977                0.73047184
              10.40433341                9.71500391               20.04204325                0.92490045                0.00293172                0.03937208               -0.10617145                0.03620558                0.71788390                0.42469155
              11.40538326                9.65381707               19.91909446                0.98698901                0.10498492                0.20994471               -0.61574716                0.06965414                0.30332400               -0.46486257
               0.77465655                0.42846457               21.32228257                1.00000000               -0.35233221               -0.38296267                1.33680726               -0.06722926               -0.76891086                0.80454282
               1.77113322                0.33058932               21.24907189                1.00000000               -0.29347864               -0.30523912                1.07499740               -0.05321645               -0.97776322                0.05593254
               2.76878697                0.23249525               21.17166556                1.00000000               -0.16070582               -0.22952407                0.79822101               -0.03922175               -0.92857552               -0.21005217
               3.76791911                0.13542620               21.09947149                0.62178186                0.31172036               -0.18143083                0.53557786                0.48057259                0.02893907               -0.60708636
               4.77502138                0.05047874               21.04123959                0.70988587                0.45706010               -0.05845243                0.23314183               -0.07259795                0.52844287                0.15287741
               5.77706031               -0.02572454               20.97903418                0.79395816                0.14353660                0.02701511               -0.05881901                0.00074993                0.14429112                0.08911991
               6.77789211               -0.10041645               20.91314879                0.77263644                0.06601486                0.10417411               -0.34523406                0.00907909               -0.04685314               -0.05819559
               7.77838061               -0.17568121               20.84707852                0.86783186                0.07884604                0.19492811               -0.64211634                0.03098949               -0.28166309                0.06853385
               8.77946903               -0.25367612               20.77632892                1.00000000                0.19097514                0.29061056               -0.93669533                0.01714198               -0.63592035                0.44462661
               9.78220011               -0.33361532               20.70304370                1.00000000                0.33402870                0.35990901               -1.22506420               -0.04339401               -0.70711057                0.00873007
              10.78614961               -0.41380179               20.63090050                1.00000000                0.39494979                0.43964504               -1.49825373               -0.06156660               -0.65505431               -0.67017818
               0.87185950                1.42463494               21.29378620                1.00000000               -0.32737828               -0.36318276                1.21390470               -0.02771377               -0.10232732                1.09222023
               1.86858572                1.32753693               21.22016143                1.00000000               -0.29415947               -0.28437831                0.95343313               -0.01009765               -0.06613541                0.08197149
               2.86597631                1.23020001               21.14721870                0.81252584               -0.24263157               -0.20853632                0.68714595                0.02469783                0.16904695               -0.59497718
               3.86373309                1.13361190               21.07825889                0.16053234               -0.55527704               -0.18079851                0.41050904                0.68947736                1.65299754               -1.05311687
               4.85487077                1.04989421               21.03486039                0.32533505               -0.56088434                0.06785057                0.17295650               -0.08695777                2.33128535                0.95315979
               5.85251540                0.97454561               20.97933172                0.42234046               -0.09547672                0.09028454               -0.09587993                0.17585960                1.50087656                0.37518797
               6.85296124                0.90062529               20.91928192                0.31335309                0.14024662                0.05616464               -0.36369064                0.21865702                1.39103997               -0.38710601
               7.85532033                0.82626807               20.86165099                0.46229569                0.28231336                0.19167281               -0.62207245                0.25392910                1.37671383                0.59382660
               8.85860751                0.74922999               20.80159484                1.00000000                0.32543347                0.27531829               -0.88182682                0.11164517                0.70367027                0.64299371
               9.86182900                0.66998377               20.73074854                1.00000000                0.35564527                0.34967130               -1.15305752                0.00117361                0.09617116                0.08906883
              10.86572041                0.59059466               20.65861435                1.00000000                0.38914072                0.42552321               -1.42549695               -0.01856289                0.02830446               -0.79487703
               0.96829830                2.42120092               21.27100069                1.00000000               -0.29320922               -0.32982500                1.10448896               -0.02129875                0.03982873                1.38930817
               1.96536621                2.32490175               21.19171887                1.00000000               -0.25461680               -0.24857924                0.83251245                0.00183449                0.17120947                0.05650477
               2.96320596                2.22832452               21.11499451                0.45924581               -0.16758787               -0.17583925                0.58118221                0.03764223                0.79309106               -1.30431083
               3.96201445                2.13181023               21.04812116                0.00010000               -1.54287266               -0.16194761                0.32329678                0.94806274                4.45388001               -1.96031757
               4.93234851                2.05183575               21.04443281                0.00010000               -1.60840131                0.17310569                0.10903292                1.80617835                4.86375041               -1.27077875
               5.92984642                1.97608115               20.98532957                0.00010000               -0.09028582               -0.06459852               -0.12866382                1.52169368                1.71463686               -0.45069476
               6.93054279                1.90070684               20.91885077                0.00010000                0.25040335               -0.15576062               -0.36964396                1.28943706                3.05676998                0.27157831
               7.93485449                1.82815224               20.88676572                0.00010000                0.37217198               -0.11075261               -0.60824214                0.88356564                3.53692104                0.78325465
               8.93798623                1.75183025               20.83091683                0.48495373                0.30022081                0.26826296               -0.81033016                0.19269572                1.59347085                1.26636182
               9.94085891                1.67337811               20.76014749                1.00000000                0.32851679                0.33601157               -1.07558237                0.02885692                0.57486574                0.55958316
              10.94455657                1.59470867               20.68392267                1.00000000                0.36976624                0.40295236               -1.36474839               -0.01017259                0.30074866               -0.80367669
               1.06403185                3.41803844               21.24842884                1.00000000               -0.25330461               -0.30517407                0.99372631               -0.01741274                0.05630309                1.35429377
               2.06149880                3.32256534               21.16226021                1.00000000               -0.21055853               -0.21720780                0.71107708                0.00269333                0.06775843               -0.03891297
               3.05982068                3.22668322               21.07625132                0.26841475               -0.11578431               -0.13463693                0.42839965                0.00325576                0.99938919               -1.54321569
               4.05918312                3.13037294               21.00869963                0.00010000               -0.65486278               -0.08485980                0.16464949                0.97821078                4.56809078               -2.55675835
               5.04672342                3.05335633               20.99345636                0.00010000               -1.25524677                0.07154405                0.01139238                2.60045110                6.69247540               -3.05369516
               6.03407818                2.97325364               20.96910013                0.00010000               -1.00222690               -0.06276582               -0.14892251                2.15766647                5.87269287               -1.20691237
               7.02667889                2.89751008               20.93788616                0.00010000               -0.61049705               -0.13805564               -0.31698000                1.84035227                5.42966656                0.77075805
               8.02186824                2.82405302               20.90513856                0.00010000               -0.47216646               -0.17826383               -0.49517477                1.39119510                5.14981630                0.92367609
               9.01723556                2.75459525               20.86867659                0.25141900               -0.11702636                0.23571747               -0.70344506                0.50695443                3.20022426                2.36677569
              10.01952771                2.67670400               20.79731682                1.00000000                0.28101337                0.30814455               -0.96712949                0.02273668                0.73387512                0.90507559
              11.02285582                2.59865371               20.71145961                1.00000000                0.33281097                0.39291842               -1.29535234               -0.01701865                0.01143742               -0.56349917
               1.15889624                4.41509743               21.22493690                1.00000000               -0.21209480               -0.27851595                0.87455451               -0.02120804                0.06983677                1.23792813
               2.15677530                4.32055760               21.13187498                0.93413737               -0.17163819               -0.17910417                0.58063612                0.00014683                0.09018522               -0.13743092
               3.15546348                4.22563178               21.03916375                0.16135537               -0.09348668               -0.07963033                0.29655369               -0.00796155                1.13994907               -1.42123561
               4.15490556                4.13011304               20.96709383                0.00010000               -0.69933220                0.10745830               -0.02518173                0.78590773                5.82523886               -2.05193557
               5.14147684                4.05326663               20.96769789                0.00010000               -1.30297803                0.09570852               -0.10667411                1.52093383                9.01028219               -1.33291865
               6.12884600                3.97482583               20.96011337                0.00010000               -1.24631868                0.20894079               -0.17761763                1.39122444                8.31845241               -0.56011495
               7.11655046                3.89794573               20.94761366                0.00010000               -1.16263892                0.15952373               -0.27172922                1.24413685                7.93702767                0.41972790
               8.10559322                3.82458697               20.93301107                0.00010000               -1.05380634                0.13765307               -0.39185435                1.16954705                7.88888587                1.45524373
               9.09547434                3.75654460               20.92009273                0.23267627               -0.41690227                0.15634354               -0.54043885                0.51203652                4.28220745                2.77043046
              10.09725518                3.67954100               20.83370992                0.93186023                0.24212246                0.26127963               -0.86328981                0.01225581                0.32567654                0.86026735
              11.10031678                3.60256704               20.74147209                1.00000000                0.30616068                0.38248110               -1.21026741               -0.01730474                0.03786933               -0.42991838
               1.25268736                5.41246813               21.20001490                1.00000000               -0.17199689               -0.24144666                0.74566082               -0.02463102                0.11731331                1.09245977
               2.25096739                5.31898326               21.10040391                0.75686205               -0.12906756               -0.13392266                0.43305979               -0.00426729                0.21995335               -0.31311656
               3.25010601                5.22509062               21.00279295                0.10724193               -0.18504824               -0.02770814                0.13262067                0.08715068                1.95015254               -1.58730569
               4.24726643                5.13252211               20.93778370                0.00010000               -0.88383526                0.36059886               -0.33317130                0.56729697                7.53966770               -0.57118185
               5.23242930                5.05527050               20.95135900                0.00010000               -1.50214277                0.30542938               -0.22666235                1.19011831               11.01385634               -0.55159209
               6.21722357                4.97743245               20.95697530                0.00010000               -1.53144076                0.34876332               -0.20260381                0.96301594               10.42387017               -0.07621573
               7.20180049                4.90070055               20.95979082                0.00010000               -1.52816287                0.34257679               -0.22566667                0.84261067               10.21556267                0.63022584
               8.18666031                4.82680608               20.96212376                0.00010000               -1.46391168                0.25491823               -0.28228374                0.84637916               10.24724936                1.48837551
               9.17252226                4.75772212               20.96624524                0.24019622               -0.64549654                0.08975856               -0.36361789                0.38382765                5.29640340                2.36472368
              10.17375038                4.68192959               20.86998672                0.82738878                0.19676914                0.21975053               -0.72944540                0.00823191                0.17636351                0.83913226
              11.17645764                4.60630333               20.77153282                1.00000000                0.27072553                0.36124719               -1.11618644               -0.01874366                0.07264138               -0.46080501
               1.34537335                6.41026850               21.17356850                1.00000000               -0.13058920               -0.19686922                0.61052921               -0.02471463                0.06987468                0.95580221
               2.34406746                6.31787915               21.06645461                0.64318267               -0.08528531               -0.08727918                0.28246199               -0.00410859                0.22195715               -0.49444312
               3.34366765                6.22507762               20.96233332                0.08019630               -0.39979190                0.02297837               -0.03392956                0.27412102                3.75088552               -1.92084350
               4.33607162                6.13732501               20.92579937                0.00010000               -1.16493946                0.50364664               -0.56516638                0.58466480                9.77104478                0.15531865
               5.32036886                6.05937522               20.94132005                0.00010000               -1.66976784                0.50420378               -0.31313404                0.94444419               12.33987170               -0.09193727
               6.30267627                5.98180110               20.95769235                0.00010000               -1.81699014                0.53569173               -0.21217528                0.72100111               12.30036808                0.21250194
               7.28402905                5.90479726               20.97377057                0.00010000               -1.85885119                0.48502908               -0.17368886                0.51685448               12.27489636                0.74921542
               8.26549924                5.82968533               20.99074455                0.00010000               -1.80008414                0.31600217               -0.17223797                0.46338530               12.37822530                1.42744370
               9.24802737                5.75833977               21.00973544                0.25720940               -0.83303194                0.03648349               -0.19624683                0.18174344                6.30832745                2.16363680
              10.24883860                5.68393601               20.90588293                0.76504831                0.15835353                0.18088106               -0.60163174                0.00477427                0.10913886                0.78206495
              11.25119444                5.60979199               20.80070970                1.00000000                0.23558389                0.33457498               -1.01584823               -0.01618857                0.04988217               -0.52920676
               1.43697178                7.40853074               21.14585391                1.00000000               -0.08956785               -0.15133955                0.47480278               -0.02366735                0.03039813                0.86711425
               2.43607610                7.31723768               21.03130642                0.58362475               -0.04146093               -0.04158465                0.13485764               -0.00244602                0.15722822               -0.57126607
               3.43614256                7.22555018               20.91924927                0.06658163               -0.57069869                0.07030024               -0.20032513                0.46057473                5.47705582               -2.10939038
               4.42466213                7.14259504               20.91110069                0.00010000               -1.46502289                0.55050313               -0.55908422                0.82798272               12.23184779               -0.20870192
               5.40684210                7.06535457               20.93399654                0.00010000               -1.92202905                0.69768961               -0.33957070                0.86769564               13.87318860                0.04039846
               6.38622155                6.98814629               20.96016190                0.00010000               -2.12943780                0.75274089               -0.20077514                0.53764025               14.05782310                0.31587516
               7.36425335                6.91040113               20.98823195                0.00010000               -2.19180147                0.66028087               -0.11702343                0.19501811               14.20543313                0.74261154
               8.34238552                6.83312612               21.01864788                0.00010000               -2.11734500                0.39256443               -0.06640755                0.01003360               14.41476448                1.32148863
               9.32190645                6.75845179               21.05193821                0.27995691               -0.99959339               -0.01183539               -0.04055956               -0.07582733                7.30607652                2.04094369
              10.32239365                6.68554722               20.94091822                0.73500871                0.12577317                0.14020019               -0.47669337               -0.00056375                0.06359562                0.70480563
              11.32442191                6.61299483               20.82915949                1.00000000                0.20282615                0.30483497               -0.91759748               -0.01428261                0.03433101               -0.59116114
               1.52748613                8.40724171               21.11756573                1.00000000               -0.04870339               -0.10793344                0.34074451               -0.02276882                0.01199474                0.83820570
               2.52699910                8.31704745               20.99577804                0.57283696                0.00178224                0.00343952               -0.01015520               -0.00074190                0.06425958               -0.59338246
               3.52752178                8.22648363               20.87499195                0.05613014               -0.70861046                0.11606374               -0.36307229                0.64584136                6.98210921               -2.06801302
               4.51282689                8.14833508               20.89156450                0.00010000               -1.76751272                0.65515874               -0.50938905                1.07114778               14.72908761               -0.37336093
               5.49217152                8.07332901               20.92623131                0.00010000               -2.22221897                0.91928788               -0.32240235                0.82390013               15.64194164                0.01312242
               6.46838251                7.99685592               20.96259159                0.00010000               -2.46109684                0.97297637               -0.17674601                0.38096133               15.79309509                0.27900305
               7.44294959                7.91800288               21.00183520                0.00010000               -2.53666245                0.90221283               -0.06147255               -0.09391509               16.06155233                0.60481486
               8.41764926                7.83753662               21.04504602                0.00800503               -2.44299281                0.54958993                0.03081260               -0.53060997               16.43286955                1.08910931
               9.39408973                7.75810306               21.09297088                0.30759772               -1.16824877               -0.05121362                0.10393461               -0.41107090                8.33428223                1.85084967
              10.39428428                7.68674001               20.97516352                0.73796418                0.09619169                0.10003213               -0.35706827               -0.00965895                0.03446962                0.65070030
              11.39601356                7.61588869               20.85687035                1.00000000                0.17292782                0.27214772               -0.82339199               -0.01242467                0.01915505               -0.65195698
               1.61690492                9.40637207               21.08920234                1.00000000               -0.00855702               -0.06759829                0.20914238               -0.02217084               -0.00619582                0.71364186
               2.61681935                9.31730647               20.96015478                0.59547558                0.04334225                0.04783839               -0.15268740                0.00036173                0.07723528               -0.51495823
               3.61777176                9.22787146               20.83273450                0.02691801               -0.87898243                0.15936328               -0.51397364                0.88695258                8.54887152               -1.44145080
               4.59923970                9.15569822               20.87312519                0.00010000               -2.14862489                0.99582746               -0.46636599                1.00596577               17.10162667               -0.17209184
               5.57479927                9.08374033               20.91785133                0.00010000               -2.50364000                1.09068106               -0.30917411                0.60477659               17.30344024               -0.00099806
               6.54916690                9.00760582               20.96380081                0.00010000               -2.65524614                1.11556428               -0.15745619                0.21988690               17.45568375                0.16024091
               7.52169434                8.92844539               21.01312355                0.00010000               -2.87468804                1.09426212               -0.01665030               -0.21174568               17.82434112                0.34436641
               8.49167314                8.84411792               21.06806684                0.02575482               -2.86063531                0.96955959                0.11453629               -0.80329079               18.43411466                0.63329943
               9.46448164                8.75742751               21.13128215                0.33767080               -1.36291479               -0.06510300                0.23101621               -0.84746446                9.50736458                1.23722828
              10.46441484                8.68754786               21.00898830                0.77310867                0.06972163                0.06606052               -0.24576113               -0.02281521                0.10414391                0.53657379
              11.46587607                8.61843778               20.88389321                0.98083384                0.14612261                0.23786888               -0.73729598               -0.01224922               -0.02535099               -0.58444138
               1.70517392               10.40588974               21.05835367                1.00000000                0.03330239               -0.04823277                0.07772667                0.03834795                0.39054276                0.59273282
               2.70550695               10.31800422               20.92617142                0.83230102                0.08475785                0.06977521               -0.28985636                0.05781708                0.74454625               -0.43215732
               3.70686908               10.22967089               20.80103016                0.51428710               -1.42148068                0.17994329               -0.64541863                1.42210186               10.15624607               -0.91534121
               4.67707733               10.16825163               20.85709058                0.36445107               -2.72548129                1.25534098               -0.48169387                1.05735019               18.94145832               -0.01954725
               5.65235945               10.09514263               20.90917906                0.35590015               -2.45010731                1.14023004               -0.32813575                0.30179757               18.77165349                0.01612534
               6.62807519               10.01916720               20.96318890                0.37437874               -2.50784421                1.15613860               -0.15663815                0.12810333               18.98178471                0.10591800
               7.60220257                9.93988812               21.02084557                0.41781666               -2.77369333                1.14427339                0.00929708               -0.06114697               19.40796245                0.20763246
               8.57260132                9.85692781               21.08490419                0.52091264               -3.42460345                1.28098924                0.17133654               -1.06153814               20.17773070                0.37635468
               9.53371050                9.75680100               21.15984869                0.68538321               -1.98918048               -0.06265144                0.31339759               -1.52044313               10.89056027                0.76531146
              10.53281771                9.68806122               21.04076804                0.91414615                0.01391139                0.05133639               -0.14997933                0.03253989                0.75268144                0.44665017
              11.53398873                9.62064606               20.91274590                0.98692522                0.11710178                0.22082800               -0.65380201                0.06974996                0.31786498               -0.48208784
               0.84138844                0.46570634               22.33561222                1.00000000               -0.35111828               -0.38095159                1.32951118               -0.06676404               -0.78714030                0.82067835
               1.83787725                0.36068636               22.25978935                1.00000000               -0.29317143               -0.30290196                1.06848474               -0.05378533               -1.00228500                0.06074624
               2.83552501                0.25541451               22.17963504                1.00000000               -0.16147270               -0.22496314                0.79360206               -0.04220126               -0.95123237               -0.20993743
               3.83464780                0.15110867               22.10483646                0.62361842                0.30871304               -0.17718499                0.53169587                0.47252177               -0.00833303               -0.63499002
               4.84169927                0.05876254               22.04355675                0.71255643                0.45450131               -0.05702354                0.22977219               -0.07408717                0.46620653                0.16697898
               5.84373783               -0.02491454               21.97846171                0.79642199                0.14489430                0.02775885               -0.05621946               -0.00021117                0.09392279                0.09509019
               6.84459716               -0.10705617               21.90973356                0.77406457                0.07176866                0.10328910               -0.33823587                0.00898317               -0.09880241               -0.06151675
               7.84517320               -0.18963733               21.84071402                0.86901447                0.08659103                0.19297429               -0.63131023                0.02740651               -0.33697061                0.07468823
               8.84632898               -0.27471209               21.76703561                1.00000000                0.19374256                0.28626350               -0.92267210                0.01366727               -0.68653454                0.45621037
               9.84904805               -0.36159715               21.69088243                1.00000000                0.33104624                0.35573815               -1.20800959               -0.04233665               -0.74646686                0.00792075
              10.85294990               -0.44872864               21.61602158                1.00000000                0.39018498                0.43550069               -1.47856617               -0.05897447               -0.68627054               -0.69929544
               0.94574077                1.46189682               22.30588269                1.00000000               -0.32554579               -0.36163091                1.20618475               -0.02688554               -0.10573679                1.11472806
               1.94248531                1.35765734               22.22966509                1.00000000               -0.29244660               -0.28202819                0.94690405               -0.00965492               -0.07490147                0.08669303
               2.93989184                1.25316488               22.15402533                0.82708692               -0.23931574               -0.20302448                0.67711848                0.01971233                0.14886298               -0.58786633
               3.93769900                1.14933682               22.08224679                0.16992085               -0.54609193               -0.16821004                0.39684543                0.66842035                1.64884487               -1.05622439
               4.92897000                1.05819231               22.03652761                0.33475277               -0.55269654                0.07002512                0.16213657               -0.09238237                2.34569063                0.96432162
               5.92664507                0.97536305               21.97834472                0.43280222               -0.09608108                0.09052600               -0.10065089                0.16458095                1.50042031                0.38326414
               6.92704838                0.89397673               21.91564467                0.32363572                0.13150781                0.06257021               -0.36358596                0.20926017                1.39594697               -0.38285501
               7.92927523                0.81229242               21.85544743                0.47001231                0.26985901                0.19024303               -0.61877834                0.23396825                1.38673081                0.59631928
               8.93244556                0.72815055               21.79280970                1.00000000                0.31788677                0.27250292               -0.87556531                0.10332035                0.70831532                0.66296931
               9.93563296                0.64196023               21.71926483                1.00000000                0.35230422                0.34635491               -1.14427873                0.00154596                0.09479643                0.09137193
              10.93949165                0.55562637               21.64442061                1.00000000                0.38586841                0.42360787               -1.41405663               -0.01644076                0.02678164               -0.82941910
               1.04932969                2.45847372               22.28199489                1.00000000               -0.29135867               -0.32905755                1.09548538               -0.02031404                0.03906616                1.41829146
               2.04641610                2.35504580               22.20001484                1.00000000               -0.25449553               -0.24622037                0.82695835                0.00406531                0.17832247                0.06152283
               3.04423978                2.25135402               22.12078618                0.46874449               -0.17136617               -0.17108040                0.57463455                0.04106818                0.79570304               -1.31462727
               4.04298878                2.14774447               22.05116682                0.00010000               -1.52071911               -0.14912381                0.29606445                0.92305701                4.46627040               -1.95452178
               5.01382539                2.06016305               22.04542444                0.00010000               -1.58718737                0.16457422                0.09300453                1.75349140                4.93128522               -1.27563532
               6.01124503                1.97689598               21.98398466                0.00010000               -0.09862005               -0.06706270               -0.13856704                1.47600864                1.77064423               -0.43129118
               7.01185299                1.89419524               21.91514988                0.00010000                0.22168570               -0.15268383               -0.37196126                1.23778273                3.10954166                0.31189705
               8.01567874                1.81416753               21.88065485                0.00010000                0.34372885               -0.10927789               -0.61294486                0.84228812                3.61316378                0.83352119
               9.01872757                1.73073797               21.82280371                0.49044699                0.29622047                0.26546168               -0.81246193                0.17550624                1.65938075                1.31240200
              10.02160315                1.64532995               21.74939559                1.00000000                0.32806221                0.33279635               -1.07511033                0.02475012                0.59723184                0.58012624
              11.02528881                1.55974352               21.67029465                1.00000000                0.36856614                0.40559942               -1.36128212               -0.00949253                0.31150657               -0.83981072
               1.15219034                3.45531567               22.25831158                1.00000000               -0.25040152               -0.30447910                0.98374869               -0.01675540                0.05945573                1.37901414
               2.14968632                3.35273293               22.16934070                1.00000000               -0.20879019               -0.21510225                0.70521227                0.00394583                0.07083011               -0.03811917
               3.14801453                3.24974327               22.08054366                0.27572229               -0.11676034               -0.13207825                0.42886535                0.00699604                1.00979783               -1.57023689
               4.14735111                3.14635434               22.01033574                0.00010000               -0.65631063               -0.09321723                0.16345384                0.95185818                4.61540853               -2.57631128
               5.13488832                3.06148379               21.99361023                0.00010000               -1.26090316                0.05768731                0.01049937                2.52375073                6.82258264               -3.08415177
               6.12213305                2.97402180               21.96759987                0.00010000               -1.01779182               -0.06889818               -0.15207809                2.09433523                6.00910491               -1.18038596
               7.11453248                2.89092305               21.93468838                0.00010000               -0.62773971               -0.14563644               -0.32282986                1.76897375                5.56783439                0.83916817
               8.10957826                2.81010686               21.90015045                0.00010000               -0.48696048               -0.17895167               -0.50315680                1.34169576                5.27473278                1.02184631
               9.10479327                2.73345978               21.86159141                0.25059995               -0.12279188                0.22519886               -0.71371713                0.47617894                3.29092001                2.45765340
              10.10712242                2.64861616               21.78759978                1.00000000                0.28406911                0.30596273               -0.97610664                0.01480163                0.76664222                0.93848170
              11.11047465                2.56373836               21.69847800                1.00000000                0.33522368                0.39889095               -1.30069540               -0.01568482                0.01252462               -0.58788743
               1.25416005                4.45238414               22.23362532                1.00000000               -0.20926343               -0.27712671                0.86366955               -0.02128754                0.07678658                1.25341348
               2.25206742                4.35074375               22.13765271                0.92381803               -0.17008825               -0.17701030                0.57504573               -0.00029116                0.10201932               -0.15000204
               3.25075829                4.24871245               22.04212936                0.16737103               -0.08910002               -0.07727796                0.29641939               -0.01933563                1.13512038               -1.45643940
               4.25028542                4.14588012               21.96681009                0.00010000               -0.70626644                0.08357656               -0.01835729                0.75840816                5.91532616               -2.16447603
               5.23663296                4.06131679               21.96667443                0.00010000               -1.32964693                0.09117009               -0.10187642                1.46754718                9.24290539               -1.37784679
               6.22369248                3.97551802               21.95833680                0.00010000               -1.27427763                0.20427993               -0.17872264                1.33912186                8.55222756               -0.53812659
               7.21114740                3.89128251               21.94486552                0.00010000               -1.18582758                0.15428498               -0.27872426                1.18494610                8.15899004                0.48598276
               8.19997593                3.81058850               21.92903219                0.00010000               -1.07027775                0.13243823               -0.40471072                1.10723509                8.09483739                1.55107401
               9.18974185                3.73524195               21.91457905                0.23025691               -0.41776570                0.14255461               -0.56237259                0.47809825                4.40117230                2.89512471
              10.19162061                3.65144920               21.82497751                0.91229131                0.24944363                0.26247964               -0.88262363                0.00862572                0.34991715                0.90712677
              11.19473072                3.56772134               21.72929542                1.00000000                0.31101104                0.39129261               -1.22415783               -0.01740458                0.05067133               -0.44186054
               1.35504535                5.44977314               22.20741311                1.00000000               -0.16931751               -0.23923305                0.73423352               -0.02485156                0.11938546                1.09932743
               2.35335218                5.34919273               22.10470552                0.74890935               -0.12769543               -0.13145662                0.42730724               -0.00498735                0.22831822               -0.33597667
               3.35249145                5.24819771               22.00412197                0.11258312               -0.17186204               -0.02505914                0.13304763                0.06084828                1.88377023               -1.63916812
               4.34991494                5.14802588               21.93452052                0.00010000               -0.89450377                0.34198904               -0.31164533                0.53798374                7.66791615               -0.72742265
               5.33460137                5.06330720               21.94910896                0.00010000               -1.54825842                0.30856089               -0.22237286                1.14887032               11.39771560               -0.57967100
               6.31894977                4.97810739               21.95494393                0.00010000               -1.57202241                0.35121939               -0.20428122                0.91287447               10.75863024               -0.04652242
               7.30316092                4.89400875               21.95749366                0.00010000               -1.55931251                0.34262589               -0.23462922                0.78195130               10.52468157                0.69758515
               8.28776352                4.81275562               21.95922090                0.00010000               -1.48331923                0.25130600               -0.29935806                0.78031485               10.54230197                1.58582990
               9.27349454                4.73631087               21.96247231                0.23752252               -0.64739869                0.08199387               -0.39153079                0.34921842                5.45593467                2.49078136
              10.27481555                4.65386575               21.86256902                0.80990193                0.20438790                0.22321543               -0.75350496                0.00793726                0.18828902                0.89825826
              11.27758229                4.57156421               21.76026952                1.00000000                0.27667493                0.37267001               -1.13539231               -0.01918619                0.07434805               -0.46376549
               1.45482383                6.44759948               22.17961461                1.00000000               -0.12807406               -0.19400347                0.59879010               -0.02474085                0.06943138                0.95864830
               2.45354309                6.34811462               22.06925330                0.63720724               -0.08408661               -0.08483679                0.27707274               -0.00459140                0.22744838               -0.51701909
               3.45314210                6.24821127               21.96200074                0.08462777               -0.38037443                0.02521447               -0.03304393                0.24138379                3.65328593               -1.97288295
               4.44593561                6.15271991               21.92015861                0.00010000               -1.18066291                0.50349320               -0.55348904                0.53553644                9.95566277                0.13897950
               5.42952884                6.06748801               21.93819504                0.00010000               -1.73435966                0.51598804               -0.30964256                0.90325307               12.85238211               -0.07689517
               6.41124841                5.98254241               21.95555143                0.00010000               -1.86953219                0.54637438               -0.21583095                0.66362102               12.72217661                0.25639631
               7.39213820                5.89813503               21.97198046                0.00010000               -1.89841574                0.49123944               -0.18515938                0.44870057               12.66498036                0.81783533
               8.37328010                5.81561462               21.98892636                0.00010000               -1.82610550                0.31662043               -0.19266773                0.38836423               12.75549501                1.51979575
               9.35561609                5.73688183               22.00762540                0.25477629               -0.83770370                0.03403358               -0.22701729                0.14202752                6.50388851                2.27715032
              10.35652602                5.65591351               21.89973224                0.74927070                0.16669967                0.18549202               -0.62864192                0.00542606                0.11491156                0.83557872
              11.35895008                5.57517474               21.79044052                1.00000000                0.24240608                0.34655959               -1.03733984               -0.01612054                0.05183256               -0.52923983
               1.55352025                7.44589307               22.15054368                1.00000000               -0.08716947               -0.14807872                0.46307789               -0.02360666                0.02990684                0.87010230
               2.55264855                7.34749599               22.03263219                0.57922289               -0.04032073               -0.03953983                0.13001603               -0.00261965                0.15915282               -0.59070550
               3.55271383                7.24870200               21.91725600                0.06990509               -0.56498132                0.07146414               -0.19875138                0.43305264                5.46410476               -2.15832018
               4.54134893                7.15809574               21.90544594                0.00010000               -1.49349514                0.56549299               -0.56208493                0.76506169               12.50337734               -0.08679364
               5.52284393                7.07362696               21.93058339                0.00010000               -1.98868777                0.71655150               -0.33965622                0.81912445               14.40905467                0.10103424
               6.50157517                6.98903488               21.95812114                0.00010000               -2.18906070                0.77115010               -0.20684370                0.47351511               14.54107582                0.37023046
               7.47906272                6.90383354               21.98699438                0.00010000               -2.23955833                0.67365269               -0.13124548                0.11837105               14.66465106                0.80723899
               8.45678401                6.81908803               22.01787171                0.00010000               -2.15132600                0.39897164               -0.09022166               -0.07422298               14.86568628                1.40325175
               9.43603620                6.73699155               22.05136793                0.27783621               -1.00764246               -0.00964178               -0.07506049               -0.12118428                7.53716658                2.14111002
              10.43663116                6.65757559               21.93600725                0.71999250                0.13506174                0.14605508               -0.50629713               -0.00026233                0.06672473                0.75294630
              11.43873743                6.57849540               21.81986479                1.00000000                0.21062757                0.31620304               -0.94116369               -0.01366360                0.03552027               -0.59417546
               1.65114585                8.44463790               22.12091664                1.00000000               -0.04640826               -0.10451332                0.32920922               -0.02266566                0.01155890                0.84301524
               2.65068177                8.34732382               21.99565731                0.56980969                0.00287787                0.00501386               -0.01436095               -0.00071716                0.06289236               -0.60989866
               3.65120341                8.24964055               21.87137663                0.05805733               -0.71849423                0.11595811               -0.36046292                0.62873027                7.07851664               -2.10797535
               4.63631188                8.16402977               21.88643080                0.00010000               -1.81156080                0.67627819               -0.50962013                1.02109551               15.10436141               -0.23446939
               5.61497219                8.08181904               21.92297901                0.00010000               -2.28998752                0.94333657               -0.32514689                0.77963914               16.18187058                0.08641205
               6.59051213                7.99796541               21.96077815                0.00010000               -2.52598600                0.99833585               -0.18541163                0.32098073               16.31663237                0.32890314
               7.56445247                7.91160808               22.00113968                0.00010000               -2.59372511                0.92549729               -0.07832025               -0.16980444               16.58011758                0.65617333
               8.53863763                7.82359405               22.04522435                0.00906369               -2.48738126                0.56406669                0.00346442               -0.62084476               16.95194829                1.15556131
               9.51470485                7.73668899               22.09381874                0.30560168               -1.18103534               -0.04382928                0.06384592               -0.46213632                8.60146589                1.93602422
              10.51501692                7.65883461               21.97142867                0.72217005                0.10661745                0.10807780               -0.39089958               -0.01033318                0.03773607                0.69111969
              11.51683720                7.58149880               21.84850055                1.00000000                0.18202719                0.28289227               -0.85047481               -0.01130172                0.02004384               -0.66135150
               1.74769509                9.44380280               22.09123900                1.00000000               -0.00635350               -0.06414087                0.19781379               -0.02206192               -0.00705457                0.71974096
               2.74763156                9.34759627               21.95861263                0.59293221                0.04437021                0.04899808               -0.15621616                0.00042372                0.07683711               -0.52724217
               3.74858250                9.25102116               21.82761740                0.02687069               -0.90196027                0.15835319               -0.51000378                0.88265271                8.74990529               -1.46512575
               4.72959235                9.17162130               21.86845294                0.00010000               -2.20407120                1.02051915               -0.46430896                0.98035636               17.57560389               -0.07397913
               5.70450107                9.09249369               21.91472952                0.00010000               -2.56933032                1.11725843               -0.31345067                0.57893808               17.85177599                0.04434005
               6.67820575                9.00900160               21.96216940                0.00010000               -2.72315449                1.14592370               -0.16862194                0.18226577               18.01792221                0.18899200
               7.65003798                8.92234348               22.01286377                0.00010000               -2.94597717                1.12757162               -0.03595717               -0.26538179               18.39863500                0.37205938
               8.61928620                8.83036937               22.06907262                0.02790552               -2.92425350                1.00313109                0.08575558               -0.87654691               19.01762023                0.67405898
               9.59155291                8.73611496               22.13336864                0.33555138               -1.38357578               -0.05208977                0.18428007               -0.90325386                9.81242224                1.29199617
              10.59161469                8.65973715               22.00633721                0.75415077                0.08150575                0.07714123               -0.28555778               -0.02444063                0.11216886                0.56505257
              11.59318303                8.58415324               21.87635963                0.98160794                0.15683412                0.24855689               -0.76930753               -0.01100808               -0.02428553               -0.59961258
               1.84311767               10.44335508               22.05907765                1.00000000                0.03542066               -0.04477164                0.06658803                0.03712818                0.39416279                0.59911109
               2.84347188               10.34830378               21.92326057                0.83161088                0.08568770                0.07075151               -0.29288354                0.05665901                0.75438615               -0.44146707
               3.84483143               10.25280762               21.79460250                0.51388886               -1.45126977                0.17864565               -0.64075456                1.43171130               10.42853575               -0.92900980
               4.81444648               10.18444015               21.85227020                0.36488990               -2.78303847                1.28188452               -0.48140489                1.05324281               19.49840449                0.03638269
               5.78917066               10.10416421               21.90586331                0.35610078               -2.50694165                1.16705217               -0.33416408                0.28914517               19.35513061                0.03525918
               6.76430765               10.02088388               21.96155569                0.37419701               -2.56967946                1.18822826               -0.17023103                0.10995586               19.59185425                0.11602640
               7.73777707                9.93415951               22.02083241                0.41719674               -2.84862177                1.18160305               -0.01274439               -0.08745172               20.03383794                0.21720167
               8.70733522                9.84365668               22.08646812                0.52254139               -3.52525402                1.32873095                0.14096240               -1.12071457               20.80954817                0.39443913
               9.66727199                9.73564720               22.16272879                0.68467296               -2.04226947               -0.04677649                0.26044953               -1.59205438               11.23947860                0.79890868
              10.66648983                9.66037744               22.03904367                0.90337106                0.02564250                0.06402899               -0.19612505                0.02865098                0.78691906                0.46800777
              11.66778484                9.58646993               21.90601842                0.98688183                0.12950117                0.23166904               -0.69161511                0.06943087                0.33248005               -0.49880504
               0.91055949                0.50433720               23.34887280                1.00000000               -0.34947827               -0.37903647                1.32260505               -0.06639606               -0.80376433                0.83598215
               1.90706471                0.39205276               23.27044158                1.00000000               -0.29221375               -0.30074625                1.06197511               -0.05302865               -1.02576308                0.06588686
               2.90471522                0.27951593               23.18753760                1.00000000               -0.16169878               -0.22243894                0.78715995               -0.04168566               -0.97568798               -0.20985961
               3.90383073                0.16790573               23.11010541                0.62503064                0.30025217               -0.17486899                0.52332326                0.45573157               -0.04548051               -0.66004067
               4.91072026                0.06787661               23.04583503                0.71437474                0.44656118               -0.05636560                0.22620345               -0.07808582                0.41052888                0.17979671
               5.91276196               -0.02358877               22.97790979                0.79806486                0.14717459                0.02767102               -0.05453518               -0.00280277                0.04730285                0.10158788
               6.91366375               -0.11346901               22.90638407                0.77495983                0.07885924                0.10208853               -0.33240033                0.00809813               -0.14865234               -0.06440703
               7.91433914               -0.20365426               22.83445232                0.86974487                0.09530925                0.19078781               -0.62183487                0.02352551               -0.39086309                0.08077906
               8.91556994               -0.29610008               22.75787548                1.00000000                0.19728320                0.28213490               -0.91026213                0.01027385               -0.73597452                0.46795630
               9.91828481               -0.39022172               22.67888350                1.00000000                0.32879761                0.35197667               -1.19274967               -0.04136239               -0.78484793                0.00730637
              10.92214589               -0.48458576               22.60132918                1.00000000                0.38610833                0.43189676               -1.46107404               -0.05654310               -0.71666316               -0.72743458
               1.02217997                1.50054684               23.31790990                1.00000000               -0.32349124               -0.35996729                1.19931616               -0.02614196               -0.10903397                1.13605201
               2.01894506                1.38904530               23.23909951                1.00000000               -0.29040493               -0.27980800                0.94014893               -0.00893189               -0.08334553                0.09294241
               3.01637187                1.27729154               23.16076107                0.83726001               -0.23686760               -0.20011422                0.67126815                0.01822877                0.13098992               -0.58255847
               4.01420771                1.16615704               23.08619580                0.17798148               -0.53426096               -0.16374421                0.39506210                0.64461413                1.64641052               -1.07040954
               5.00568665                1.06731295               23.03810312                0.34287890               -0.54004832                0.06819041                0.15492985               -0.10164942                2.35835845                0.97630137
               6.00340674                0.97668794               22.97731871                0.44187927               -0.09545882                0.08944731               -0.10379991                0.15054178                1.50244814                0.39286485
               7.00377748                0.88755187               22.91201020                0.33303904                0.12415941                0.06850416               -0.36316055                0.19826806                1.40206616               -0.37687429
               8.00588993                0.79825362               22.84927542                0.47701309                0.25894639                0.18869484               -0.61581251                0.21470938                1.39716192                0.59899985
               9.00895640                0.70672127               22.78408354                1.00000000                0.31120460                0.26983266               -0.87005802                0.09538045                0.71303870                0.68277615
              10.01211402                0.61329805               22.70786296                1.00000000                0.34940448                0.34337035               -1.13667906                0.00198732                0.09338681                0.09389687
              11.01594449                0.51973321               22.63033321                1.00000000                0.38304737                0.42204125               -1.40417669               -0.01434886                0.02533412               -0.86279238
               1.13303973                2.49713785               23.29291040                1.00000000               -0.28983600               -0.32792653                1.08795094               -0.01898769                0.03966480                1.44524206
               2.13014137                2.38645660               23.20825804                1.00000000               -0.25358419               -0.24400997                0.82127862                0.00570302                0.18558097                0.06741584
               3.12796804                2.27551364               23.12648720                0.47960454               -0.17198851               -0.16781174                0.56629672                0.04119880                0.79675750               -1.32390350
               4.12670160                2.16463085               23.05404245                0.00010000               -1.49058349               -0.14767960                0.28418842                0.89718950                4.49736285               -1.97354424
               5.09815638                2.06924042               23.04629290                0.00010000               -1.55838623                0.15551729                0.08293532                1.68968081                5.00323857               -1.27348613
               6.09553387                1.97820018               22.98255822                0.00010000               -0.10464709               -0.06970780               -0.14546167                1.42180178                1.82959377               -0.40506360
               7.09606343                1.88790107               22.91141154                0.00010000                0.19650279               -0.14870383               -0.37600810                1.18134895                3.16355782                0.35518241
               8.09946393                1.80011964               22.87450682                0.00010000                0.31848415               -0.10705040               -0.61620434                0.79827265                3.68839098                0.88560119
               9.10243312                1.70929658               22.81466759                0.49528652                0.29243409                0.26258528               -0.81482676                0.15871407                1.72428707                1.35794207
              10.10531261                1.61664569               22.73864528                1.00000000                0.32777333                0.32968306               -1.07508295                0.02092198                0.61922117                0.60024764
              11.10898858                1.52385507               22.65669703                1.00000000                0.36759716                0.40809873               -1.35842717               -0.00879298                0.32203794               -0.87508112
               1.24316273                3.49398831               23.26810382                1.00000000               -0.24793957               -0.30368373                0.97511404               -0.01544721                0.06313331                1.40135181
               2.24068333                3.38416510               23.17636445                1.00000000               -0.20705640               -0.21319279                0.69947043                0.00586320                0.07581578               -0.03793233
               3.23902160                3.27393530               23.08482863                0.28454303               -0.11293053               -0.12944784                0.42720429                0.00394078                1.02079822               -1.59377012
               4.23842472                3.16320345               23.01196870                0.00010000               -0.65553278               -0.09960546                0.15958741                0.92267090                4.68694700               -2.62884561
               5.22591094                3.07042330               22.99366634                0.00010000               -1.26212983                0.04852728                0.00361638                2.43710957                6.95086872               -3.09806036
               6.21318212                2.97529378               22.96605857                0.00010000               -1.02129746               -0.07404656               -0.15728591                2.01600434                6.14174372               -1.14514863
               7.20548499                2.88457780               22.93142957                0.00010000               -0.63611240               -0.15204809               -0.32936043                1.68951345                5.69920329                0.91167289
               8.20045988                2.79611261               22.89507543                0.00010000               -0.49401792               -0.17908161               -0.51218127                1.28538474                5.39358419                1.12209210
               9.19560464                2.71197298               22.85440225                0.24945364               -0.12429546                0.21348068               -0.72393911                0.44492177                3.37792585                2.54617477
              10.19797397                2.61989171               22.77779469                1.00000000                0.28726184                0.30343019               -0.98452577                0.00733750                0.79820404                0.97008016
              11.20134987                2.52789519               22.68544570                1.00000000                0.33759057                0.40416192               -1.30535497               -0.01436125                0.01344719               -0.61188210
               1.35237720                4.49106418               23.24221029                1.00000000               -0.20655639               -0.27614623                0.85373479               -0.02076728                0.08409178                1.26682316
               2.35031163                4.38219274               23.14337589                0.91418507               -0.16843462               -0.17509810                0.56944614                0.00010355                0.11430850               -0.16277881
               3.34900851                4.27292469               23.04509214                0.17314544               -0.08223081               -0.07497118                0.29543880               -0.03045937                1.13844654               -1.49046182
               4.34866702                4.16263874               22.96672669                0.00010000               -0.71001359                0.07108397               -0.00432184                0.72496607                6.00986882               -2.29042397
               5.33480823                4.07021096               22.96566037                0.00010000               -1.34837770                0.08665825               -0.09977514                1.40648820                9.45863318               -1.40804061
               6.32169946                3.97671924               22.95653892                0.00010000               -1.28866798                0.19967927               -0.18194835                1.27392473                8.77523890               -0.50997919
               7.30903487                3.88486011               22.94203917                0.00010000               -1.19615111                0.14797591               -0.28728264                1.11754619                8.36966322                0.55589694
               8.29777644                3.79653801               22.92491685                0.00010000               -1.07412107                0.12579444               -0.41892630                1.03869560                8.28876248                1.64838138
               9.28755245                3.71356619               22.90884528                0.22758442               -0.41196451                0.12592064               -0.58416519                0.44322398                4.51277654                3.01766858
              10.28953715                3.62271429               22.81605745                0.89262477                0.25709747                0.26241625               -0.90077577                0.00585500                0.37388473                0.95414163
              11.29269440                3.53193831               22.71698893                1.00000000                0.31572507                0.39938650               -1.23635789               -0.01791257                0.06449958               -0.45203838
               1.46049025                5.48846538               23.21469957                1.00000000               -0.16653567               -0.23766416                0.72329241               -0.02485411                0.12131065                1.10484717
               2.45882490                5.38066314               23.10895006                0.74096533               -0.12619191               -0.12903248                0.42144611               -0.00554183                0.23677930               -0.35883761
               3.45796641                5.27243588               23.00545390                0.11733689               -0.15935664               -0.02193785                0.13289476                0.03907697                1.82940522               -1.68986736
               4.45563776                5.16462513               22.93155079                0.00010000               -0.90031060                0.32702207               -0.28366330                0.50220709                7.79674454               -0.88518836
               5.43996020                5.07215647               22.94691155                0.00010000               -1.58131446                0.30759566               -0.21528401                1.09388403               11.76002594               -0.60036722
               6.42401147                4.97928737               22.95288967                0.00010000               -1.59715231                0.35162838               -0.20688459                0.85078822               11.07934451               -0.01267242
               7.40801716                4.88753731               22.95509823                0.00010000               -1.57418836                0.33965688               -0.24526714                0.71299953               10.81978634                0.76772408
               8.39252771                4.79862850               22.95613660                0.00010000               -1.48621640                0.24462103               -0.31828665                0.70709168               10.82232273                1.68486884
               9.37829283                4.71449139               22.95841462                0.23463321               -0.64043793                0.07104771               -0.42031443                0.31291716                5.60713249                2.61822467
              10.37971895                4.62514003               22.85491662                0.79233135                0.21253803                0.22475281               -0.77637612                0.00880446                0.19972620                0.96055430
              11.38254359                4.53588292               22.74882498                1.00000000                0.28246411                0.38368083               -1.15252586               -0.01970540                0.07579462               -0.46244355
               1.56748461                6.48631090               23.18554430                1.00000000               -0.12543063               -0.19173108                0.58720706               -0.02474778                0.06878472                0.96068720
               2.56623030                6.37961209               23.07199607                0.63112926               -0.08282779               -0.08217921                0.27129776               -0.00515141                0.23272035               -0.53922594
               3.56582805                6.27248593               22.96167244                0.08844149               -0.36198626                0.02860037               -0.03296625                0.21057882                3.56291896               -2.02398578
               4.55899057                6.16917918               22.91472959                0.00010000               -1.19021865                0.49809267               -0.52600228                0.48207351               10.13467894                0.11599833
               5.54202368                6.07636288               22.93512720                0.00010000               -1.78280971                0.52174110               -0.30143919                0.84802102               13.34535321               -0.05789505
               6.52333438                5.98375181               22.95337573                0.00010000               -1.90349712                0.55184045               -0.21901726                0.59554832               13.12789524                0.30318006
               7.50395373                5.89165325               22.97006738                0.00010000               -1.91850900                0.49246893               -0.19818871                0.37286278               13.03926708                0.88853125
               8.48496420                5.80143043               22.98689119                0.00010000               -1.83272361                0.31323304               -0.21540730                0.30659408               13.11657810                1.61373345
               9.46729926                5.71498714               23.00519509                0.25217461               -0.83212424                0.02946265               -0.25978426                0.10001690                6.69052088                2.39264603
              10.46832172                5.62720935               22.89331009                0.73336047                0.17576337                0.18848376               -0.65555649                0.00685625                0.11983554                0.89272405
              11.47081453                5.53961192               22.77996290                1.00000000                0.24928147                0.35841857               -1.05735389               -0.01605967                0.05361922               -0.52404884
               1.67339290                7.48463076               23.15511546                1.00000000               -0.08460661               -0.14521023                0.45120084               -0.02355302                0.02932790                0.87261712
               2.67254684                7.37901955               23.03390674                0.57475263               -0.03909992               -0.03715272                0.12460691               -0.00281100                0.16078289               -0.60956954
               3.67261090                7.27300789               22.91527424                0.07262445               -0.55722755                0.07383972               -0.19805541                0.40290048                5.45034189               -2.20585150
               4.66140228                7.17458698               22.89985899                0.00010000               -1.51314555                0.57297509               -0.54552245                0.69522820               12.76500603                0.03289731
               5.64234799                7.08259129               22.92720342                0.00010000               -2.03851066                0.72741220               -0.33297923                0.75875462               14.92956432                0.16307860
               6.62063207                6.99032418               22.95602503                0.00010000               -2.22760973                0.78169554               -0.21179246                0.40077569               15.00712571                0.42630470
               7.59779580                6.89738669               22.98560704                0.00010000               -2.26531905                0.68018567               -0.14689360                0.03604920               15.10661862                0.87351944
               8.57532569                6.80489316               23.01684345                0.00010000               -2.16407769                0.40082565               -0.11662415               -0.16305441               15.29901737                1.48619759
               9.55451424                6.71508064               23.05043700                0.27564224               -1.00471991               -0.00821548               -0.11229147               -0.16839916                7.75874104                2.24152916
              10.55523129                6.62890971               22.93079228                0.70480236                0.14514996                0.15115505               -0.53700471                0.00030639                0.06909162                0.80368576
              11.55741724                6.54305129               22.81033622                1.00000000                0.21859511                0.32774441               -0.96402320               -0.01303473                0.03655689               -0.59304754
               1.77823596                8.48340669               23.12414992                1.00000000               -0.04390081               -0.10124394                0.31722814               -0.02258129                0.01108853                0.84748578
               2.77779695                8.37886904               22.99549082                0.56679022                0.00413333                0.00694070               -0.01930768               -0.00065535                0.06124745               -0.62577524
               3.77831863                8.27396272               22.86778269                0.05947990               -0.72426072                0.11675958               -0.35880400                0.60441455                7.17372870               -2.14619486
               4.76331174                8.18063868               22.88137209                0.00010000               -1.84285253                0.68961204               -0.49369005                0.95928846               15.46780527               -0.09259736
               5.74146158                8.09091112               22.91972838                0.00010000               -2.33786247                0.95757700               -0.32192201                0.72586885               16.70426688                0.15994442
               6.71655449                7.99938572               22.95888335                0.00010000               -2.56779198                1.01419731               -0.19298713                0.25524298               16.82259175                0.37953132
               7.69010574                7.90525696               23.00026879                0.00010000               -2.62726637                0.94035779               -0.09641986               -0.24853794               17.08024095                0.70889825
               8.66400916                7.80944694               23.04511531                0.01030302               -2.50955029                0.57310868               -0.02645378               -0.71195725               17.45100248                1.22418073
               9.63991473                7.71482283               23.09424780                0.30363978               -1.18259813               -0.03616279                0.02045877               -0.51316181                8.85781523                2.01964164
              10.64035720                7.63023245               22.96734553                0.70619339                0.11779736                0.11621017               -0.42647235               -0.01100392                0.04057761                0.73217796
              11.64227068                7.54616681               22.83986086                1.00000000                0.19134794                0.29381865               -0.87720755               -0.01015019                0.02088462               -0.66828820
               1.88201658                9.48260588               23.09315861                1.00000000               -0.00388826               -0.06060111                0.18575576               -0.02198279               -0.00789116                0.72551884
               2.88197770                9.37915837               22.95703046                0.59054599                0.04564854                0.05049724               -0.16068229                0.00050349                0.07630675               -0.53894789
               3.88292955                9.27534308               22.82253442                0.02652600               -0.91690208                0.15788849               -0.50707471                0.86661982                8.94813772               -1.48720128
               4.86363966                9.18837923               22.86383901                0.00010000               -2.24056102                1.03530385               -0.45421495                0.94363086               18.03717594                0.02347657
               5.83811833                9.10174283               22.91158231                0.00010000               -2.61242814                1.13345501               -0.31413349                0.54719538               18.38239181                0.08957674
               6.81139109                9.01060812               22.96042837                0.00010000               -2.76772536                1.16647183               -0.17931800                0.14198558               18.56248589                0.21792036
               7.78276382                8.91619385               23.01240440                0.00010000               -2.99352111                1.15189608               -0.05637487               -0.31958153               18.95483181                0.40061940
               8.75152067                8.81635533               23.06978196                0.03041811               -2.96491626                1.02893298                0.05572312               -0.94748621               19.57784635                0.71775894
               9.72346550                8.71435739               23.13496775                0.33363815               -1.39267177               -0.03819811                0.13366468               -0.95558143               10.10312320                1.34474030
              10.72366724                8.63123391               23.00327714                0.73512534                0.09400076                0.08880017               -0.32749893               -0.02602312                0.11987465                0.59292210
              11.72534551                8.54892766               22.86850706                0.98220061                0.16782775                0.25927807               -0.80111038               -0.00971807               -0.02295009               -0.61359511
               1.98469133               10.48219467               23.05968544                1.00000000                0.03784903               -0.04112103                0.05452873                0.03590681                0.39763235                0.60516130
               2.98506982               10.37987898               22.92031375                0.83103443                0.08694149                0.07206192               -0.29703997                0.05550377                0.76385041               -0.45027938
               3.98643016               10.27712049               22.78821506                0.51339398               -1.46426089                0.17774150               -0.63726199                1.42335002               10.69496826               -0.94139031
               4.95578461               10.20134476               22.84746248                0.36530329               -2.81267892                1.29655352               -0.47906623                1.03748142               20.04185764                0.08998827
               5.93017658               10.11358022               22.90249578                0.35629988               -2.54207137                1.18373946               -0.33838257                0.27434537               19.92185593                0.05417087
               6.90494318               10.02271516               22.95978428                0.37401002               -2.61048442                1.21070351               -0.18421631                0.09094151               20.18383292                0.12612591
               7.87796690                9.92829488               23.02059068                0.41655293               -2.90236404                1.21010327               -0.03620534               -0.11417074               20.64196146                0.22722101
               8.84689590                9.83002560               23.08772344                0.52441496               -3.60211863                1.36702644                0.11029478               -1.17427778               21.41554579                0.41496496
               9.80592452                9.71405887               23.16505768                0.68411795               -2.08147175               -0.02985154                0.20316626               -1.65495472               11.57035593                0.83063777
              10.80526646                9.63200845               23.03684554                0.89259603                0.03821482                0.07745400               -0.24478004                0.02459781                0.82017488                0.48852629
              11.80668882                9.55135237               22.89891360                0.98681306                0.14223575                0.24247133               -0.72935078                0.06872284                0.34711324               -0.51478199
               0.98217558                0.54435178               24.36206433                1.00000000               -0.34783932               -0.37715192                1.31577887               -0.06582410               -0.81988553                0.85088902
               1.97869719                0.42468825               24.28102885                1.00000000               -0.29140775               -0.29885143                1.05581050               -0.05206548               -1.04916871                0.07073665
               2.97634742                0.30477038               24.19537824                1.00000000               -0.16282133               -0.22062705                0.78187156               -0.04126598               -1.00158591               -0.21010882
               3.97544076                0.18572708               24.11530292                0.62599479                0.28790212               -0.17354869                0.51807719                0.43703701               -0.08302288               -0.68295227
               4.98210547                0.07782231               24.04808082                0.71532906                0.43470450               -0.05618451                0.22383791               -0.08050481                0.36056208                0.19077351
               5.98413485               -0.02170062               23.97737101                0.79872274                0.14880576                0.02725254               -0.05322830               -0.00573343                0.00522005                0.10811765
               6.98508158               -0.11959656               23.90308555                0.77524759                0.08648398                0.10083295               -0.32795756                0.00677333               -0.19543703               -0.06684142
               7.98586453               -0.21766796               23.82827732                0.86996552                0.10483589                0.18858659               -0.61411782                0.01943411               -0.44255674                0.08665546
               8.98717830               -0.31776907               23.74883037                1.00000000                0.20164317                0.27830358               -0.89982648                0.00695046               -0.78362084                0.47985214
               9.98989739               -0.41940994               23.66702743                1.00000000                0.32734929                0.34863342               -1.17956195               -0.04045305               -0.82178352                0.00690315
              10.99372528               -0.52128540               23.58680010                1.00000000                0.38278926                0.42880659               -1.44597214               -0.05429079               -0.74592219               -0.75431102
               1.10118087                1.54058026               24.32986902                1.00000000               -0.32136411               -0.35835711                1.19247578               -0.02544685               -0.11221794                1.15671405
               2.09796723                1.42169973               24.24846807                1.00000000               -0.28827608               -0.27795398                0.93388322               -0.00812097               -0.09095144                0.09921841
               3.09541535                1.30256411               24.16745069                0.84596754               -0.23410329               -0.19809971                0.66676114                0.01674748                0.11601715               -0.57887841
               4.09328516                1.18399159               24.09014803                0.18518831               -0.52005426               -0.16131992                0.39430644                0.61929632                1.64438760               -1.08862799
               5.08501426                1.07726047               24.03962620                0.34983032               -0.52491058                0.06538928                0.15042681               -0.10753791                2.36881758                0.98634999
               6.08278695                0.97857191               23.97626873                0.44963233               -0.09406387                0.08777292               -0.10586126                0.13673576                1.50631527                0.40310290
               7.08313299                0.88141177               23.90838146                0.34161216                0.11790870                0.07380411               -0.36260712                0.18699830                1.40951261               -0.37040885
               8.08514513                0.78421791               23.84313118                0.48328897                0.24929045                0.18737570               -0.61336906                0.19640901                1.40818299                0.60185155
               9.08811880                0.68501396               23.77540854                1.00000000                0.30529480                0.26735884               -0.86540536                0.08775196                0.71798482                0.70224649
              10.09125102                0.58407639               23.69653125                1.00000000                0.34695172                0.34065571               -1.13025731                0.00247265                0.09208487                0.09674205
              11.09505783                0.48300267               23.61633707                1.00000000                0.38068078                0.42073994               -1.39575771               -0.01233270                0.02408868               -0.89452252
               1.21942770                2.53718464               24.30375391                1.00000000               -0.28767825               -0.32687262                1.08061444               -0.01800409                0.04094700                1.47066732
               2.21655091                2.41912917               24.21644041                1.00000000               -0.25185907               -0.24216504                0.81520963                0.00671709                0.19251861                0.07343687
               3.21439052                2.30080839               24.13211212                0.49085821               -0.17102929               -0.16505914                0.55971438                0.03912035                0.79647970               -1.33151087
               4.21313033                2.18250068               24.05685059                0.00010000               -1.45080644               -0.14491981                0.27834762                0.86444444                4.52537328               -1.99343711
               5.18537439                2.07913010               24.04708315                0.00010000               -1.52060323                0.14473277                0.07552264                1.61778640                5.07716622               -1.26630850
               6.18271826                1.98005484               23.98107543                0.00010000               -0.10994184               -0.07168907               -0.15058234                1.35835859                1.89022417               -0.37586568
               7.18317555                1.88187952               23.90762971                0.00010000                0.17361253               -0.14414438               -0.37984496                1.11957094                3.21857866                0.39968945
               8.18619051                1.78607956               23.86833077                0.00010000                0.29496515               -0.10396178               -0.61912031                0.75153567                3.76239268                0.93789454
               9.18907485                1.68757810               23.80650718                0.49937746                0.28838104                0.25958144               -0.81730453                0.14186726                1.78780804                1.40257211
              10.19195814                1.58740317               23.72789393                1.00000000                0.32756101                0.32645991               -1.07521937                0.01716607                0.64093648                0.62028640
              11.19562607                1.48712940               23.64312610                1.00000000                0.36679378                0.41030716               -1.35580667               -0.00818965                0.33243945               -0.90861346
               1.33693173                3.53404281               24.27781387                1.00000000               -0.24539083               -0.30298952                0.96684792               -0.01448819                0.06748321                1.42137103
               2.33447782                3.41685643               24.18333011                1.00000000               -0.20527422               -0.21132977                0.69359887                0.00704737                0.08217843               -0.03779800
               3.33282624                3.29926293               24.08908775                0.29391118               -0.11127395               -0.12652196                0.42448700                0.00113345                1.02932311               -1.61360106
               4.33225234                3.18109319               24.01352749                0.00010000               -0.65052092               -0.10055615                0.15379634                0.88382144                4.75140294               -2.66639627
               5.31981583                3.08015512               23.99368256                0.00010000               -1.25238198                0.03903395               -0.00023552                2.33319679                7.07912629               -3.10539478
               6.30720470                2.97713813               23.96445416                0.00010000               -1.01580665               -0.07837554               -0.16314582                1.92369713                6.27104065               -1.10402576
               7.29949969                2.87852888               23.92810118                0.00010000               -0.63637223               -0.15738699               -0.33666211                1.59938634                5.82577612                0.98677367
               8.29447726                2.78213867               23.88990683                0.00010000               -0.49335846               -0.17923001               -0.52164451                1.22156315                5.50742046                1.22254087
               9.28963252                2.69020559               23.84711262                0.24791234               -0.12171075                0.20024235               -0.73361522                0.41244228                3.46184655                2.63171249
              10.29204304                2.59060559               23.76790926                1.00000000                0.29045249                0.30034681               -0.99200338               -0.00001294                0.82870896                1.00021311
              11.29544157                2.49120881               23.67237090                1.00000000                0.33985316                0.40859462               -1.30903991               -0.01309349                0.01410373               -0.63455775
               1.45351069                4.53112485               24.25070001                1.00000000               -0.20389449               -0.27533707                0.84425450               -0.02028438                0.09180790                1.27788230
               2.45147174                4.41490257               24.14904163                0.90501483               -0.16671317               -0.17303156                0.56354694                0.00043568                0.12724770               -0.17570478
               3.45017642                4.29827795               24.04803814                0.17879447               -0.07785890               -0.07214332                0.29343993               -0.03802248                1.14520884               -1.52249484
               4.44991456                4.18048956               23.96672365                0.00010000               -0.70915179                0.06130065                0.00245223                0.68863350                6.09904070               -2.39510072
               5.43599339                4.07991078               23.96467893                0.00010000               -1.35480564                0.08389451               -0.09719670                1.33224809                9.66499709               -1.43190767
               6.42281845                3.97848733               23.95469783                0.00010000               -1.29153262                0.19395026               -0.18631339                1.19831364                8.98771038               -0.47571860
               7.41016273                3.87873178               23.93911987                0.00010000               -1.19366912                0.14030695               -0.29713472                1.04088248                8.57039415                0.62848584
               8.39894507                3.78249495               23.92065366                0.00010000               -1.06529771                0.11699933               -0.43405122                0.96337499                8.47163620                1.74604581
               9.38885678                3.69158295               23.90289575                0.22461762               -0.39952071                0.10599826               -0.60533201                0.40698981                4.61795954                3.13685952
              10.39095465                3.59341011               23.80696200                0.87287400                0.26504882                0.26093019               -0.91751590                0.00375074                0.39778317                1.00119602
              11.39415776                3.49530129               23.70456826                1.00000000                0.32031032                0.40662772               -1.24686880               -0.01888649                0.07922565               -0.45989738
               1.56897059                5.52853607               24.22187896                1.00000000               -0.16371592               -0.23637619                0.71264294               -0.02476073                0.12317256                1.10854330
               2.56733343                5.41339580               24.11313444                0.73316719               -0.12458902               -0.12645772                0.41519310               -0.00591887                0.24551643               -0.38162068
               3.56647881                5.29782006               24.00677986                0.12156470               -0.14706249               -0.01833675                0.13174370                0.02069724                1.78653226               -1.73852479
               4.56439218                5.18231921               23.92884725                0.00010000               -0.90079005                0.31210613               -0.25747967                0.46364032                7.92407521               -1.02898215
               5.54846301                5.08183301               23.94480328                0.00010000               -1.60211056                0.30637289               -0.20613773                1.02471533               12.10235475               -0.61573993
               6.53234997                4.98101713               23.95080624                0.00010000               -1.60766449                0.34916591               -0.20985950                0.77748462               11.38433526                0.02567149
               7.51630972                4.88133502               23.95258832                0.00010000               -1.57281915                0.33325352               -0.25733733                0.63534335               11.10066299                0.84013943
               8.50089359                4.78447866               23.95285516                0.00010000               -1.47262766                0.23437426               -0.33858495                0.62647101               11.08746948                1.78449337
               9.48685717                4.69232555               23.95406602                0.23146941               -0.62469388                0.05647091               -0.44947632                0.27481815                5.75072636                2.74540556
              10.48839971                4.59582419               23.84704149                0.77466339                0.22121508                0.22411134               -0.79790180                0.01080421                0.21124502                1.02518383
              11.49128147                4.49934137               23.73721900                1.00000000                0.28817582                0.39406121               -1.16757631               -0.02032746                0.07698283               -0.45691128
               1.68329600                6.52639732               24.19135875                1.00000000               -0.12266359               -0.18981363                0.57567021               -0.02470728                0.06801563                0.96156335
               2.68206937                6.41237342               24.07467925                0.62495769               -0.08145212               -0.07929778                0.26510961               -0.00570542                0.23791670               -0.56101262
               3.68166696                6.29791121               23.96134141                0.09159915               -0.34474747                0.03273289               -0.03362581                0.18239356                3.48676190               -2.07346876
               4.67517442                6.18673168               23.90963857                0.00010000               -1.19385978                0.48959865               -0.48862007                0.42273545               10.31268833                0.09514809
               5.65778977                6.08603824               23.93216626                0.00010000               -1.81541405                0.52271707               -0.28884920                0.77725705               13.81366736               -0.03525556
               6.63886614                5.98547065               23.95117109                0.00010000               -1.91908441                0.55181084               -0.22169388                0.51613571               13.51478317                0.35290738
               7.61940808                5.88539685               23.96801669                0.00010000               -1.91910929                0.48837488               -0.21257411                0.28893685               13.39633599                0.96101017
               8.60048395                5.78718244               23.98461821                0.00010000               -1.82002348                0.30546033               -0.24001446                0.21781591               13.46072783                1.70847089
               9.58300761                5.69271237               24.00242972                0.24935002               -0.81645132                0.02219310               -0.29372133                0.05574593                6.86823462                2.50876007
              10.58415493                5.59789233               23.88662111                0.71729230                0.18546259                0.18948396               -0.68178982                0.00921054                0.12431184                0.95213147
              11.58671686                5.50318252               23.76929344                1.00000000                0.25619345                0.36975605               -1.07555375               -0.01602070                0.05525401               -0.51413056
               1.79652426                7.52473979               24.15956770                1.00000000               -0.08188243               -0.14264286                0.43913799               -0.02350454                0.02865900                0.87441124
               2.79570543                7.41180984               24.03512432                0.57016959               -0.03779179               -0.03444081                0.11863105               -0.00302467                0.16215930               -0.62787866
               3.79576842                7.29847472               23.91329489                0.07467278               -0.54927816                0.07726323               -0.19814536                0.37155419                5.44627452               -2.25173638
               4.78471987                7.19211118               23.89453549                0.00010000               -1.52496218                0.57330610               -0.51083745                0.61802572               13.02203648                0.15136975
               5.76526918                7.09228735               23.92392381                0.00010000               -2.07029001                0.73004011               -0.32017009                0.68493366               15.42675466                0.22643082
               6.74331407                6.99205335               23.95388529                0.00010000               -2.24462550                0.78410204               -0.21570605                0.31862872               15.45241684                0.48398204
               7.72037667                6.89110252               23.98405651                0.00010000               -2.26898399                0.67959146               -0.16381349               -0.05241161               15.52928711                0.94139371
               8.69793439                6.79058786               24.01553923                0.00010000               -2.15572384                0.39783610               -0.14518959               -0.25691901               15.71326581                1.56997792
               9.67726219                6.69276942               24.04912210                0.27330581               -0.99103104               -0.00806477               -0.15149606               -0.21753319                7.97001083                2.34114665
              10.67811377                6.59961387               23.92526716                0.68940356                0.15592470                0.15504843               -0.56805257                0.00137824                0.07069633                0.85591251
              11.68038069                6.50673649               23.80058432                1.00000000                0.22669159                0.33898340               -0.98568253               -0.01237014                0.03743692               -0.58813199
               1.90868581                8.52354447               24.12726120                1.00000000               -0.04118632               -0.09810670                0.30481021               -0.02252000                0.01059219                0.85139475
               2.90827395                8.41168460               23.99527116                0.56371111                0.00554495                0.00922681               -0.02499075               -0.00057682                0.05937964               -0.64104402
               3.90879671                8.29945648               23.86420055                0.06028783               -0.72758249                0.11850193               -0.35801547                0.57407375                7.27685284               -2.18243030
               4.89372230                8.19819780               23.87655700                0.00010000               -1.86252215                0.69446337               -0.46133983                0.88753345               15.82381441                0.04670423
               5.87154627                8.10063904               23.91654057                0.00010000               -2.36493741                0.96152305               -0.31303318                0.66226294               17.20217706                0.23239402
               6.84642355                8.00115269               23.95691841                0.00010000               -2.58604679                1.02028667               -0.19959672                0.18344719               17.30770483                0.43073878
               7.81982533                7.89898868               23.99921128                0.00010000               -2.63724398                0.94657329               -0.11553482               -0.33045824               17.55975279                0.76327379
               8.79367867                7.79513916               24.04469528                0.01170577               -2.50971977                0.57642761               -0.05846597               -0.80461086               17.92786999                1.29573976
               9.76963094                7.69255107               24.09422792                0.30168021               -1.17316261               -0.02847623               -0.02563027               -0.56439315                9.10178423                2.10083610
              10.77021542                7.60099330               23.96289922                0.69002573                0.12966445                0.12408526               -0.46331615               -0.01148943                0.04270338                0.77323829
              11.77222423                7.50996219               23.83095640                1.00000000                0.20088068                0.30460563               -0.90336648               -0.00893657                0.02162774               -0.67281487
               2.01979359                9.52277766               24.09495412                1.00000000               -0.00117026               -0.05698987                0.17300811               -0.02193432               -0.00870713                0.73081534
               3.01978189                9.41199438               23.95539898                0.58813225                0.04715554                0.05234997               -0.16607464                0.00062046                0.07573901               -0.55012583
               4.02073670                9.30084476               23.81747590                0.02575053               -0.92469525                0.15810246               -0.50507326                0.83957095                9.14853763               -1.50754251
               5.00128798                9.20600045               23.85936865                0.00010000               -2.25885764                1.03975830               -0.43583766                0.89768383               18.48912995                0.11353519
               5.97555955                9.11151782               23.90844685                0.00010000               -2.63273043                1.13908238               -0.31143358                0.50991757               18.89181432                0.13337956
               6.94863337                9.01245908               23.95858304                0.00010000               -2.78892562                1.17709480               -0.18959568                0.09910126               19.08719623                0.24694636
               7.91978103                8.91003398               24.01173627                0.00010000               -3.01767949                1.16713482               -0.07751027               -0.37454332               19.49171278                0.43042498
               8.88827978                8.80211642               24.07018708                0.03331014               -2.98304227                1.04669212                0.02555748               -1.01668111               20.11186381                0.76588160
               9.86012019                8.69219989               24.13604194                0.33194632               -1.39034579               -0.02354854                0.07951041               -1.00473834               10.37655308                1.39468150
              10.86047287                8.60209558               23.99978723                0.71603657                0.10719991                0.10089357               -0.37145317               -0.02746552                0.12690868                0.61979899
              11.86226419                8.51282860               23.86033742                0.98258978                0.17913202                0.26995184               -0.83280047               -0.00835996               -0.02137379               -0.62624579
               2.12981368               10.52240467               24.06016822                1.00000000                0.04055752               -0.03729916                0.04161311                0.03470281                0.40085311                0.61077756
               3.13021926               10.41273160               23.91731977                0.83047853                0.08841900                0.07372196               -0.30232443                0.05443033                0.77300820               -0.45864517
               4.13158206               10.30261853               23.78185726                0.51273764               -1.46081703                0.17737685               -0.63492884                1.39760479               10.95741648               -0.95244241
               5.10100292               10.21899297               23.84268888                0.36569392               -2.81480411                1.29925188               -0.47485114                1.01160170               20.57347153                0.13590591
               6.07528598               10.12342069               23.89909566                0.35649084               -2.55567544                1.19028691               -0.34092437                0.25772470               20.47089171                0.07220782
               7.04988941               10.02469459               23.95787136                0.37382040               -2.63044244                1.22355032               -0.19861137                0.07113837               20.75628802                0.13635234
               8.02267713                9.92233138               24.02010830                0.41588875               -2.93551354                1.22973942               -0.06062806               -0.14146921               21.23224259                0.23814410
               8.99117914                9.81607300               24.08867401                0.52653996               -3.65600619                1.39565872                0.08094585               -1.22262807               21.99271288                0.43946509
               9.94955701                9.69208010               24.16679212                0.68374032               -2.10708695               -0.01197913                0.14170454               -1.70940939               11.87920006                0.85976837
              10.94903740                9.60301117               24.03414807                0.88184866                0.05169855                0.09155965               -0.29601434                0.02050953                0.85202482                0.50787406
              11.95059098                9.51536122               23.89143141                0.98671385                0.15535802                0.25326228               -0.76727057                0.06768434                0.36174313               -0.52978423
               1.05623273                0.58574560               25.37518837                1.00000000               -0.34653084               -0.37540696                1.30930070               -0.06517687               -0.83561297                0.86528688
               2.05276742                0.45858905               25.29155779                1.00000000               -0.29116519               -0.29709520                1.05041274               -0.05114377               -1.07211161                0.07537172
               3.05040943                0.33116885               25.20317503                1.00000000               -0.16498648               -0.21887593                0.77810631               -0.04134690               -1.02717513               -0.21038117
               4.04946769                0.20455647               25.12046695                0.62669718                0.27269967               -0.17196481                0.51550200                0.41684880               -0.11976971               -0.70415396
               5.05586342                0.08860132               25.05031179                0.71564863                0.41969665               -0.05636922                0.22316395               -0.08102693                0.31324378                0.20070672
               6.05786162               -0.01922186               24.97684522                0.79853594                0.14926365                0.02674357               -0.05171291               -0.00833275               -0.03413153                0.11446525
               7.05884869               -0.12539766               24.89982492                0.77496246                0.09407825                0.09971924               -0.32465334                0.00530911               -0.23981276               -0.06889240
               8.05974319               -0.23162885               24.82216996                0.86962938                0.11493589                0.18660595               -0.60837395                0.01524724               -0.49196864                0.09219290
               9.06114741               -0.33965936               24.73987895                1.00000000                0.20681085                0.27487576               -0.89165304                0.00373947               -0.82909210                0.49192251
              10.06387941               -0.44909129               24.65529226                1.00000000                0.32673508                0.34576876               -1.16870870               -0.03955089               -0.85692723                0.00675388
              11.06768211               -0.55874593               24.57240974                1.00000000                0.38027050                0.42626845               -1.43341304               -0.05221209               -0.77382055               -0.77965007
               1.18273751                1.58199153               25.34175941                1.00000000               -0.31931473               -0.35696228                1.18568896               -0.02469579               -0.11536756                1.17655055
               2.17954436                1.45561810               25.25777717                1.00000000               -0.28626270               -0.27628793                0.92819015               -0.00726612               -0.09830778                0.10536576
               3.17701225                1.32898009               25.17409629                0.85418016               -0.23122065               -0.19612405                0.66244105                0.01483762                0.10197587               -0.57543765
               4.17491994                1.20283682               25.09408193                0.19188171               -0.50349692               -0.15869061                0.39187355                0.59139388                1.64140868               -1.10685551
               5.16694231                1.08803763               25.04111165                0.35586341               -0.50710797                0.06282882                0.14692500               -0.10898998                2.37823877                0.99493801
               6.16477779                0.98104558               24.97520148                0.45626182               -0.09185163                0.08596466               -0.10744822                0.12460371                1.51153987                0.41333260
               7.16510528                0.87559954               24.90475806                0.34948574                0.11243648                0.07864016               -0.36225855                0.17613019                1.41799116               -0.36373887
               8.16702652                0.77023721               24.83700804                0.48888285                0.24053723                0.18653647               -0.61177334                0.17904945                1.41972424                0.60430115
               9.16991602                0.66308939               24.76677543                1.00000000                0.30003320                0.26516468               -0.86178484                0.08039477                0.72324630                0.72122771
              10.17302718                0.55436639               24.68525782                1.00000000                0.34492992                0.33823509               -1.12507286                0.00301871                0.09099606                0.10006720
              11.17681462                0.44551676               24.60241806                1.00000000                0.37874438                0.41974511               -1.38873623               -0.01041795                0.02314671               -0.92411753
               1.30848567                2.57860635               25.31452268                1.00000000               -0.28521300               -0.32609511                1.07303256               -0.01718611                0.04236619                1.49479834
               2.30563354                2.45306330               25.22456223                1.00000000               -0.24991019               -0.24050892                0.80928153                0.00743388                0.19889927                0.07962959
               3.30348746                2.32724637               25.13768149                0.50260576               -0.16977523               -0.16214163                0.55470530                0.03588950                0.79476438               -1.33739182
               4.30223803                2.20138265               25.05960940                0.00010000               -1.40063007               -0.14171755                0.27336818                0.82747756                4.54972112               -2.01210914
               5.27547486                2.08985790               25.04780336                0.00010000               -1.47231207                0.13409985                0.06873395                1.53696341                5.14995242               -1.25694384
               6.27279179                1.98249743               24.97954658                0.00010000               -0.11475979               -0.07273544               -0.15486671                1.28618905                1.95153654               -0.34525693
               7.27317967                1.87617515               24.90381464                0.00010000                0.15212643               -0.13882093               -0.38280584                1.05235030                3.27314264                0.44412085
               8.27583432                1.77210188               24.86212442                0.00010000                0.27232256               -0.09983341               -0.62271405                0.70195533                3.83444744                0.98911938
               9.27862612                1.66564393               24.79832150                0.50263904                0.28390486                0.25646331               -0.81994695                0.12473214                1.85013704                1.44599996
              10.28151242                1.55767341               24.71714089                1.00000000                0.32734530                0.32307538               -1.07537607                0.01338686                0.66252802                0.64062524
              11.28517302                1.44964898               24.62958090                1.00000000                0.36606062                0.41225578               -1.35320314               -0.00774078                0.34279976               -0.93961584
               1.43347990                3.57546963               25.28744078                1.00000000               -0.24268779               -0.30248092                0.95836411               -0.01394737                0.07214959                1.43973101
               2.43105302                3.45080792               25.19023643                1.00000000               -0.20346067               -0.20944874                0.68765221                0.00762776                0.08924487               -0.03739553
               3.42941068                3.32573726               25.09331837                0.30326179               -0.10975252               -0.12318493                0.42179997               -0.00311298                1.03663046               -1.63063417
               4.42885797                3.20000247               25.01504463                0.00010000               -0.64219412               -0.09828446                0.15121276                0.83756891                4.81542542               -2.69873136
               5.41656680                3.09071962               24.99366163                0.00010000               -1.23368265                0.02970974               -0.00360607                2.21237677                7.20424457               -3.10561515
               6.40418432                2.97959087               24.96279565                0.00010000               -1.00094789               -0.08223214               -0.16849325                1.81622178                6.39615896               -1.05966375
               7.39654784                2.87282312               24.92469632                0.00010000               -0.62937394               -0.16162303               -0.34447098                1.49784667                5.94734926                1.06249282
               8.39159684                2.76824054               24.88464254                0.00010000               -0.48543543               -0.17956434               -0.53135875                1.14972565                5.61711439                1.32175546
               9.38683913                2.66821866               24.83972994                0.24593322               -0.11534833                0.18530281               -0.74250230                0.37822763                3.54339372                2.71379271
              10.38928987                2.56082790               24.75795462                1.00000000                0.29347680                0.29662858               -0.99815284               -0.00744512                0.85832253                1.02914397
              11.39270867                2.45376187               24.65926491                1.00000000                0.34188001                0.41216393               -1.31138399               -0.01193426                0.01438908               -0.65526239
               1.55753013                4.57255673               25.25909538                1.00000000               -0.20116646               -0.27460596                0.83467489               -0.02009926                0.09980577                1.28711197
               2.55551846                4.44887432               25.15464683                0.89608238               -0.16497321               -0.17074129                0.55738550                0.00036169                0.14071481               -0.18864508
               3.55423066                4.32478267               25.05096094                0.18410097               -0.07557083               -0.06875738                0.29107738               -0.04418963                1.15458971               -1.55282876
               4.55400704                4.19941696               24.96677573                0.00010000               -0.70483323                0.05640530                0.00747072                0.64536536                6.18887504               -2.48613822
               5.54013400                4.09045209               24.96371643                0.00010000               -1.34971551                0.08173565               -0.09544989                1.24586672                9.86228429               -1.44654124
               6.52701273                3.98085279               24.95281265                0.00010000               -1.28235341                0.18683370               -0.19101356                1.11097089                9.19018659               -0.43736401
               7.51448693                3.87294269               24.93609648                0.00010000               -1.17897226                0.13100840               -0.30790698                0.95457242                8.76124761                0.70254899
               8.50343329                3.76851059               24.91623583                0.00010000               -1.04418114                0.10566375               -0.44973930                0.88049294                8.64449388                1.84274419
               9.49360331                3.66934999               24.89673864                0.22130687               -0.38064940                0.08234349               -0.62553875                0.36886402                4.71766690                3.25149187
              10.49582030                3.56360598               24.79770713                0.85308605                0.27315433                0.25783492               -0.93230860                0.00216293                0.42185158                1.04792175
              11.49906639                3.45789225               24.69205155                1.00000000                0.32460914                0.41288171               -1.25524857               -0.02039479                0.09465197               -0.46515809
               1.68044274                5.56997751               25.22895243                1.00000000               -0.16084214               -0.23516550                0.70195872               -0.02475137                0.12491410                1.11058170
               2.67883432                5.44739310               25.11725392                0.72540949               -0.12292452               -0.12361822                0.40848172               -0.00639431                0.25449446               -0.40425881
               3.67798425                5.32436211               25.00808877                0.12525335               -0.13692307               -0.01405728                0.12964199                0.00553937                1.75550063               -1.78537700
               4.67609586                5.20113057               24.92640120                0.00010000               -0.89679694                0.29884701               -0.23225598                0.42023396                8.05084698               -1.15418021
               5.66004831                5.09235434               24.94278879                0.00010000               -1.60913584                0.30425725               -0.19686004                0.94137369               12.42474755               -0.62305441
               6.64391314                4.98332754               24.94869248                0.00010000               -1.60334082                0.34390571               -0.21316908                0.69279148               11.67310529                0.06783792
               7.62798149                4.87544329               24.94995149                0.00010000               -1.55568720                0.32312848               -0.27054063                0.54863362               11.36693900                0.91401354
               8.61279940                4.77035381               24.94936490                0.00010000               -1.44302344                0.22025930               -0.35991022                0.53773412               11.33804057                1.88356588
               9.59912102                4.66986553               24.94942509                0.22797531               -0.60042669                0.03781353               -0.47864771                0.23442709                5.88743462                2.87070282
              10.60079086                4.56598460               24.83895858                0.75692173                0.23036001                0.22101683               -0.81765259                0.01389513                0.22338061                1.09116274
              11.60372822                4.46201951               24.72547345                1.00000000                0.29373632                0.40358704               -1.18013062               -0.02108162                0.07785308               -0.44736412
               1.80220392                6.56785342               25.19705771                1.00000000               -0.11979453               -0.18804869                0.56403114               -0.02464250                0.06717106                0.96119952
               2.80100597                6.44640196               25.07729826                0.61873591               -0.07999713               -0.07615135                0.25845585               -0.00616961                0.24314777               -0.58229781
               3.80060397                6.32450152               24.96099992                0.09407669               -0.32932376                0.03759553               -0.03508643                0.15664636                3.42904690               -2.12102811
               4.79441950                6.20539390               24.90495719                0.00010000               -1.19197361                0.47826893               -0.44503533                0.35769781               10.49190633                0.08425248
               5.77676450                6.09653724               24.92935022                0.00010000               -1.83199401                0.51956268               -0.27331921                0.69109860               14.25413722               -0.00753090
               6.75777962                5.98773090               24.94894185                0.00010000               -1.91655866                0.54644779               -0.22420161                0.42512924               13.88069542                0.40532387
               7.73843333                5.87940526               24.96581590                0.00010000               -1.90069453                0.47883428               -0.22816933                0.19654903               13.73512811                1.03474558
               8.71976573                5.77291577               24.98209091                0.00010000               -1.78861345                0.29309210               -0.26610028                0.12135096               13.78759137                1.80316450
               9.70266106                5.67010626               24.99932066                0.24623342               -0.79107499                0.01199215               -0.32842756                0.00880272                7.03727257                2.62413911
              10.70394423                5.56802632               24.87967430                0.70107169                0.19569414                0.18826224               -0.70691540                0.01249394                0.12868976                1.01247118
              11.70657494                5.46596400               24.75845182                1.00000000                0.26307171                0.38030908               -1.09158446               -0.01606086                0.05669009               -0.50009730
               1.92285282                7.56621653               25.16389822                1.00000000               -0.07899995               -0.14026294                0.42683041               -0.02344776                0.02793541                0.87533879
               2.92206282                7.44587007               25.03627936                0.56540215               -0.03637981               -0.03142263                0.11209605               -0.00316449                0.16343471               -0.64563049
               3.92212523                7.32511402               24.91131134                0.07598867               -0.54243618                0.08157919               -0.19891420                0.33958769                5.46088480               -2.29572549
               4.91121410                7.21069595               24.88964224                0.00010000               -1.52959733                0.56728543               -0.46162196                0.53300402               13.27923028                0.27165145
               5.89153328                7.10274559               24.92080002                0.00010000               -2.08331984                0.72493620               -0.30270794                0.59698722               15.89380828                0.29091009
               6.86954770                6.99425650               24.95171091                0.00010000               -2.24028391                0.77859243               -0.21906182                0.22663185               15.87408220                0.54295961
               7.84672760                6.88501997               24.98233077                0.00010000               -2.25111462                0.67187090               -0.18192215               -0.14751231               15.93112970                1.01073695
               8.82452541                6.77621565               25.01393966                0.00010000               -2.12705331                0.38990540               -0.17550316               -0.35651997               16.10746828                1.65425317
               9.80418654                6.67010537               25.04740708                0.27077640               -0.96712051               -0.00932664               -0.19198986               -0.26901998                8.17052359                2.43889220
              10.80518300                6.56974984               24.91943122                0.67379262                0.16725556                0.15754138               -0.59897302                0.00294375                0.07157700                0.90838485
              11.80753165                6.46962569               24.79062257                1.00000000                0.23486465                0.34967105               -1.00591412               -0.01171869                0.03811692               -0.58003918
               2.04242789                8.56504817               25.13024612                1.00000000               -0.03826924               -0.09506851                0.29194706               -0.02247180                0.01008352                0.85458116
               3.04204519                8.44577350               24.99499101                0.56044857                0.00709806                0.01185822               -0.03139382               -0.00035942                0.05742703               -0.65576265
               4.04256985                8.32613311               24.86062238                0.06037336               -0.72985940                0.12107510               -0.35793317                0.53857590                7.39656674               -2.21661782
               5.02744801                8.21673961               24.87214530                0.00010000               -1.87130736                0.69110468               -0.41481091                0.80700290               16.17689695                0.17857181
               6.00514370                8.11103596               24.91346771                0.00010000               -2.37050665                0.95548679               -0.29988812                0.58850403               17.66928551                0.30237339
               6.98003787                8.00330275               24.95489142                0.00010000               -2.58098882                1.01688035               -0.20574226                0.10523014               17.76944703                0.48224182
               7.95352392                7.89284267               24.99795810                0.00010000               -2.62439753                0.94426796               -0.13548823               -0.41612187               18.01709300                0.81965200
               8.92754992                7.78071388               25.04394599                0.01324511               -2.48887272                0.57392883               -0.09201547               -0.89980390               18.38084076                1.37141674
               9.90374647                7.66991972               25.09373520                0.29969133               -1.15335695               -0.02092774               -0.07377782               -0.61634302                9.33208186                2.17863028
              10.90448278                7.57117714               24.95807920                0.67366164                0.14212041                0.13156026               -0.50106463               -0.01176924                0.04388337                0.81339805
              11.90658888                7.47295742               24.82179353                1.00000000                0.21060941                0.31510247               -0.92894045               -0.00767268                0.02221349               -0.67528443
               2.16095271                9.56431516               25.09661878                1.00000000                0.00179818               -0.05330799                0.15959613               -0.02192227               -0.00949591                0.73550496
               3.16097069                9.44610724               24.95370896                0.58559955                0.04889629                0.05454951               -0.17239402                0.00080603                0.07528804               -0.56085790
               4.16193064                9.32753552               24.81243296                0.02443957               -0.92596927                0.15879130               -0.50384160                0.80251735                9.35583275               -1.52614426
               5.14245131                9.22451804               24.85512225                0.00010000               -2.25952077                1.03413990               -0.41073474                0.84437140               18.93441394                0.18933619
               6.11674022                9.12185533               24.90535364                0.00010000               -2.63028572                1.13453953               -0.30645906                0.46721485               19.37703990                0.17446168
               7.08984559                9.01459410               24.95663646                0.00010000               -2.78730931                1.17814077               -0.19987480                0.05342150               19.59060553                0.27596479
               8.06099404                8.90390533               25.01085420                0.00010000               -3.01966555                1.17355171               -0.09899370               -0.43073515               20.00898036                0.46194607
               9.02945228                8.78769423               25.07029311                0.03657297               -2.97988101                1.05635781               -0.00333943               -1.08510486               20.61696355                0.82056928
              10.00139642                8.66968682               25.13655796                0.33049151               -1.37711788               -0.00829243                0.02231985               -1.05125897               10.62952206                1.44088447
              11.00190993                8.57238105               24.99584808                0.69692428                0.12106167                0.11335551               -0.41726538               -0.02870965                0.13293558                0.64507421
              12.00381765                8.47592774               24.85185105                0.98273304                0.19077242                0.28056506               -0.86461505               -0.00692484               -0.01958898               -0.63762294
               2.27840530               10.56398201               25.06051770                1.00000000                0.04356579               -0.03331577                0.02788135                0.03350745                0.40372758                0.61587825
               3.27884096               10.44686449               24.91426726                0.82983002                0.09020442                0.07572587               -0.30876513                0.05337267                0.78185207               -0.46664656
               4.28020939               10.32930893               24.77551649                0.51186270               -1.44126624                0.17734116               -0.63360171                1.35577069               11.21736738               -0.96225937
               5.25001563               10.23742241               24.83796546                0.36606469               -2.78987236                1.29043662               -0.46981437                0.97732306               21.09484453                0.16852677
               6.22441194               10.13372675               24.89567730                0.35668100               -2.54796651                1.18714234               -0.34266549                0.23932956               21.00167796                0.08882782
               7.19905630               10.02686557               24.95581205                0.37362777               -2.63014227                1.22714647               -0.21374546                0.05041857               21.30842523                0.14686350
               8.17180909                9.91631371               25.01937812                0.41520156               -2.94949818                1.24083777               -0.08554239               -0.16972067               21.80572175                0.25051555
               9.14006634                9.80184104               25.08934236                0.52892092               -3.68873109                1.41468077                0.05494641               -1.26658612               22.53810049                0.47007632
              10.09803447                9.66975388               25.16789177                0.68354610               -2.11993334                0.00670573                0.07640559               -1.75603363               12.16129377                0.88545063
              11.09766767                9.57344425               25.03092525                0.87113479                0.06612653                0.10632040               -0.34985896                0.01651662                0.88197988                0.52557496
              12.09935700                9.47856872               24.88356819                0.98658272                0.16893322                0.26409782               -0.80579045                0.06638171                0.37631465               -0.54369468
               1.13272448                0.62851544               26.38825034                1.00000000               -0.34561903               -0.37384813                1.30343381               -0.06450036               -0.85065823                0.87895315
               2.12926829                0.49375692               26.30203711                1.00000000               -0.29148603               -0.29543127                1.04583963               -0.05017001               -1.09408654                0.07995716
               3.12689476                0.35872024               26.21094036                1.00000000               -0.16798428               -0.21713352                0.77538185               -0.04160871               -1.05163047               -0.21046909
               4.12590861                0.22441405               26.12561296                0.62723530                0.25486544               -0.17020162                0.51412854                0.39476123               -0.15508653               -0.72415740
               5.13199207                0.10023673               26.05254410                0.71555809                0.40152432               -0.05690606                0.22409848               -0.08015215                0.26735156                0.21025937
               6.13393909               -0.01612383               25.97633675                0.79778552                0.14842592                0.02610325               -0.04963290               -0.01064499               -0.07272791                0.12079414
               7.13496059               -0.13084068               25.89659249                0.77429851                0.10160159                0.09879493               -0.32220429                0.00374389               -0.28333559               -0.07065640
               8.13597112               -0.24550027               25.81610984                0.86871293                0.12567818                0.18497386               -0.60462524                0.01096634               -0.53973486                0.09720002
               9.13747415               -0.36172358               25.73099731                1.00000000                0.21284678                0.27195490               -0.88590081                0.00069420               -0.87240042                0.50414594
              10.14022806               -0.47920597               25.64365326                1.00000000                0.32698880                0.34350775               -1.16042450               -0.03854735               -0.89021286                0.00682050
              11.14401393               -0.59689504               25.55813184                1.00000000                0.37858683                0.42441996               -1.42355841               -0.05027154               -0.80037631               -0.80342689
               1.26683800                1.62477696               26.35358280                1.00000000               -0.31738066               -0.35581007                1.17912954               -0.02386277               -0.11852508                1.19539266
               2.26366419                1.49080261               26.26703187                1.00000000               -0.28439434               -0.27472108                0.92295738               -0.00631240               -0.10571364                0.11154618
               3.26115011                1.35654891               26.18069951                0.86242478               -0.22831076               -0.19408842                0.65830105                0.01266476                0.08788089               -0.57137060
               4.25909798                1.22271203               26.09798551                0.19821685               -0.48453133               -0.15591282                0.38856478                0.56065175                1.63760825               -1.12434227
               5.25145948                1.09966766               26.04256470                0.36117479               -0.48633144                0.06022586                0.14413762               -0.10653183                2.38739862                1.00308513
               6.24937135                0.98413721               25.97411976                0.46202267               -0.08866186                0.08396778               -0.10862711                0.11391077                1.51778517                0.42377190
               7.24968625                0.87014726               25.90113629                0.35687158                0.10754448                0.08321769               -0.36234173                0.16561208                1.42704407               -0.35682017
               8.25152224                0.75634947               25.83089571                0.49387546                0.23238495                0.18638571               -0.61134231                0.16250923                1.43162095                0.60549232
               9.25433395                0.64099597               25.75817284                1.00000000                0.29530385                0.26335853               -0.85942744                0.07333002                0.72888800                0.73948798
              10.25742831                0.52422911               25.67402979                1.00000000                0.34331677                0.33624194               -1.12129238                0.00372173                0.09018243                0.10396078
              11.26120028                0.40734916               25.58856235                1.00000000                0.37719675                0.41926385               -1.38318263               -0.00858800                0.02258530               -0.95131075
               1.40019593                2.62139924               26.32521456                1.00000000               -0.28258315               -0.32561152                1.06529584               -0.01640336                0.04368178                1.51773799
               2.39737010                2.48826250               26.23262604                1.00000000               -0.24786474               -0.23893445                0.80356622                0.00800817                0.20480594                0.08609841
               3.39523863                2.35483847               26.14320622                0.51501389               -0.16836075               -0.15890549                0.55053494                0.03169165                0.79131347               -1.34109197
               4.39400288                2.22129579               26.06231795                0.00010000               -1.34011884               -0.13798978                0.26817370                0.78611912                4.57079217               -2.02743299
               5.36843626                2.10144124               26.04845783                0.00010000               -1.41325873                0.12310398                0.06310537                1.44749743                5.22099659               -1.24556933
               6.36573771                1.98555553               25.97797809                0.00010000               -0.11878466               -0.07292131               -0.15818771                1.20521351                2.01330240               -0.31381368
               7.36606056                1.87082367               25.89997360                0.00010000                0.13174502               -0.13251806               -0.38538580                0.97927341                3.32629060                0.48780826
               8.36837261                1.75822745               25.85587649                0.00010000                0.25002771               -0.09435518               -0.62801900                0.64918031                3.90431343                1.03840529
               9.37106112                1.64354359               25.79010824                0.50504447                0.27883457                0.25341703               -0.82300801                0.10728919                1.91189892                1.48793847
              10.37394930                1.52751887               25.70638641                1.00000000                0.32704719                0.31965606               -1.07557695                0.00964332                0.68426076                0.66174009
              11.37760206                1.41149024               25.61606204                1.00000000                0.36527625                0.41418737               -1.35060812               -0.00743758                0.35327644               -0.96734221
               1.53278341                3.61826473               26.29698115                1.00000000               -0.23982888               -0.30219029                0.94956420               -0.01368223                0.07686449                1.45688525
               2.53038512                3.48602392               26.19708316                1.00000000               -0.20163787               -0.20751589                0.68167853                0.00782267                0.09672038               -0.03663979
               3.52875065                3.35337080               26.09752374                0.31237498               -0.10837664               -0.11937513                0.41944128               -0.00854999                1.04377965               -1.64529085
               4.52821759                3.21995224               26.01655174                0.00010000               -0.63004798               -0.09427851                0.15098741                0.78463171                4.87667458               -2.72399908
               5.51614969                3.10212974               25.99361043                0.00010000               -1.20621991                0.02057755               -0.00632273                2.07462203                7.32537028               -3.10039750
               6.50409319                2.98267878               25.96108429                0.00010000               -0.97749482               -0.08561529               -0.17370757                1.69357951                6.51607551               -1.01344979
               7.49659980                2.86749690               25.92121176                0.00010000               -0.61536326               -0.16480368               -0.35279397                1.38437673                6.06361649                1.13729309
               8.49178593                2.75446237               25.87927965                0.00010000               -0.47057435               -0.17999874               -0.54162049                1.06937893                5.72331152                1.41910446
               9.48718831                2.64606431               25.83226258                0.24349634               -0.10556977                0.16870246               -0.75059716                0.34187769                3.62356009                2.79201564
              10.48967453                2.53062223               25.74794620                1.00000000                0.29602409                0.29228576               -1.00244418               -0.01509643                0.88742855                1.05730160
              11.49310879                2.41563291               25.64614322                1.00000000                0.34342620                0.41496750               -1.31191844               -0.01093736                0.01423092               -0.67324214
               1.66440390                4.61535543               26.26739351                1.00000000               -0.19834198               -0.27396775                0.82479728               -0.02020106                0.10792509                1.29507072
               2.66242048                4.48411218               26.16018934                0.88718391               -0.16322929               -0.16823617                0.55103834               -0.00013052                0.15452090               -0.20151673
               3.66113932                4.35245097               26.05385969                0.18891433               -0.07419580               -0.06486296                0.28867933               -0.05055368                1.16604820               -1.58188426
               4.66093657                4.21941022               25.96687306                0.00010000               -0.69685830                0.05509555                0.01188637                0.59466700                6.27907031               -2.56412301
               5.64720215                4.10185279               25.96276993                0.00010000               -1.33472149                0.08041968               -0.09400549                1.14749952               10.05192654               -1.45341729
               6.63424214                3.98384322               25.95087756                0.00010000               -1.26188211                0.17829550               -0.19630069                1.01154965                9.38240268               -0.39569485
               7.62196451                3.86752760               25.93296173                0.00010000               -1.15246770                0.11994807               -0.31950917                0.85802673                8.94225918                0.77695532
               8.61119278                3.75462747               25.91165887                0.00010000               -1.01128485                0.09162644               -0.46594735                0.78924552                8.80826121                1.93742091
               9.60173881                3.64691764               25.89038497                0.21762231               -0.35570077                0.05466395               -0.64448944                0.32804889                4.81318654                3.36048222
              10.60407877                3.53336458               25.78831583                0.83330328                0.28115715                0.25290277               -0.94426485                0.00081931                0.44652556                1.09381957
              11.60736196                3.41978959               25.67946329                1.00000000                0.32831871                0.41804536               -1.26063224               -0.02249953                0.11054099               -0.46758553
               1.79486589                5.61278537               26.23591813                1.00000000               -0.15789179               -0.23399586                0.69106135               -0.02489681                0.12640788                1.11137316
               2.79328697                5.48265920               26.12130407                0.71766945               -0.12121758               -0.12050815                0.40138353               -0.00711053                0.26353119               -0.42668655
               3.79244154                5.35207354               26.00937270                0.12834522               -0.12889347               -0.00914399                0.12687345               -0.00776976                1.73617067               -1.83076833
               4.79070911                5.22105415               25.92420213                0.00010000               -0.88874306                0.28827338               -0.20852406                0.36951401                8.17959094               -1.25841078
               5.77466668                5.10373814               25.94086607                0.00010000               -1.60298621                0.30117984               -0.18788216                0.84381183               12.72847016               -0.62123919
               6.75864938                4.98624469               25.94654286                0.00010000               -1.58452987                0.33577394               -0.21715253                0.59649771               11.94540885                0.11362220
               7.74297608                4.86989587               25.94717750                0.00010000               -1.52342932                0.30924438               -0.28481646                0.45236423               11.61845729                0.98852419
               8.72818079                4.75629490               25.94565696                0.00010000               -1.39819524                0.20217495               -0.38209190                0.43999760               11.57436593                1.98110292
               9.71501218                4.64715759               25.94449306                0.22410485               -0.56809151                0.01477639               -0.50768413                0.19081198                6.01812923                2.99278854
              10.71681896                4.53568028               25.83068844                0.73910531                0.23983079                0.21522662               -0.83504779                0.01775108                0.23675347                1.15723357
              11.71980879                4.42399382               25.71361639                1.00000000                0.29898289                0.41209347               -1.18951566               -0.02196416                0.07834808               -0.43426772
               1.92415832                6.61067552               26.20263937                1.00000000               -0.11682130               -0.18636093                0.55218535               -0.02460962                0.06626439                0.95975345
               2.92299011                6.48170202               26.07984837                0.61240248               -0.07846756               -0.07273550                0.25135992               -0.00666921                0.24840637               -0.60302927
               3.92258897                6.35226809               25.96063969                0.09586611               -0.31639318                0.04321087               -0.03732621                0.13276830                3.39298434               -2.16680113
               4.91666225                6.22517569               25.90073786                0.00010000               -1.18505644                0.46509754               -0.39715561                0.28574935               10.67432146                0.08961923
               5.89888784                6.10787639               25.92669987                0.00010000               -1.83239411                0.51249626               -0.25643385                0.58965061               14.66470083                0.02676384
               6.88001437                5.99055870               25.94668706                0.00010000               -1.89631284                0.53591420               -0.22707655                0.32258390               14.22438420                0.46033773
               7.86096159                5.87371248               25.96345330                0.00010000               -1.86416745                0.46395968               -0.24497352                0.09533495               14.05505725                1.10923398
               8.84273102                5.75867097               25.97929621                0.00010000               -1.73959601                0.27614705               -0.29338943                0.01636655               14.09701438                1.89714656
               9.82616967                5.64721316               25.99586117                0.24274978               -0.75667278               -0.00124288               -0.36368001               -0.04164688                7.19802854                2.73807933
              10.82759756                5.53766912               25.87248280                0.68465218                0.20629716                0.18481895               -0.73064941                0.01645742                0.13343325                1.07243870
              11.83029561                5.42803146               25.74746175                1.00000000                0.26980498                0.39000921               -1.10530466               -0.01618870                0.05789212               -0.48284009
               2.05232070                7.60905816               26.16810430                1.00000000               -0.07596783               -0.13799901                0.41422599               -0.02339756                0.02718686                0.87537141
               3.05156102                7.48120449               26.03736625                0.56048083               -0.03487285               -0.02811368                0.10501818               -0.00321388                0.16471674               -0.66284259
               4.05162324                7.35293775               25.90931661                0.07654358               -0.53726120                0.08672052               -0.20040965                0.30681974                5.50095951               -2.33781619
               5.04081579                7.23035610               25.88530305                0.00010000               -1.52732807                0.55567667               -0.40215399                0.44014819               13.54015955                0.39630536
               6.02107668                7.11398806               25.91786965                0.00010000               -2.07754132                0.71282467               -0.28259990                0.49524441               16.32575636                0.35641248
               6.99926497                6.99696298               25.94950406                0.00010000               -2.21530824                0.76566374               -0.22259771                0.12473688               16.27023212                0.60296416
               7.97677051                6.87917506               25.98041807                0.00010000               -2.21287607                0.65729026               -0.20124663               -0.24970523               16.31127577                1.08152015
               8.95500744                6.76181784               26.01202917                0.00010000               -2.07947077                0.37715380               -0.20719657               -0.46274805               16.48119865                1.73892804
               9.93518110                6.64713273               26.04528231                0.26799414               -0.93388123               -0.01201841               -0.23319267               -0.32357403                8.36015174                2.53419459
              10.93632982                6.53937666               25.91328769                0.65793666                0.17896208                0.15876454               -0.62952112                0.00492325                0.07179441                0.96005261
              11.93876034                6.43179400               25.78046604                1.00000000                0.24305178                0.35982769               -1.02485687               -0.01105453                0.03857334               -0.56958369
               2.17939771                8.60791554               26.13310014                1.00000000               -0.03514771               -0.09209853                0.27861374               -0.02244893                0.00959172                0.85694826
               3.17904623                8.48113975               25.99464328                0.55688687                0.00880223                0.01482401               -0.03849450               -0.00002931                0.05558663               -0.67001960
               4.17957376                8.35400250               25.85704189                0.05966213               -0.73156662                0.12450048               -0.35845455                0.49831498                7.53970768               -2.24873578
               5.16441490                8.23628922               25.86826078                0.00010000               -1.86939510                0.68054558               -0.35892668                0.71850826               16.53108811                0.29870206
               6.14218585                8.12213288               25.91054281                0.00010000               -2.35463977                0.94047018               -0.28472963                0.50461105               18.10094875                0.36851640
               7.11732211                8.00587198               25.95280357                0.00010000               -2.55366181                1.00473883               -0.21223613                0.02026813               18.20640352                0.53375822
               8.09111262                7.88685829               25.99650152                0.00010000               -2.59018604                0.93389098               -0.15620863               -0.50622247               18.45147542                0.87854890
               9.06551839                7.76621405               26.04285497                0.01487727               -2.44866277                0.56567996               -0.12656141               -0.99888227               18.80878031                1.45304560
              10.04213936                7.64697280               26.09275236                0.29762821               -1.12418163               -0.01358579               -0.12322345               -0.66975425                9.54771574                2.25216406
              11.04303475                7.54084441               25.95287793                0.65709716                0.15502419                0.13871760               -0.53945597               -0.01180619                0.04393084                0.85182084
              12.04523985                7.43522801               25.81237759                1.00000000                0.22050929                0.32537416               -0.95419227               -0.00633360                0.02260898               -0.67621321
               2.30542330                9.60721619               26.09814604                1.00000000                0.00501680               -0.04955718                0.14552546               -0.02195244               -0.01024760                0.73952599
               3.30547347                9.48150097               25.95195110                0.58261922                0.05083817                0.05711597               -0.17964861                0.00114272                0.07524355               -0.57129237
               4.30644006                9.35542776               25.80739907                0.02246580               -0.92089457                0.16018888               -0.50323220                0.75617516                9.57348452               -1.54308047
               5.28705558                9.24396701               25.85115395                0.00010000               -2.24269603                1.01939351               -0.38256878                0.78469006               19.37540050                0.24477023
               6.26158614                9.13279747               25.90231767                0.00010000               -2.60553255                1.12085240               -0.30114935                0.41889194               19.83626352                0.21172238
               7.23494492                9.01705775               25.95458554                0.00010000               -2.76410747                1.17043476               -0.21091334                0.00451961               20.07225826                0.30488820
               8.20630399                8.89785288               26.00975640                0.00010000               -3.00148161                1.17177759               -0.12058234               -0.48888364               20.50748908                0.49578220
               9.17491529                8.77313144               26.07012029                0.04018767               -2.95741693                1.05809883               -0.02946577               -1.15413747               21.09084772                0.88481678
              10.14715565                8.64686101               26.13648833                0.32925422               -1.35384052                0.00743513               -0.03724769               -1.09598980               10.85865539                1.48247893
              11.14783848                8.54215101               25.99144192                0.67779296                0.13554027                0.12619625               -0.46480686               -0.02968539                0.13765683                0.66812968
              12.14986646                8.43830148               25.84304512                0.98260677                0.20279772                0.29125260               -0.89703744               -0.00537563               -0.01760457               -0.64786682
               2.43038910               10.60692439               26.06072585                1.00000000                0.04684100               -0.02917922                0.01336119                0.03234741                0.40619118                0.62044186
               3.43085751               10.48228207               25.91114447                0.82893077                0.09210584                0.07810984               -0.31643023                0.05249868                0.79072115               -0.47444125
               4.43223122               10.35720628               25.76918522                0.51068491               -1.40592547                0.17785143               -0.63323098                1.29886689               11.47574990               -0.97090077
               5.40273900               10.25667709               25.83329259                0.36641527               -2.73791332                1.27100828               -0.46583471                0.93552526               21.60676187                0.18307124
               6.37747295               10.14454993               25.89224235                0.35686744               -2.51909566                1.17524649               -0.34523196                0.21886004               21.51421150                0.10362312
               7.35235709               10.02928067               25.95359645                0.37343251               -2.61058460                1.22229217               -0.23027328                0.02841181               21.84026480                0.15784923
               8.32526126                9.91029384               26.01839745                0.41449285               -2.94647920                1.24409620               -0.11062495               -0.19950569               22.36479178                0.26497484
               9.29342750                9.78737603               26.08977294                0.53154797               -3.70306341                1.42445870                0.03442820               -1.30739590               23.04894109                0.50966017
              10.25119999                9.64712150               26.16832023                0.68354705               -2.12134643                0.02604871                0.00772974               -1.79595093               12.41137015                0.90688778
              11.25100058                9.54336833               26.02715089                0.86049200                0.08157042                0.12173174               -0.40641199                0.01278756                0.90963719                0.54114437
              12.25283140                9.44105306               25.87531560                0.98640137                0.18308238                0.27515804               -0.84562674                0.06496708                0.39086648               -0.55640832
               1.21164603                0.67265975               27.40125705                1.00000000               -0.34503676               -0.37245919                1.29820016               -0.06382710               -0.86474261                0.89167494
               2.20819567                0.53019866               27.31247458                1.00000000               -0.29225370               -0.29385755                1.04198159               -0.04915797               -1.11471829                0.08459216
               3.20580096                0.38744118               27.21868267                1.00000000               -0.17167203               -0.21543579                0.77349125               -0.04199376               -1.07454398               -0.21034412
               4.20476222                0.24532823               27.13074952                0.62759001                0.23428537               -0.16832505                0.51365677                0.37067550               -0.18839968               -0.74363358
               5.21048667                0.11276530               27.05479376                0.71519493                0.37982272               -0.05797007                0.22687263               -0.07807586                0.22271162                0.21998531
               6.21235868               -0.01237201               26.97585256                0.79684605                0.14611081                0.02516752               -0.04678872               -0.01286279               -0.11200576                0.12745850
               7.21340888               -0.13589839               26.89338083                0.77352270                0.10924953                0.09804143               -0.32040667                0.00190454               -0.32751169               -0.07226497
               8.21454367               -0.25925658               26.81007746                0.86722301                0.13735523                0.18369916               -0.60257899                0.00641625               -0.58675725                0.10137306
               9.21615599               -0.38392750               26.72216093                1.00000000                0.21984757                0.26957264               -0.88235945               -0.00219753               -0.91393780                0.51637531
              10.21894062               -0.50970796               26.63208377                1.00000000                0.32807195                0.34204172               -1.15463118               -0.03732971               -0.92194787                0.00684337
              11.22271743               -0.63567549               26.54393857                1.00000000                0.37768048                0.42358287               -1.41634899               -0.04837376               -0.82598693               -0.82611789
               1.35346885                1.66893516               27.36534200                1.00000000               -0.31554775               -0.35484938                1.17282958               -0.02299155               -0.12168222                1.21309199
               2.35031337                1.52726009               27.27623632                1.00000000               -0.28263061               -0.27323405                0.91807416               -0.00530025               -0.11327283                0.11788637
               3.34781624                1.38528682               27.18726231                0.87107123               -0.22532271               -0.19204417                0.65432661                0.01028798                0.07327857               -0.56620333
               4.34580692                1.24364498               27.10185322                0.20414682               -0.46301041               -0.15302386                0.38475062                0.52694146                1.63351312               -1.14093431
               5.33855603                1.11218560               27.04399441                0.36585956               -0.46225087                0.05677370                0.14264887               -0.10086642                2.39714601                1.01199602
               6.33656190                0.98787967               26.97302894                0.46724007               -0.08429068                0.08143194               -0.10895844                0.10399039                1.52476942                0.43517168
               7.33687021                0.86508202               26.89751122                0.36407822                0.10302436                0.08771197               -0.36291740                0.15494720                1.43619405               -0.34969960
               8.33862239                0.74258041               26.82478120                0.49839218                0.22447419                0.18713093               -0.61228686                0.14642401                1.44367353                0.60419530
               9.34135970                0.61876823               26.74958688                1.00000000                0.29094649                0.26202312               -0.85854115                0.06651204                0.73488195                0.75662213
              10.34444132                0.49371246               26.66283197                1.00000000                0.34207603                0.33498785               -1.11923236                0.00476637                0.08962320                0.10824353
              11.34820122                0.36856034               26.57475441                1.00000000                0.37599024                0.41983748               -1.37948156               -0.00671892                0.02244292               -0.97640461
               1.49453634                2.66556276               27.33582860                1.00000000               -0.27983453               -0.32533857                1.05748673               -0.01566197                0.04477395                1.53951769
               2.49173800                2.52473398               27.24063355                1.00000000               -0.24572593               -0.23741262                0.79795075                0.00844959                0.21028221                0.09298688
               3.48962182                2.38360029               27.14869219                0.52825030               -0.16678631               -0.15544222                0.54678542                0.02676129                0.78571926               -1.34209039
               4.48840227                2.24226776               27.06497287                0.00010000               -1.26935853               -0.13388042                0.26260159                0.73991687                4.58916764               -2.03758081
               5.46423465                2.11390078               27.04906546                0.00010000               -1.34301013                0.11069838                0.06053549                1.34872532                5.29114667               -1.23199354
               6.46154207                1.98925663               26.97638282                0.00010000               -0.12137846               -0.07286306               -0.15984104                1.11488367                2.07543933               -0.28152066
               7.46180708                1.86585585               26.89610693                0.00010000                0.11219391               -0.12505865               -0.38840414                0.89920009                3.37735561                0.53017055
               8.46378595                1.74448604               26.84956404                0.00010000                0.22735459               -0.08700844               -0.63618304                0.59234868                3.97206011                1.08506121
               9.46635418                1.62131296               26.78186134                0.50657200                0.27289425                0.25070088               -0.82704234                0.08949265                1.97415781                1.52808451
              10.46924383                1.49699180               26.69562935                1.00000000                0.32665551                0.31660263               -1.07635411                0.00623928                0.70656710                0.68430585
              11.47288729                1.37272126               26.60256873                1.00000000                0.36434543                0.41677201               -1.34862723               -0.00715181                0.36422997               -0.99099116
               1.63481317                3.66242839               27.30643206                1.00000000               -0.23683399               -0.30207982                0.94057524               -0.01362369                0.08144423                1.47312645
               2.63244483                3.52251183               27.20387000                1.00000000               -0.19977405               -0.20554563                0.67562834                0.00771469                0.10445052               -0.03537384
               3.63081769                3.38217798               27.10170720                0.32116612               -0.10700292               -0.11521345                0.41729017               -0.01491931                1.05122213               -1.65761010
               4.63030477                3.24096737               27.01806438                0.00010000               -0.61380145               -0.08918192                0.15181289                0.72487655                4.93518003               -2.74179961
               5.61854166                3.11439957               26.99353518                0.00010000               -1.17001337                0.01136631               -0.00857284                1.91942061                7.44133965               -3.09050627
               6.60690450                2.98642241               26.95932150                0.00010000               -0.94584245               -0.08881516               -0.17889826                1.55541001                6.63018857               -0.96652001
               7.59962481                2.86258085               26.91764044                0.00010000               -0.59461289               -0.16699008               -0.36196398                1.25807740                6.17413903                1.21029114
               8.59501225                2.74084024               26.87381013                0.00010000               -0.44905119               -0.18021667               -0.55311406                0.97953590                5.82660900                1.51480474
               9.59064379                2.62378224               26.82471800                0.24060906               -0.09272230                0.15080925               -0.75874675                0.30300906                3.70381510                2.86605984
              10.59315780                2.50004451               26.73790574                1.00000000                0.29777360                0.28741659               -1.00418035               -0.02288992                0.91701395                1.08570296
              11.59659926                2.37689578               26.63302654                1.00000000                0.34414584                0.41730540               -1.30991465               -0.01012310                0.01357464               -0.68711110
               1.77409697                4.65952117               27.27559133                1.00000000               -0.19542705               -0.27346396                0.81474460               -0.02051755                0.11604021                1.30219708
               2.77214270                4.52062307               27.16566760                0.87826527               -0.16145363               -0.16557494                0.54453470               -0.00098003                0.16850482               -0.21418735
               3.77086790                4.38129603               27.05673452                0.19312220               -0.07322469               -0.06056144                0.28611929               -0.05735183                1.17931810               -1.60988422
               4.77067821                4.24048412               26.96701346                0.00010000               -0.68499328                0.05650941                0.01551924                0.53608053                6.36829361               -2.62905948
               5.75716803                4.11412810               26.96183632                0.00010000               -1.31046082                0.08000200               -0.09302598                1.03657685               10.23336417               -1.45273411
               6.74446899                3.98748033               26.94888664                0.00010000               -1.23086181                0.16840407               -0.20227791                0.89966624                9.56401537               -0.35144229
               7.73255080                3.86251605               26.92970629                0.00010000               -1.11468601                0.10706744               -0.33218564                0.75065520                9.11325987                0.85112304
               8.72217527                3.74088170               26.90691688                0.00010000               -0.96703569                0.07491476               -0.48316064                0.68860042                8.96390878                2.02959413
               9.71321008                3.62432915               26.88384885                0.21356967               -0.32513886                0.02314316               -0.66228532                0.28333842                4.90671655                3.46288937
              10.71567249                3.50274013               26.77882184                0.81357679                0.28861017                0.24588911               -0.95173823               -0.00084869                0.47276805                1.13823462
              11.71898229                3.38106737               26.66683891                1.00000000                0.33097933                0.42199532               -1.26123437               -0.02527483                0.12634404               -0.46706576
               1.91219901                5.65695911               27.24277365                1.00000000               -0.15486427               -0.23294224                0.68001652               -0.02516494                0.12755117                1.11129396
               2.91065037                5.51920034               27.12528159                0.70992814               -0.11947034               -0.11719348                0.39401235               -0.00806361                0.27244130               -0.44881481
               3.90980960                5.38096675               27.01062624                0.13076705               -0.12280324               -0.00372144                0.12360740               -0.01982511                1.72774335               -1.87486175
               4.90819430                5.24209756               26.92223072                0.00010000               -0.87663089                0.28006261               -0.18720555                0.31001965                8.31057715               -1.33838117
               5.89227699                5.11599961               26.93903115                0.00010000               -1.58422079                0.29704178               -0.17937512                0.73171070               13.01440526               -0.60971797
               6.87650989                4.98979049               26.94434943                0.00010000               -1.55202239                0.32480655               -0.22207308                0.48837355               12.20103130                0.16275353
               7.86123654                4.86472220               26.94425516                0.00010000               -1.47693670                0.29166628               -0.30033821                0.34612866               11.85517812                1.06322598
               8.84697115                4.74233854               26.94172306                0.00010000               -1.33922068                0.18023962               -0.40520605                0.33228923               11.79686628                2.07664587
               9.83445213                4.62424511               26.93927141                0.21982959               -0.52842762               -0.01252735               -0.53660893                0.14243577                6.14382275                3.11066313
              10.83640260                4.50496230               26.82225763                0.72121924                0.24935804                0.20678519               -0.84956041                0.02151958                0.25201617                1.22164402
              11.83943929                4.38533569               26.70168314                1.00000000                0.30366844                0.41950873               -1.19542521               -0.02303105                0.07842951               -0.41884269
               2.04911121                6.65486232               27.20810142                1.00000000               -0.11374262               -0.18479565                0.54015182               -0.02462873                0.06529529                0.95740795
               3.04797379                6.51827920               27.08232546                0.60604144               -0.07685219               -0.06910152                0.24389752               -0.00731184                0.25361735               -0.62314696
               4.04757417                6.38122160               26.96025340                0.09694765               -0.30640259                0.04943734               -0.04022017                0.11020890                3.38060538               -2.21069452
               5.04184574                6.24608537               26.89701407                0.00010000               -1.17324244                0.45007898               -0.34692956                0.20586464               10.86209354                0.11629611
               6.02410932                6.12006894               26.92422154                0.00010000               -1.81659307                0.50156477               -0.23925556                0.47307520               15.04414638                0.06846794
               7.00551388                5.99397646               26.94440032                0.00010000               -1.85920002                0.52043915               -0.23086643                0.20872350               14.54525590                0.51779824
               7.98692532                5.86834937               26.96091643                0.00010000               -1.81078642                0.44399788               -0.26313178               -0.01492463               14.35597731                1.18422831
               8.96929815                5.74448650               26.97622312                0.00010000               -1.67451418                0.25484594               -0.32174328               -0.09783907               14.38922236                1.99025837
               9.95343504                5.62407860               26.99204706                0.23885279               -0.71429222               -0.01735192               -0.39914624               -0.09658692                7.35115287                2.85055440
              10.95501230                5.50687584               26.86506131                0.66805410                0.21699211                0.17967352               -0.75298628                0.02057516                0.13903043                1.13103826
              11.95777488                5.38945755               26.73634573                1.00000000                0.27625779                0.39912444               -1.11725265               -0.01647212                0.05876861               -0.46346934
               2.18487268                7.65326319               27.17218274                1.00000000               -0.07278237               -0.13584626                0.40129904               -0.02337758                0.02643102                0.87452182
               3.18414485                7.51781831               27.03837972                0.55537767               -0.03325328               -0.02454707                0.09744939               -0.00331533                0.16601197               -0.67953125
               4.18420761                7.38195549               26.90730314                0.07633137               -0.53403006                0.09271676               -0.20259134                0.27265867                5.57106490               -2.37797340
               5.17346425                7.25109914               26.88159916                0.00010000               -1.51801057                0.53886924               -0.33692359                0.33992623               13.80763083                0.52604432
               6.15384740                7.12603091               26.91514802                0.00010000               -2.05301634                0.69446640               -0.26191557                0.38053467               16.71936928                0.42259885
               7.13240393                7.00019927               26.94725895                0.00010000               -2.17096964                0.74599865               -0.22712040                0.01323045               16.63998163                0.66371606
               8.11042801                6.87360216               26.97830583                0.00010000               -2.15593913                0.63629747               -0.22195145               -0.35935539               16.66951967                1.15393819
               9.08928514                6.74743545               27.00979573                0.00010000               -2.01484817                0.35985865               -0.23997533               -0.57637755               16.83466681                1.82433075
              10.07013105                6.62389807               27.04274322                0.26488010               -0.89249932               -0.01608097               -0.27459360               -0.38184514                8.53916920                2.62725736
              11.07143516                6.50855577               26.90684080                0.64183524                0.19076901                0.15917497               -0.65948016                0.00719898                0.07145010                1.01042600
              12.07394643                6.39331818               26.77012543                1.00000000                0.25112676                0.36982631               -1.04296547               -0.01041608                0.03876378               -0.55731803
               2.31953344                8.65214540               27.13581840                1.00000000               -0.03182584               -0.08916097                0.26476468               -0.02246565                0.00913361                0.85845599
               3.31921518                8.51778826               26.99422112                0.55295811                0.01065342                0.01809476               -0.04625766                0.00041084                0.05402795               -0.68392977
               4.31974651                8.38307593               26.85345329                0.05811542               -0.73231664                0.12875428               -0.35968735                0.45321795                7.71002762               -2.27895206
               5.30456885                8.25686275               26.86496676                0.00010000               -1.85633108                0.66412461               -0.30066457                0.62294013               16.88927701                0.40254116
               6.28261989                8.13395827               26.90777312                0.00010000               -2.31808068                0.91796620               -0.27021048                0.41100875               18.49503504                0.42947296
               7.25820724                8.00889643               26.95064670                0.00010000               -2.50589286                0.98498566               -0.22003798               -0.07174236               18.61829609                0.58502741
               8.23250203                7.88107532               26.99483392                0.00010000               -2.53662759                0.91614417               -0.17782070               -0.60158520               18.86289535                0.94069001
               9.20747468                7.75168367               27.04141477                0.01653689               -2.39121032                0.55185699               -0.16170978               -1.10330916               19.21135101                1.54319930
              10.18467782                7.62375698               27.09127073                0.29543768               -1.08692557               -0.00647688               -0.17305450               -0.72537393                9.74818139                2.32114303
              11.18573617                7.51005934               26.94729009                0.64032633                0.16819567                0.14574603               -0.57825091               -0.01158952                0.04265216                0.88804167
              12.18804174                7.39685407               26.80270968                1.00000000                0.23055645                0.33571098               -0.97966592               -0.00488986                0.02278810               -0.67591436
               2.45313764                9.65147997               27.09952929                1.00000000                0.00848946               -0.04570882                0.13076089               -0.02205526               -0.01096014                0.74290420
               3.45322253                9.51818020               26.95011599                0.57895203                0.05299181                0.06003341               -0.18782779                0.00157158                0.07591432               -0.58166070
               4.45419748                9.38453058               26.80236831                0.01972894               -0.90909070                0.16213407               -0.50323581                0.70155934                9.80260938               -1.55889027
               5.43504072                9.26438163               26.84747088                0.00010000               -2.20817885                0.99718993               -0.35692849                0.71922701               19.81353767                0.27540192
               6.41003390                9.14439023               26.89933065                0.00010000               -2.55943465                1.09957870               -0.29791073                0.36448870               20.26941750                0.24424044
               7.38385203                9.01989898               26.95241819                0.00010000               -2.72124160                1.15521547               -0.22372244               -0.04829651               20.53267925                0.33365276
               8.35560907                8.89192504               27.00844255                0.00010000               -2.96573630                1.16278879               -0.14235737               -0.54999905               20.98925274                0.53265418
               9.32453730                8.75847259               27.06970379                0.04410721               -2.91805842                1.05226393               -0.05161036               -1.22544055               21.53189709                0.96253032
              10.29724790                8.62376853               27.13581301                0.32822560               -1.32155131                0.02354293               -0.09833060               -1.13979002               11.06059506                1.51879658
              11.29810628                8.51147069               26.98655194                0.65868825                0.15056288                0.13949342               -0.51397364               -0.03036292                0.14079948                0.68847951
              12.30025916                8.40003240               26.83391031                0.98221668                0.21528813                0.30227616               -0.93081656               -0.00367025               -0.01546249               -0.65711379
               2.58569188               10.65123122               27.06078492                1.00000000                0.05041254               -0.02487554               -0.00195460                0.03119500                0.40818791                0.62456322
               3.58619601               10.51898893               26.90793866                0.82743460                0.09421899                0.08087258               -0.32536899                0.05171708                0.79984709               -0.48232586
               4.58757626               10.38631861               26.76285187                0.50912110               -1.35511349                0.17880340               -0.63403862                1.22875993               11.73249772               -0.97897450
               5.55909374               10.27680655               26.82864876                0.36674497               -2.65919757                1.24249192               -0.46534058                0.88686319               22.10920413                0.17683108
               6.53439231               10.15594984               26.88877266                0.35705435               -2.46936208                1.15596117               -0.35070678                0.19555057               22.00886345                0.11631632
               7.50970650               10.03200074               26.95120658                0.37323534               -2.57319367                1.21017575               -0.24914863                0.00450961               22.35255060                0.16948814
               8.48292844                9.90433110               27.01716562                0.41376612               -2.92920578                1.24060573               -0.13596747               -0.23165265               22.91310682                0.28222917
               9.45112238                9.77272895               27.09003092                0.53440231               -3.70222540                1.42563530                0.02098336               -1.34665493               23.52291715                0.56183013
              10.40888393                9.62422784               27.16804636                0.68373019               -2.11286672                0.04593083               -0.06374046               -1.83038405               12.62377505                0.92338582
              11.40886505                9.51284920               27.02279701                0.84993981                0.09804911                0.13785173               -0.46585122                0.00946498                0.93462311                0.55413413
              12.41084491                9.40289960               26.86665565                0.98617757                0.19798651                0.28671981               -0.88781512                0.06361459                0.40541399               -0.56787972
               1.29299456                0.71817904               28.41421434                1.00000000               -0.34462561               -0.37117875                1.29340889               -0.06325805               -0.87766740                0.90333284
               2.28954830                0.56792530               28.32287674                1.00000000               -0.29328078               -0.29239299                1.03864540               -0.04823618               -1.13365642                0.08934065
               3.28712894                0.41735407               28.22641019                1.00000000               -0.17593911               -0.21387485                0.77247572               -0.04258239               -1.09535682               -0.20998597
               4.28602952                0.26733398               28.13588610                0.62761083                0.21071579               -0.16639827                0.51461149                0.34471603               -0.21874588               -0.76288197
               5.29134326                0.12623514               28.05708155                0.71467926                0.35411929               -0.05992598                0.23170163               -0.07472599                0.17943697                0.23058121
               6.29311191               -0.00792740               27.97540097                0.79622216                0.14211022                0.02377839               -0.04330584               -0.01529383               -0.15301592                0.13479663
               7.29418546               -0.14054676               27.89018435                0.77304088                0.11719857                0.09739385               -0.31885197               -0.00040351               -0.37318257               -0.07396352
               8.29545588               -0.27288029               27.80405826                0.86518615                0.15018064                0.18270834               -0.60135858                0.00135648               -0.63370573                0.10434489
               9.29718908               -0.40624797               27.71335012                1.00000000                0.22777943                0.26759735               -0.88017092               -0.00508681               -0.95428303                0.52840810
              10.30001147               -0.54056549               27.62056064                1.00000000                0.32977618                0.34138915               -1.15055662               -0.03587635               -0.95270934                0.00627594
              11.30378460               -0.67504907               27.52980486                1.00000000                0.37731333                0.42399735               -1.41108326               -0.04639096               -0.85125407               -0.84876181
               1.44261572                1.71446725               28.37703939                1.00000000               -0.31372966               -0.35397498                1.16676676               -0.02224120               -0.12488407                1.22960563
               2.43947842                1.56500137               28.28539336                1.00000000               -0.28084697               -0.27183699                0.91336248               -0.00440346               -0.12111896                0.12447184
               3.43699878                1.41521533               28.19378604                0.88037979               -0.22211381               -0.19011458                0.65041798                0.00766922                0.05787715               -0.55964135
               4.43503615                1.26566999               28.10568052                0.20935018               -0.43860455               -0.15004791                0.38054872                0.49019977                1.63014755               -1.15655203
               5.42822669                1.12563588               28.04541768                0.36998350               -0.43431127                0.05127279                0.14369742               -0.09268153                2.40890119                1.02377279
               6.42634992                0.99231038               27.97194059                0.47244575               -0.07844091                0.07799771               -0.10788768                0.09422085                1.53224406                0.44825169
               7.42665787                0.86042718               27.89387794                0.37154549                0.09850637                0.09223089               -0.36379794                0.14387076                1.44469592               -0.34295048
               8.42832005                0.72894680               27.81864997                0.50255295                0.21614707                0.18900143               -0.61462014                0.13021726                1.45554344                0.59898148
               9.43098081                0.59642800               27.74100202                1.00000000                0.28666024                0.26110643               -0.85920180                0.05957412                0.74096579                0.77214051
              10.43405325                0.46284840               27.65164515                1.00000000                0.34117280                0.33483536               -1.11912734                0.00623403                0.08901245                0.11223749
              11.43780427                0.32919090               27.56097272                1.00000000                0.37510149                0.42236764               -1.37810169               -0.00458449                0.02257157               -1.00063900
               1.59148150                2.71109954               28.34636430                1.00000000               -0.27693434               -0.32513583                1.04982124               -0.01506338                0.04543579                1.56027234
               2.58871216                2.56248856               28.24858506                1.00000000               -0.24339000               -0.23594830                0.79215789                0.00864090                0.21515087                0.10045860
               3.58661370                2.41355178               28.15414193                0.54253400               -0.16495997               -0.15195340                0.54305613                0.02132001                0.77770022               -1.33999935
               4.58541296                2.26433302               28.06756999                0.00010000               -1.18822300               -0.12971670                0.25690226                0.68829401                4.60721855               -2.04182110
               5.56284924                2.12726060               28.04966854                0.00010000               -1.26039637                0.09564379                0.06322626                1.23961040                5.36262417               -1.21584096
               6.56020503                1.99363255               27.97478127                0.00010000               -0.12113886               -0.07329071               -0.16031127                1.01395165                2.13769293               -0.24839601
               7.56042646                1.86129786               27.89220552                0.00010000                0.09271843               -0.11619083               -0.39241576                0.81016376                3.42564186                0.57037309
               8.56205940                1.73089974               27.84315283                0.00010000                0.20262473               -0.07705886               -0.64795865                0.52984008                4.03786964                1.12857165
               9.56447896                1.59897416               27.77356739                0.50719005                0.26569240                0.24849955               -0.83282900                0.07098287                2.03819257                1.56597984
              10.56737325                1.46613121               27.68485932                1.00000000                0.32644717                0.31477031               -1.07925514                0.00385717                0.72979770                0.70894704
              11.57100790                1.33339828               27.58908950                1.00000000                0.36346542                0.42148037               -1.34942821               -0.00657198                0.37631809               -1.01008752
               1.73953641                3.70796453               28.31579265                1.00000000               -0.23374179               -0.30208778                0.93176939               -0.01367980                0.08568695                1.48875506
               2.73719899                3.56028240               28.21059572                1.00000000               -0.19778472               -0.20358541                0.66942252                0.00734776                0.11223866               -0.03335887
               3.73558072                3.41217626               28.10586955                0.32958588               -0.10528928               -0.11087713                0.41479372               -0.02203098                1.05905402               -1.66748046
               4.73509321                3.26307566               28.01958800                0.00010000               -0.59306777               -0.08351636                0.15208609                0.65800933                4.99089971               -2.75184285
               5.72371936                3.12754876               27.99343898                0.00010000               -1.12507561                0.00207705               -0.01091866                1.74579622                7.55111774               -3.07675956
               6.71259170                2.99084457               27.95750633                0.00010000               -0.90627037               -0.09230508               -0.18451907                1.40010235                6.73782061               -0.91982986
               7.70559395                2.85810336               27.91397248                0.00010000               -0.56755734               -0.16812578               -0.37220664                1.11670267                6.27839144                1.28108463
               8.70124055                2.72740562               27.86821737                0.00010000               -0.42124786               -0.17966614               -0.56623026                0.87818188                5.92656102                1.60953627
               9.69716900                2.60139799               27.81708764                0.23732002               -0.07671390                0.13239278               -0.76975256                0.26137078                3.78523737                2.93580429
              10.69970627                2.46914381               27.72786260                1.00000000                0.29848469                0.28230877               -1.00373098               -0.03033301                0.94910834                1.11562437
              11.70313869                2.33762051               27.61994493                1.00000000                0.34324200                0.41966944               -1.30396405               -0.00998986                0.01326708               -0.69435852
               1.88657217                4.70505778               28.28368840                1.00000000               -0.19247820               -0.27316826                0.80487842               -0.02086150                0.12404931                1.30877394
               2.88464739                4.55841685               28.17108003                0.86933779               -0.15961737               -0.16286793                0.53792598               -0.00196615                0.18247839               -0.22644234
               3.88337982                4.41133424               28.05958207                0.19664578               -0.07233726               -0.05594149                0.28304301               -0.06437986                1.19373482               -1.63668264
               4.88320064                4.26266269               27.96718345                0.00010000               -0.66917822                0.06051239                0.01642282                0.46952184                6.45418459               -2.67869573
               5.86999626                4.12730214               27.96090941                0.00010000               -1.27740827                0.08048991               -0.09272539                0.91202353               10.40561362               -1.44387475
               6.85765248                3.99178645               27.94683200                0.00010000               -1.18983963                0.15707549               -0.20942874                0.77437512                9.73449056               -0.30500992
               7.84619946                3.85793534               27.92631802                0.00010000               -1.06620357                0.09234430               -0.34621225                0.63160144                9.27397764                0.92472971
               8.83632840                3.72730642               27.90199566                0.00010000               -0.91156376                0.05579798               -0.50206187                0.57739956                9.11181623                2.11950220
               9.82796819                3.60162201               27.87713926                0.20915982               -0.28921673               -0.01126803               -0.68145150                0.23280206                5.00088888                3.55903852
              10.83054407                3.47177739               27.76928106                0.79394736                0.29432517                0.23649430               -0.95087251               -0.00445265                0.50225127                1.17987570
              11.83385469                3.34179167               27.65423860                1.00000000                0.33106226                0.42448144               -1.25397441               -0.02918832                0.14129274               -0.46348258
               2.03240105                5.70250117               28.24951846                1.00000000               -0.15178359               -0.23215970                0.66906751               -0.02541366                0.12833164                1.11050499
               3.03088321                5.55702504               28.12918432                0.70216868               -0.11768853               -0.11379509                0.38650096               -0.00903242                0.28116055               -0.47054491
               4.03004728                5.41105743               28.01184485                0.13250604               -0.11837341                0.00215310                0.11992433               -0.03032450                1.72902252               -1.91756974
               5.02851574                5.26428591               27.92045802                0.00010000               -0.86056022                0.27352398               -0.16791257                0.24182317                8.44292858               -1.38963350
               6.01283607                5.12915856               27.93727857                0.00010000               -1.55348731                0.29133680               -0.17155383                0.60442192               13.28314864               -0.58780158
               6.99744600                4.99398608               27.94210140                0.00010000               -1.50650295                0.31093485               -0.22837938                0.36819048               12.43964493                0.21498635
               7.98270601                4.85995025               27.94117074                0.00010000               -1.41720642                0.27055160               -0.31747546                0.22971888               12.07724349                1.13801050
               8.96910187                4.72852158               27.93755284                0.00010000               -1.26759727                0.15485286               -0.42955591                0.21394058               12.00627926                2.17057295
               9.95735407                4.60117263               27.93376088                0.21511375               -0.48271544               -0.04347878               -0.56543539                0.08692270                6.26613275                3.22493952
              10.95944756                4.47387369               27.81369723                0.70319548                0.25861465                0.19646583               -0.86194366                0.02364696                0.26997659                1.28295000
              11.96252636                4.34611014               27.68970789                1.00000000                0.30788014                0.42640534               -1.20016077               -0.02398268                0.07813300               -0.40268275
               2.17701615                6.70041459               28.21344241                1.00000000               -0.11056693               -0.18347779                0.52802152               -0.02464860                0.06427973                0.95418087
               3.17591048                6.55614095               28.08472632                0.59962645               -0.07518407               -0.06534197                0.23619052               -0.00798194                0.25876714               -0.64261477
               4.17551246                6.41137730               27.95983528                0.09735812               -0.29872516                0.05604850               -0.04346800                0.08850235                3.39296641               -2.25276371
               5.16993597                6.26813317               27.89379927                0.00010000               -1.15639701                0.43191936               -0.29487498                0.11796815               11.05554743                0.16817884
               6.15238452                6.13312888               27.92191476                0.00010000               -1.78556888                0.48649520               -0.22249911                0.34200870               15.39147056                0.11772308
               7.13422460                5.99800515               27.94206973                0.00010000               -1.80630929                0.50024213               -0.23620268                0.08391427               14.84285160                0.57755320
               8.11625834                5.86334637               27.95819066                0.00010000               -1.74198829                0.41930403               -0.28301233               -0.13417760               14.63820171                1.25979429
               9.09938483                5.73040348               27.97286134                0.00010000               -1.59519036                0.22956125               -0.35120830               -0.22162070               14.66514307                2.08292718
              10.08435453                5.60075244               27.98787824                0.23447261               -0.66526641               -0.03592114               -0.43456663               -0.15657171                7.49802967                2.96261615
              11.08607950                5.47570671               27.85742308                0.65113934                0.22738048                0.17413580               -0.77404572                0.02481986                0.14633117                1.18871252
              12.08890214                5.35031978               27.72511670                1.00000000                0.28226392                0.40867729               -1.12868667               -0.01669298                0.05939419               -0.44200472
               2.32045536                7.69883161               28.17613029                1.00000000               -0.06944991               -0.13382358                0.38803373               -0.02340105                0.02568263                0.87271612
               3.31976086                7.55571820               28.03931523                0.55020664               -0.03151287               -0.02080310                0.08947149               -0.00358922                0.16731850               -0.69567898
               4.31982510                7.41217840               27.90526478                0.07539456               -0.53186634                0.09904942               -0.20527537                0.23611461                5.67324817               -2.41624372
               5.30912353                7.27292429               27.87856458                0.00010000               -1.50104149                0.51675781               -0.26996881                0.23273504               14.08274820                0.65901733
               6.28980427                7.13888846               27.91263134                0.00010000               -2.01083728                0.67054167               -0.24243320                0.25443613               17.07267416                0.48832710
               7.26890679                7.00399092               27.94496165                0.00010000               -2.10900688                0.72040711               -0.23354069               -0.10747524               16.98299009                0.72500049
               8.24762413                6.86833633               27.97597904                0.00010000               -2.08216974                0.60944987               -0.24445772               -0.47669977               17.00627145                1.22843958
               9.22726339                6.73311281               28.00722966                0.00010000               -1.93523637                0.33832471               -0.27377833               -0.69791722               17.16893663                1.91120897
              10.20891940                6.60045421               28.03979044                0.26133915               -0.84433869               -0.02132811               -0.31554870               -0.44416291                8.70864964                2.71913946
              11.21037662                6.47735641               27.90009809                0.62541056                0.20234766                0.15936962               -0.68851338                0.00994072                0.07100371                1.05977947
              12.21296636                6.35428369               27.75960673                1.00000000                0.25897411                0.38025346               -1.06098064               -0.00955860                0.03888781               -0.54306413
               2.46277494                8.69773811               28.13839544                1.00000000               -0.02830382               -0.08619322                0.25031755               -0.02255658                0.00870106                0.85906491
               3.46249191                8.55572488               27.99371813                0.54869059                0.01268602                0.02160047               -0.05461028                0.00060219                0.05268123               -0.69756394
               4.46302866                8.41335829               27.84984814                0.05580613               -0.73056480                0.13364901               -0.36164472                0.40278521                7.90715547               -2.30755798
               5.44788061                8.27846833               27.86224749                0.00010000               -1.83110212                0.64343761               -0.24828142                0.52109385               17.25314841                0.48495023
               6.42640662                8.14653971               27.90513860                0.00010000               -2.26266920                0.88971388               -0.25866321                0.30839367               18.85197563                0.48378063
               7.40262723                8.01241329               27.94840281                0.00010000               -2.44020818                0.95900007               -0.23027432               -0.17122567               19.00559009                0.63579296
               8.37760246                7.87553537               27.99294510                0.00010000               -2.46593108                0.89189678               -0.20085168               -0.70320019               19.25200558                1.00695120
               9.35330860                7.73716997               28.03962077                0.01813816               -2.31873932                0.53265418               -0.19742903               -1.21450533               19.58932029                1.64505725
              10.33122767                7.60032588               28.08929127                0.29304223               -1.04298812                0.00035496               -0.22233616               -0.78379381                9.93381502                2.38599283
              11.33244884                7.47889410               27.94131291                0.62335866                0.18143705                0.15286356               -0.61725590               -0.01102373                0.03993611                0.92193841
              12.33485641                7.35792485               27.79278427                1.00000000                0.24075712                0.34647755               -1.00619940               -0.00321882                0.02272740               -0.67444684
               2.60403069                9.69710775               28.10076126                1.00000000                0.01220392               -0.04168635                0.11519065               -0.02223169               -0.01166471                0.74573800
               3.60415273                9.55615021               27.94819454                0.57415610                0.05533368                0.06326622               -0.19684585                0.00196160                0.07748973               -0.59218795
               4.60513736                9.41485138               27.79733435                0.01632754               -0.88943695                0.16506942               -0.50460781                0.63926196               10.04105852               -1.57447387
               5.58636399                9.28579305               27.84401538                0.00010000               -2.15550905                0.96948076               -0.33996158                0.64765242               20.24860176                0.27925704
               6.56202718                9.15668274               27.89635945                0.00010000               -2.49386882                1.07262713               -0.29902088                0.30318275               20.67819271                0.27130698
               7.53648661                9.02317092               27.95011110                0.00010000               -2.66118666                1.13401800               -0.23958351               -0.10602841               20.97289951                0.36211086
               8.50880345                8.88617426               28.00690925                0.00010000               -2.91519156                1.14784550               -0.16505138               -0.61542167               21.45720914                0.57331125
               9.47818278                8.74376589               28.06908809                0.04827023               -2.86420230                1.03941967               -0.06954172               -1.30082247               21.93963451                1.05828529
              10.45151940                8.60046131               28.13452172                0.32735499               -1.28128046                0.03983138               -0.15985670               -1.18352400               11.23250828                1.54951035
              11.45255717                8.48041368               27.98116245                0.63963841                0.16605419                0.15333899               -0.56464969               -0.03065845                0.14212951                0.70587927
              12.45484048                8.36121324               27.82442879                0.98152020                0.22833140                0.31399629               -0.96690340               -0.00174504               -0.01321065               -0.66529202
               2.74424538               10.69690439               28.06068676                1.00000000                0.05421254               -0.02033585               -0.01820691                0.03005133                0.40967320                0.62845500
               3.74478751               10.55699021               27.90463709                0.82481866                0.09628436                0.08399973               -0.33542718                0.05124245                0.80949440               -0.49068997
               4.74617107               10.41665968               27.75650445                0.50716684               -1.28926051                0.18083006               -0.63713905                1.14675732               11.98688970               -0.98793264
               5.71900230               10.29785794               27.82398578                0.36706520               -2.55393331                1.20648952               -0.47036193                0.83045953               22.60052601                0.15046582
               6.69509240               10.16799225               27.88522822                0.35723181               -2.39935811                1.13095130               -0.36120971                0.16830753               22.48590315                0.12661143
               7.67101513               10.03509365               27.94861348                0.37303532               -2.51966722                1.19227282               -0.27168040               -0.02214636               22.84623694                0.18183374
               8.64469906                9.89849228               28.01567810                0.41301608               -2.90050125                1.23180178               -0.16248288               -0.26720322               23.45512337                0.30297092
               9.61300511                9.75795836               28.09019261                0.53746232               -3.68948276                1.41924758                0.01460030               -1.38625606               23.95856289                0.63071397
              10.57090940                9.60112250               28.16704542                0.68409179               -2.09606815                0.06611939               -0.13733342               -1.86087419               12.79321696                0.93444248
              11.57108375                9.48196088               28.01783386                0.83952671                0.11564967                0.15472005               -0.52837346                0.00677096                0.95669020                0.56425438
              12.57322240                9.36420477               27.85755930                0.98591393                0.21386500                0.29915369               -0.93363698                0.06258052                0.42002480               -0.57789751
               1.37676790                0.76507632               29.42712523                1.00000000               -0.34412055               -0.36990032                1.28868449               -0.06287453               -0.88949237                0.91412606
               2.37332669                0.60695224               29.33324749                1.00000000               -0.29417169               -0.29110360                1.03545939               -0.04756337               -1.15060971                0.09411977
               3.37088446                0.44848975               29.23413219                1.00000000               -0.18053733               -0.21275029                0.77211407               -0.04330861               -1.11320721               -0.20918132
               4.36971594                0.29048175               29.14104175                0.62697886                0.18380350               -0.16516991                0.51758786                0.31697471               -0.24513553               -0.78115514
               5.37456053                0.14070468               29.05942780                0.71450181                0.32398082               -0.06306007                0.23726335               -0.07050911                0.13663598                0.24265648
               6.37619556               -0.00275532               28.97498645                0.79664657                0.13637036                0.02197185               -0.03968593               -0.01838014               -0.19600617                0.14240474
               7.37728794               -0.14476484               28.88700379                0.77330361                0.12541142                0.09666925               -0.31649733               -0.00320740               -0.41983849               -0.07593861
               8.37870379               -0.28635310               28.79805028                0.86269394                0.16400085                0.18185758               -0.59945290               -0.00437485               -0.68074151                0.10587922
               9.38056796               -0.42866313               28.70455752                1.00000000                0.23639545                0.26568921               -0.87786276               -0.00832993               -0.99385463                0.54018253
              10.38343170               -0.57175146               28.60907264                1.00000000                0.33179709                0.34099838               -1.14684885               -0.03424914               -0.98285794                0.00474027
              11.38720390               -0.71498644               28.51571690                1.00000000                0.37722005                0.42493681               -1.40665732               -0.04413689               -0.87654511               -0.87227921
               1.53426323                1.76137731               29.38867734                1.00000000               -0.31188919               -0.35306863                1.16102045               -0.02182909               -0.12819532                1.24517005
               2.53114434                1.60404120               29.29450357                1.00000000               -0.27883058               -0.27057253                0.90877475               -0.00391848               -0.12946679                0.13115372
               3.52868662                1.44636225               29.20027067                0.89131307               -0.21830537               -0.18864763                0.64639160                0.00476468                0.04128472               -0.55140629
               4.52677823                1.28883005               29.10946420                0.21317328               -0.41063206               -0.14789519                0.37751867                0.45079578                1.62884507               -1.16968734
               5.52047398                1.14007408               29.04686835                0.37422367               -0.40158566                0.04289930                0.14904029               -0.08251684                2.42466044                1.04034096
               6.51874652                0.99746440               28.97087118                0.47855678               -0.07096108                0.07391480               -0.10522698                0.08455829                1.53871681                0.46153499
               7.51905476                0.85620185               28.89023526                0.37974365                0.09313332                0.09668085               -0.36422599                0.13307527                1.45080148               -0.33732787
               8.52060918                0.71546548               28.81248879                0.50646126                0.20645416                0.19215835               -0.61803647                0.11347932                1.46650294                0.58882448
               9.52318384                0.57399376               28.73240284                1.00000000                0.28208398                0.26050297               -0.86127943                0.05183088                0.74684800                0.78593650
              10.52625086                0.43165852               28.64044942                1.00000000                0.34068353                0.33523775               -1.12077663                0.00775738                0.08791227                0.11513795
              11.52999751                0.28926293               28.54719237                1.00000000                0.37466460                0.42668738               -1.37884767               -0.00208912                0.02272305               -1.02566327
               1.69100354                2.75801494               29.35682503                1.00000000               -0.27401552               -0.32489646                1.04300087               -0.01453880                0.04542111                1.58025853
               2.68826338                2.60154079               29.25647671                1.00000000               -0.24063174               -0.23457585                0.78618060                0.00851137                0.21883014                0.10855083
               3.68619090                2.44471680               29.15955331                0.55810291               -0.16216733               -0.14870137                0.53766092                0.01514673                0.76660019               -1.33433288
               4.68502004                2.28752385               29.07011092                0.00010000               -1.09575269               -0.12565011                0.25075915                0.63104828                4.62714358               -2.03787294
               5.66427585                2.14156266               29.05032999                0.00010000               -1.16305433                0.07747154                0.07011669                1.11854207                5.43940216               -1.19683059
               6.66175895                1.99872298               28.97317660                0.00010000               -0.11637409               -0.07446598               -0.16266310                0.89935071                2.19730847               -0.21598577
               7.66194837                1.85716878               28.88825861                0.00010000                0.07112563               -0.10559049               -0.39599060                0.70969642                3.46789339                0.60753751
               8.66318146                1.71749007               28.83660486                0.00010000                0.17315807               -0.06386727               -0.66281351                0.45986363                4.10051797                1.16898453
               9.66541153                1.57654693               28.76520476                0.50692248                0.25681106                0.24663467               -0.84129327                0.04913483                2.10472455                1.60083863
              10.66831768                1.43495329               28.67404425                1.00000000                0.32708890                0.31383715               -1.08580008                0.00160975                0.75310264                0.73629263
              11.67195331                1.29354731               28.57558017                1.00000000                0.36356237                0.42982901               -1.35573387               -0.00547708                0.38890120               -1.02366937
               1.84692077                3.75487938               29.32506745                1.00000000               -0.23080601               -0.30220547                0.92373691               -0.01341195                0.08949670                1.50386551
               2.84461271                3.59934968               29.21725845                1.00000000               -0.19571385               -0.20175813                0.66327413                0.00720274                0.11982644               -0.03032919
               3.84300649                3.44338822               29.11000307                0.33724638               -0.10296854               -0.10648664                0.41105878               -0.02921787                1.06649300               -1.67433061
               4.84255334                3.28631705               29.02110610                0.00010000               -0.56803999               -0.07418328                0.14864583                0.58249034                5.03809261               -2.74645348
               5.83164569                3.14162351               28.99331680                0.00010000               -1.07129597               -0.00758238               -0.01463850                1.55069671                7.65233750               -3.06199968
               6.82112742                2.99597508               28.95563112                0.00010000               -0.85820487               -0.09689593               -0.19143849                1.22288925                6.83865397               -0.87395948
               7.81448159                2.85409004               28.91019631                0.00010000               -0.53495580               -0.16781994               -0.38392792                0.95656867                6.37605924                1.34905556
               8.81042830                2.71418813               28.86248552                0.00010000               -0.38891413               -0.17768927               -0.58043055                0.76226503                6.02137341                1.70382377
               9.80670331                2.57892646               28.80932295                0.23370971               -0.05728084                0.11448718               -0.78510681                0.21390321                3.86671107                3.00118505
              10.80928268                2.43793526               28.71783112                0.99463932                0.29983160                0.27748586               -1.00879901               -0.03832267                0.98636194                1.15103518
              11.81269994                2.29785951               28.60694726                1.00000000                0.34172583                0.42437262               -1.29934022               -0.01058810                0.01963957               -0.69092681
               2.00179470                4.75197083               29.29168890                1.00000000               -0.18961006               -0.27320931                0.79558939               -0.02086311                0.13205932                1.31466675
               2.99989860                4.59750562               29.17642612                0.86040290               -0.15777598               -0.16032674                0.53141055               -0.00246418                0.19645449               -0.23816156
               3.99863918                4.44258707               29.06239538                0.19926648               -0.07320179               -0.05130398                0.27946855               -0.06777877                1.20775997               -1.66196834
               4.99843456                4.28604018               28.96734191                0.00010000               -0.65037117                0.06860102                0.01634927                0.39448817                6.53468086               -2.70636811
               5.98563175                4.14141101               28.95998181                0.00010000               -1.23421814                0.08073613               -0.09388964                0.76978841               10.56974758               -1.42769851
               6.97375020                3.99678506               28.94469806                0.00010000               -1.13825325                0.14387029               -0.21871620                0.63422831                9.89380622               -0.25702133
               7.96286669                3.85381238               28.92278205                0.00010000               -1.00799259                0.07598589               -0.36220589                0.49997995                9.42473838                0.99746036
               8.95359035                3.71393628               28.89687564                0.00010000               -0.84621149                0.03480902               -0.52238774                0.45512954                9.25123048                2.20721168
               9.94594246                3.57883668               28.87021982                0.20442029               -0.24860827               -0.04607690               -0.70550544                0.17469002                5.09831121                3.65313945
              10.94861818                3.44050301               28.75980439                0.77439811                0.29753011                0.22720087               -0.94374096               -0.01147356                0.53874007                1.21821030
              11.95189306                3.30203476               28.64175942                1.00000000                0.32748808                0.42722142               -1.24585476               -0.03279045                0.15806896               -0.45667912
               2.15543393                5.74941520               29.25615500                1.00000000               -0.14867365               -0.23183602                0.65839539               -0.02549016                0.12888510                1.10874619
               3.15394719                5.59614315               29.13301161                0.69457284               -0.11587851               -0.11048166                0.37902670               -0.00976950                0.28986770               -0.49187691
               4.15311636                5.44236214               29.01302473                0.13349331               -0.11640171                0.00796618                0.11611592               -0.03663527                1.73988227               -1.95859647
               5.15161915                5.28768907               28.91887247                0.00010000               -0.84098859                0.26511013               -0.14714377                0.16593631                8.57724047               -1.40874845
               6.13629658                5.14323823               28.93560007                0.00010000               -1.51042674                0.28298121               -0.16482795                0.45999666               13.53515948               -0.55595744
               7.12141062                4.99885249               28.93978184                0.00010000               -1.44833079                0.29411043               -0.23688913                0.23581694               12.66120230                0.27022622
               8.10732997                4.85560976               28.93790565                0.00010000               -1.34520130                0.24622900               -0.33690240                0.10314382               12.28533002                1.21291255
               9.09450659                4.71488431               28.93313194                0.00010000               -1.18497922                0.12659656               -0.45578749                0.08591221               12.20410954                2.26380043
              10.08363038                4.57800492               28.92796270                0.20994494               -0.43257320               -0.07676523               -0.59418159                0.02432044                6.38788421                3.33831878
              11.08585513                4.44247928               28.80501875                0.68485363                0.26751272                0.18731093               -0.87495804                0.02406495                0.29265632                1.34101078
              12.08898064                4.30640393               28.67767992                1.00000000                0.31255079                0.43419253               -1.20772739               -0.02341217                0.07712203               -0.38620607
               2.30782899                6.74733411               29.21866185                1.00000000               -0.10727304               -0.18253537                0.51581899               -0.02468687                0.06332452                0.94979472
               3.30675626                6.59529599               29.08704927                0.59327520               -0.07342203               -0.06151172                0.22834095               -0.00890914                0.26403538               -0.66139311
               4.30636055                6.44274639               28.95938404                0.09708082               -0.29395282                0.06278075               -0.04674026                0.06766351                3.43144013               -2.29269626
               5.30087720                6.29134239               28.89111657                0.00010000               -1.13461382                0.40710993               -0.24004478                0.02288773               11.25482455                0.24488626
               6.28366827                6.14707064               28.91977156                0.00010000               -1.73910989                0.46676920               -0.20697472                0.19660555               15.70471938                0.17393675
               7.26609501                6.00266727               28.93967627                0.00010000               -1.73852666                0.47568572               -0.24402462               -0.05141373               15.11682084                0.63958892
               8.24889774                5.85873696               28.95525618                0.00010000               -1.65907877                0.39033738               -0.30541932               -0.26217974               14.90256988                1.33634171
               9.23291343                5.71646821               28.96919895                0.00010000               -1.50319209                0.20079453               -0.38229463               -0.35448507               14.92674264                2.17592590
              10.21883390                5.57730137               28.98335573                0.22953756               -0.61064826               -0.05685477               -0.47012479               -0.22068804                7.64111521                3.07549982
              11.22070047                5.44424923               28.84958040                0.63378765                0.23708077                0.16911182               -0.79271719                0.03005229                0.15665499                1.24697457
              12.22357551                5.31071861               28.71377200                1.00000000                0.28750484                0.41926938               -1.14001968               -0.01674868                0.06051917               -0.41627022
               2.45901643                7.74576449               29.17994342                1.00000000               -0.06597064               -0.13191967                0.37436165               -0.02350341                0.02495371                0.86975438
               3.45835673                7.59491292               29.04016915                0.54503547               -0.02966019               -0.01691612                0.08117373               -0.00434450                0.16863624               -0.71119355
               4.45842323                7.44361776               28.90319764                0.07384846               -0.53020319                0.10544044               -0.20808982                0.19590339                5.80766272               -2.45222676
               5.44775266                7.29583127               28.87619978                0.00010000               -1.47597084                0.48842849               -0.20401025                0.12100040               14.36393267                0.78906685
               6.42890381                7.15257361               28.91029936                0.00010000               -1.95183188                0.64175628               -0.22609799                0.11853671               17.38401259                0.55232793
               7.40871603                7.00836620               28.94258814                0.00010000               -2.03091936                0.68977888               -0.24307744               -0.23697895               17.29913841                0.78672016
               8.38828543                6.86341651               28.97341668                0.00010000               -1.99317735                0.57735870               -0.26968454               -0.60197826               17.32255946                1.30570686
               9.36885248                6.71890020               29.00432016                0.00010000               -1.84249092                0.31290867               -0.30908018               -0.82735972               17.48635538                2.00061113
              10.35143561                6.57686782               29.03643225                0.25727537               -0.79067709               -0.02779101               -0.35555170               -0.51052995                8.87093460                2.81143108
              11.35303894                6.44586152               28.89307053                0.60860967                0.21356483                0.15922605               -0.71650075                0.01314629                0.07120209                1.10847193
              12.35570690                6.31478932               28.74890582                1.00000000                0.26679671                0.39122342               -1.07999731               -0.00831716                0.03888321               -0.52616778
               2.60906207                8.74469572               29.14082475                1.00000000               -0.02459718               -0.08305399                0.23515803               -0.02273826                0.00827857                0.85865871
               3.60881610                8.59495767               28.99312891                0.54427981                0.01490948                0.02522825               -0.06345213                0.00009932                0.05143199               -0.71080716
               4.60936026                8.44485520               28.84622039                0.05297831               -0.72373708                0.13835169               -0.36399645                0.34639331                8.12607997               -2.33445129
               5.59434136                8.30111096               28.86000114                0.00010000               -1.79280922                0.61986037               -0.20822329                0.41427775               17.61983961                0.54049049
               6.57350408                8.15990576               28.90259986                0.00010000               -2.19144135                0.85765698               -0.25224478                0.19750571               19.17426951                0.53012388
               7.55051253                8.01646285               28.94604121                0.00010000               -2.35899522                0.92821639               -0.24443030               -0.27887197               19.36883449                0.68587502
               8.52632417                7.87028413               28.99081689                0.00010000               -2.37988066                0.86208783               -0.22654737               -0.81228129               19.62009890                1.07824070
               9.50291492                7.72272639               29.03746618                0.01955605               -2.23310947                0.50831307               -0.23441337               -1.33367699               19.94497632                1.76194223
              10.48166198                7.57674555               29.08682400                0.29031576               -0.99365128                0.00683824               -0.27030982               -0.84522701               10.10622692                2.44790611
              11.48304189                7.44743375               28.93494497                0.60618024                0.19457897                0.16029020               -0.65652280               -0.00998062                0.03581974                0.95372769
              12.48555356                7.31854308               28.78258570                1.00000000                0.25116699                0.35811065               -1.03503089               -0.00129957                0.02239349               -0.67149463
               2.75803777                9.74410341               29.10183310                1.00000000                0.01614603               -0.03732033                0.09863107               -0.02246253               -0.01245396                0.74800515
               3.75819923                9.59541748               28.94617907                0.56884432                0.05800179                0.06661816               -0.20648813                0.00167437                0.07914438               -0.60279196
               4.75919781                9.44638479               28.79227616                0.01331829               -0.86057885                0.16822830               -0.50845599                0.57080510               10.28328720               -1.59072626
               5.74098766                9.30822848               28.84067165                0.00010000               -2.08478850                0.93820566               -0.33562516                0.56905452               20.67767686                0.25829940
               6.71750204                9.16972675               28.89335024                0.00010000               -2.41137186                1.04193891               -0.30646851                0.23403246               21.06498144                0.29204434
               7.69276022                9.02693053               28.94762652                0.00010000               -2.58628904                1.10849027               -0.26021817               -0.16998359               21.39385217                0.39006034
               8.66577626                8.88065826               29.00514152                0.00010000               -2.85213493                1.12843392               -0.19047388               -0.68682324               21.91484886                0.61840136
               9.63571752                8.72906646               29.06831296                0.05257264               -2.79762764                1.02038973               -0.08494251               -1.38211365               22.31556300                1.17659532
              10.60982371                8.57700459               29.13261587                0.32657400               -1.23378612                0.05618695               -0.22070640               -1.22770554               11.37303493                1.57496779
              11.61104180                8.44906732               28.97525895                0.62066809                0.18192768                0.16788544               -0.61675574               -0.03049858                0.14149973                0.72049287
              12.61346226                8.32195154               28.81457224                1.00000000                0.24204606                0.32687774               -1.00647941                0.00047025               -0.01088645               -0.67204720
               2.90598468               10.74394931               29.06042078                1.00000000                0.05835223               -0.01540965               -0.03574551                0.02876279                0.41052510                0.63215244
               3.90656821               10.59629003               28.90123012                0.82170095                0.09903416                0.08725516               -0.34605969                0.05041988                0.81833303               -0.49955163
               4.90796537               10.44821977               28.75010909                0.50510318               -1.20938570                0.18349737               -0.64318229                1.05600763               12.23665766               -0.99948314
               5.88238049               10.31987507               28.81924153                0.36736152               -2.42413448                1.16465911               -0.48156533                0.76552225               23.07798809                0.10897923
               6.85948268               10.18074454               28.88154846                0.35740689               -2.30995714                1.10177901               -0.37871023                0.13594284               22.94451420                0.13382088
               7.83618135               10.03863265               28.94577298                0.37282733               -2.45154518                1.17021217               -0.29974077               -0.05247365               23.32194062                0.19475940
               8.81045177                9.89285281               29.01391596                0.41224316               -2.86275141                1.21945461               -0.19239413               -0.30737191               23.99536079                0.32775852
               9.77892632                9.74313418               29.09032293                0.54067023               -3.66723792                1.40677178                0.01223707               -1.42829603               24.35624206                0.72030014
              10.73710702                9.57786929               29.16529969                0.68459429               -2.07206723                0.08647001               -0.21221336               -1.88880520               12.91622345                0.93988232
              11.73748498                9.45079146               29.01222954                0.82926192                0.13437642                0.17241361               -0.59412270                0.00488491                0.97581555                0.57146877
              12.73979454                9.32508063               28.84798291                0.98560174                0.23095672                0.31290967               -0.98452743                0.06214576                0.43477133               -0.58617155
               1.46296018                0.81335734               30.43998803                1.00000000               -0.34310315               -0.36864868                1.28363229               -0.06226316               -0.90119083                0.92518804
               2.45952915                0.64729554               30.34358593                1.00000000               -0.29448210               -0.29003186                1.03203801               -0.04653328               -1.16644273                0.09876559
               3.45707054                0.48089347               30.24185247                1.00000000               -0.18489745               -0.21273951                0.77103979               -0.04214705               -1.12825513               -0.20934617
               4.45583120                0.31486598               30.14623786                0.62607574                0.15303717               -0.16589046                0.51814070                0.28410070               -0.26974058               -0.79948302
               5.46013128                0.15620715               30.06182682                0.71572129                0.28922920               -0.06666447                0.24029862               -0.06757563                0.09206344                0.25551396
               6.46161578                0.00315122               29.97460725                0.79860183                0.12967875                0.01997116               -0.03609049               -0.02262483               -0.23862071                0.14891253
               7.46272486               -0.14852847               29.88385441                0.77470791                0.13357706                0.09542721               -0.31175473               -0.00640368               -0.46520693               -0.07767351
               8.46428733               -0.29963972               29.79206921                0.86004118                0.17823837                0.18084278               -0.59508115               -0.01080555               -0.72740462                0.10616084
               9.46628963               -0.45113498               29.69579287                1.00000000                0.24537966                0.26344674               -0.87368794               -0.01247469               -1.03267737                0.55185164
              10.46919492               -0.60322425               29.59762366                1.00000000                0.33377745                0.34037976               -1.14205998               -0.03282545               -1.01249064                0.00258856
              11.47296517               -0.75544559               29.50167171                1.00000000                0.37702549                0.42599626               -1.40206095               -0.04136854               -0.90206382               -0.89599127
               1.62839935                1.80967085               30.40025980                1.00000000               -0.31035993               -0.35213703                1.15543467               -0.02124472               -0.13156189                1.26102236
               2.62529575                1.64439522               30.30356885                1.00000000               -0.27677515               -0.26954242                0.90475323               -0.00367231               -0.13804295                0.13722200
               3.62286385                1.47876608               30.20671387                0.90289868               -0.21401916               -0.18803727                0.64317426                0.00264092                0.02440070               -0.54283883
               4.62101537                1.31320708               30.11323089                0.21638788               -0.37754686               -0.14661647                0.38148430                0.40611906                1.62909436               -1.17771256
               5.61531291                1.15554051               30.04839849                0.38042025               -0.36290087                0.03341915                0.15790389               -0.07079137                2.44158966                1.05622358
               6.61375735                1.00335093               29.96983605                0.48618771               -0.06283089                0.07008399               -0.10177765                0.07460412                1.53975159                0.46987890
               7.61405629                0.85242580               29.88659342                0.38879142                0.08625879                0.10080145               -0.36290293                0.12244918                1.45165624               -0.33177377
               8.61548252                0.70216871               29.80628924                0.51009451                0.19504256                0.19612131               -0.62196501                0.09549860                1.47553896                0.57407249
               9.61795714                0.55149949               29.72377643                1.00000000                0.27697230                0.26029022               -0.86454279                0.04276390                0.75300349                0.79836445
              10.62102197                0.40017955               29.62922962                1.00000000                0.34078441                0.33498086               -1.12406064                0.00899265                0.08680885                0.11734887
              11.62477283                0.24881437               29.53339577                1.00000000                0.37508597                0.43078005               -1.38208143                0.00092800                0.02317778               -1.05167205
               1.79308655                2.80631460               30.36722432                1.00000000               -0.27260719               -0.32464396                1.03708425               -0.01374124                0.04498077                1.59989942
               2.79036048                2.64190469               30.26430867                1.00000000               -0.23875256               -0.23344045                0.78181784                0.00911395                0.22103476                0.11645793
               3.78831150                2.47713273               30.16489515                0.57230702               -0.15906642               -0.14592531                0.52760616                0.01140236                0.75104726               -1.32532378
               4.78717915                2.31193365               30.07258517                0.00010000               -0.98699469               -0.11457426                0.24153556                0.56343861                4.64199987               -2.01909373
               5.76857160                2.15687554               30.05107087                0.00010000               -1.04782866                0.05582153                0.07237212                0.97737134                5.51506694               -1.18417088
               6.76622258                2.00455290               29.97152801                0.00010000               -0.11077693               -0.07535084               -0.16935855                0.76699706                2.24613918               -0.18986267
               7.76635607                1.85348756               29.88428570                0.00010000                0.04505178               -0.09323822               -0.39646740                0.59671278                3.49679954                0.64126245
               8.76712361                1.70428271               29.82989656                0.00010000                0.13889980               -0.04786956               -0.67912366                0.38210610                4.15601802                1.20759608
               9.76913406                1.55407083               29.75674153                0.50580405                0.24681389                0.24535732               -0.85348202                0.01965699                2.17353085                1.63364577
              10.77205989                1.40347537               29.66314332                1.00000000                0.32900130                0.31124121               -1.09624533               -0.00567917                0.77513797                0.76517512
              11.77571409                1.25317001               29.56197482                1.00000000                0.36541985                0.44041755               -1.36675055               -0.00421669                0.39896410               -1.03037406
               1.95694434                3.80317797               30.33426739                1.00000000               -0.22844393               -0.30255193                0.91668914               -0.01253792                0.09364552                1.51778967
               2.95465990                3.63972641               30.22386121                1.00000000               -0.19407048               -0.20021150                0.65762804                0.00895562                0.12755465               -0.02675179
               3.95306293                3.47584757               30.11409072                0.34283096               -0.10592855               -0.10297562                0.40697551               -0.02515449                1.07205598               -1.67782648
               4.95254133                3.31091559               30.02256092                0.00010000               -0.54109185               -0.05823470                0.14767126                0.49690242                5.07952082               -2.72681821
               5.94224109                3.15665694               29.99314621                0.00010000               -1.00280291               -0.02053171               -0.02202563                1.31958879                7.74914333               -3.05262117
               6.93248527                3.00184391               29.95367756                0.00010000               -0.79901752               -0.10287989               -0.20091707                1.02049440                6.93265357               -0.82976963
               7.92626074                2.85056104               29.90629392                0.00010000               -0.49719446               -0.16561741               -0.39824610                0.77639933                6.46717011                1.41192275
               8.92254138                2.70121132               29.85660876                0.00010000               -0.35515608               -0.17392378               -0.59639601                0.63186148                6.11103202                1.79838488
               9.91915762                2.55640664               29.80138551                0.22989297               -0.03660886                0.09871115               -0.80081754                0.15323330                3.94746520                3.06315157
              10.92180920                2.40640437               29.70768662                0.97156257                0.30707967                0.27392971               -1.03390281               -0.05322662                1.02976126                1.20431699
              11.92529921                2.25762272               29.59395812                1.00000000                0.34900096                0.43777060               -1.31746633               -0.00856926                0.03750296               -0.67609617
               2.11973891                4.80026356               30.29960019                1.00000000               -0.18689221               -0.27374153                0.78679530               -0.02024953                0.14056642                1.31911912
               3.11786999                4.63790046               30.18170824                0.85168657               -0.15598439               -0.15810290                0.52519508               -0.00197007                0.21112281               -0.24985580
               4.11661922                4.47507321               30.06517145                0.20082112               -0.07810815               -0.04753635                0.27586059               -0.06051823                1.22348452               -1.68576608
               5.11630783                4.31076896               29.96751043                0.00010000               -0.62920822                0.07103418                0.02233043                0.31677870                6.61645268               -2.72069604
               6.10403506                4.15646490               29.95903162                0.00010000               -1.17897300                0.07963615               -0.09774900                0.60575684               10.72730865               -1.40649228
               7.09272837                4.00249530               29.94245768                0.00010000               -1.07592049                0.12842410               -0.23122862                0.47947521               10.04290152               -0.20788065
               8.08251665                3.85017521               29.91907390                0.00010000               -0.94065619                0.05866627               -0.38148416                0.35553511                9.56716623                1.06924217
               9.07391524                3.70080423               29.89154791                0.00010000               -0.77554900                0.01314828               -0.54514670                0.32277326                9.38261180                2.29223353
              10.06700567                3.55604505               29.86302915                0.19936344               -0.20679871               -0.08017695               -0.72906349                0.11085288                5.20408748                3.74541824
              11.06977927                3.40895396               29.75040624                0.75461854                0.30501659                0.22567621               -0.95638164               -0.01726813                0.58994725                1.26804219
              12.07310600                3.26192542               29.62932151                1.00000000                0.33267334                0.43753592               -1.26613661               -0.03049141                0.17544143               -0.44698398
               2.28126554                5.79770314               30.26268637                1.00000000               -0.14547028               -0.23207455                0.64781003               -0.02543477                0.12951947                1.10537648
               3.27981084                5.63656435               30.13676485                0.68713268               -0.11407405               -0.10724607                0.37170121               -0.01036466                0.29899318               -0.51303869
               4.27898406                5.47489684               30.01416717                0.13375004               -0.11628145                0.01386287                0.11269687               -0.03866686                1.76278348               -1.99808459
               5.27748521                5.31233628               29.91751514                0.00010000               -0.81770877                0.24673096               -0.12218275                0.08449677                8.71671157               -1.40590347
               6.26262989                5.15824966               29.93398201                0.00010000               -1.45603728                0.27217116               -0.15978333                0.29801385               13.76841946               -0.51497418
               7.24836447                5.00441240               29.93736361                0.00010000               -1.37836863                0.27476646               -0.24873718                0.09163611               12.86570936                0.32892410
               8.23506251                4.85173436               29.93443269                0.00010000               -1.26187296                0.21934835               -0.36006828               -0.03338554               12.48055443                1.28848036
               9.22312701                4.70147428               29.92843709                0.00010000               -1.09187853                0.09647750               -0.48504154               -0.05131868               12.39363743                2.35608507
              10.21322494                4.55480310               29.92187725                0.20423356               -0.37717703               -0.11260814               -0.62583175               -0.03833316                6.51222186                3.45280327
              11.21558347                4.41091790               29.79619807                0.66567362                0.27607605                0.18202272               -0.88631864                0.02937063                0.32287411                1.39606731
              12.21874646                4.26637344               29.66555334                1.00000000                0.31629983                0.44215284               -1.21492275               -0.02327958                0.07840128               -0.36543492
               2.44150779                6.79562207               30.22375879                1.00000000               -0.10387992               -0.18196723                0.50338143               -0.02478187                0.06247450                0.94383974
               3.44046899                6.63575554               30.08929314                0.58698806               -0.07169157               -0.05748332                0.22037555               -0.01015344                0.26955971               -0.67947052
               4.44007396                6.47535047               29.95890048                0.09612228               -0.29120257                0.07003320               -0.04990854                0.04558514                3.49765591               -2.33010089
               5.43464494                6.31570358               29.88899837                0.00010000               -1.10773714                0.37423963               -0.18348611               -0.08134466               11.45901325                0.34068324
               6.41791922                6.16190833               29.91777527                0.00010000               -1.67842761                0.44285306               -0.19406847                0.03766653               15.98066170                0.23539403
               7.40107639                6.00799063               29.93718924                0.00010000               -1.65660825                0.44739918               -0.25576009               -0.19691919               15.36669011                0.70424143
               8.38478705                5.85456218               29.95208228                0.00010000               -1.56281270                0.35776975               -0.33185820               -0.39880318               15.15036646                1.41463603
               9.36982014                5.70273378               29.96521545                0.00010000               -1.39958313                0.16917558               -0.41662626               -0.49606853               15.17693595                2.27035631
              10.35679539                5.55379289               29.97847574                0.22392355               -0.55119001               -0.07942692               -0.50687088               -0.28882921                7.78563093                3.18981364
              11.35879634                5.41259442               29.84156873                0.61568802                0.24669652                0.16216881               -0.80900439                0.03596097                0.17308400                1.30621751
              12.36172932                5.27076848               29.70231631                1.00000000                0.29329858                0.42865946               -1.15228096               -0.01624416                0.06197203               -0.38493211
               2.60050296                7.79406380               30.18361752                1.00000000               -0.06235960               -0.13002289                0.36015628               -0.02369125                0.02425690                0.86540928
               3.59987937                7.63541469               30.04093871                0.53978647               -0.02776197               -0.01283589                0.07259513               -0.00551898                0.17007317               -0.72591713
               4.59994772                7.47629751               29.90110299                0.07170245               -0.52894520                0.11201357               -0.21078316                0.15052320                5.97319553               -2.48524118
               5.58930046                7.31982107               29.87448437                0.00010000               -1.44257786                0.45513467               -0.14204496                0.00311066               14.64985284                0.90757596
               6.57109617                7.16710672               29.90810938                0.00010000               -1.87641159                0.60914911               -0.21506146               -0.02639869               17.65218488                0.61296764
               7.55177223                7.01336038               29.94010010                0.00010000               -1.93764326                0.65508895               -0.25745875               -0.37532382               17.58874469                0.84902236
               8.53234330                6.85888976               29.97058535                0.00010000               -1.88986517                0.54065818               -0.29929850               -0.73550888               17.61994950                1.38667167
               9.51397493                6.70485779               30.00104806                0.00010000               -1.73777896                0.28411199               -0.34725498               -0.96471595               17.79066778                2.09390934
              10.49758772                6.55321456               30.03267940                0.25254465               -0.73239177               -0.03462545               -0.39535191               -0.58092414                9.02986008                2.90652486
              11.49932709                6.41416127               29.88576808                0.59134006                0.22428676                0.15929100               -0.74444935                0.01696412                0.07317032                1.15564187
              12.50207346                6.27494663               29.73800678                1.00000000                0.27463648                0.40300272               -1.10214884               -0.00678902                0.03873954               -0.50719985
               2.75833219                8.79302161               30.14309860                1.00000000               -0.02072855               -0.07959902                0.21920690               -0.02294396                0.00785045                0.85704118
               3.75812490                8.63549882               29.99244909                0.53969220                0.01729267                0.02892409               -0.07272227               -0.00088377                0.05021391               -0.72335999
               4.75867804                8.47759074               29.84256821                0.04988916               -0.71134821                0.14253250               -0.36683803                0.28351304                8.35942051               -2.35967008
               5.74389794                8.32480627               29.85808302                0.00010000               -1.74130527                0.59487866               -0.18380808                0.30217743               17.98490305                0.56455553
               6.72385194                8.17409131               29.90009370                0.00010000               -2.10555287                0.82341479               -0.25318062                0.07809531               19.46541801                0.56797825
               7.70178688                8.02109241               29.94351420                0.00010000               -2.26362365                0.89399922               -0.26448840               -0.39579161               19.70887953                0.73525389
               8.67857946                7.86537534               29.98841416                0.00010000               -2.27929319                0.82767293               -0.25713593               -0.93028515               19.96907456                1.15535060
               9.65620102                7.70841602               30.03493251                0.02064676               -2.13530174                0.47916294               -0.27445785               -1.46150996               20.28248177                1.89659859
              10.63587343                7.55310038               30.08388508                0.28712764               -0.93987359                0.01352092               -0.31667019               -0.90946995               10.26865885                2.50914243
              11.63740354                7.41578024               29.92818246                0.58876386                0.20746991                0.16888431               -0.69667799               -0.00840685                0.03059370                0.98426307
              12.64002283                7.27882853               29.77208366                0.99553325                0.26192811                0.37142212               -1.06804323                0.00096579                0.02186289               -0.66628534
               2.91508966                9.79247182               30.10273388                1.00000000                0.02028971               -0.03247698                0.08095734               -0.02261338               -0.01340669                0.74934816
               3.91529256                9.63599317               29.94406478                0.56419758                0.06104356                0.06991341               -0.21649254                0.00086516                0.07931063               -0.61284324
               4.91631053                9.47914816               29.78716523                0.01142675               -0.82245560                0.17067057               -0.51463664                0.49701233               10.52175407               -1.60675687
               5.89884345                9.33171864               29.83730288                0.00010000               -1.99692977                0.90457475               -0.34432104                0.48258039               21.09573564                0.21737524
               6.87637194                9.18357502               29.89023008                0.00010000               -2.31355394                1.00904549               -0.32211064                0.15605106               21.43180897                0.30609188
               7.85257237                9.03124036               29.94490673                0.00010000               -2.49789741                1.08017583               -0.28788909               -0.24161211               21.79623817                0.41731893
               8.82641399                8.87544322               30.00309977                0.00010000               -2.77763370                1.10616141               -0.22185538               -0.76612269               22.36562812                0.66832464
               9.79701969                8.71444105               30.06738924                0.05688664               -2.71899414                0.99642016               -0.10237372               -1.47065173               22.66402266                1.32060497
              10.77203410                8.55348498               30.13010759                0.32576896               -1.17944471                0.07260646               -0.27991853               -1.27241318               11.48356098                1.59636419
              11.77343080                8.41753896               29.96882733                0.60179313                0.19810372                0.18344157               -0.67029675               -0.02983062                0.13890972                0.73312890
              12.77599618                8.28237507               29.80429920                0.97871867                0.25653811                0.34157281               -1.05083614                0.00302402               -0.00854631               -0.67645090
               3.07083721               10.79237207               30.05997185                1.00000000                0.06286478               -0.00997461               -0.05486822                0.02725741                0.41072428                0.63513036
               4.07146586               10.63689709               29.89771590                0.81963951                0.10277983                0.09039210               -0.35665491                0.04893479                0.82447387               -0.50799259
               5.07289281               10.48100415               29.74364080                0.50337032               -1.11715901                0.18559966               -0.65025765                0.95826197               12.47673116               -1.01158105
               6.04912268               10.34289777               29.81435447                0.36764854               -2.27207877                1.11791246               -0.49863183                0.69132694               23.53709048                0.05993756
               7.02745124               10.19427222               29.87765401                0.35757381               -2.20181200                1.06971980               -0.40498821                0.09783788               23.38266684                0.13730331
               8.00508644               10.04269593               29.94261866                0.37262137               -2.36974578                1.14555620               -0.33584985               -0.08727487               23.77974848                0.20804487
               8.98005632                9.88749857               30.01183022                0.41145484               -2.81701104                1.20553532               -0.22961983               -0.35334192               24.53728766                0.35688326
               9.94874622                9.72834442               30.09043735                0.54397261               -3.63645322                1.39033708                0.00646358               -1.47465025               24.71946137                0.83319516
              10.90732726                9.55455251               30.16280115                0.68521432               -2.04146933                0.10675300               -0.28728900               -1.91545262               12.99320141                0.94004238
              11.90791683                9.41944907               30.00595141                0.81917894                0.15419114                0.19101088               -0.66298432                0.00397786                0.99221270                0.57612467
              12.91041108                9.28565999               29.83786875                0.98528119                0.24942437                0.32849165               -1.04164073                0.06258207                0.44969073               -0.59210149
               1.55154829                0.86303655               31.45279787                1.00000000               -0.34148966               -0.36750734                1.27837201               -0.06092645               -0.91461525                0.93781638
               2.54813340                0.68896170               31.35388825                1.00000000               -0.29404322               -0.28988023                1.02900815               -0.04322584               -1.18500299                0.10351142
               3.54566743                0.51458003               31.24955298                1.00000000               -0.18933073               -0.21172290                0.76800906               -0.03826758               -1.14895566               -0.21419068
               4.54434678                0.34050602               31.15140457                0.62476770                0.11824865               -0.15775303                0.51279857                0.23745225               -0.29906176               -0.81769592
               5.54803240                0.17267162               31.06423377                0.71823307                0.25243879               -0.07171290                0.24013556               -0.07021395                0.05146278                0.26613038
               6.54939556                0.00976533               30.97426464                0.80127433                0.12447226                0.01758894               -0.03166377               -0.02829317               -0.27499246                0.15334208
               7.55052185               -0.15179634               30.88076870                0.77749064                0.14108396                0.09314237               -0.30331102               -0.01047988               -0.50583908               -0.07764232
               8.55221724               -0.31266995               30.78614866                0.85802344                0.19190546                0.17895307               -0.58643843               -0.01787154               -0.77240218                0.10560577
               9.55435996               -0.47359322               30.68708376                1.00000000                0.25429003                0.26056092               -0.86541696               -0.01772472               -1.07035242                0.56333137
              10.55730304               -0.63491160               30.58623144                1.00000000                0.33532781                0.33974390               -1.13469615               -0.03159141               -1.04159744               -0.00029791
              11.56106651               -0.79635437               30.48767568                1.00000000                0.37634748                0.42807527               -1.39652544               -0.03805167               -0.92790068               -0.92060474
               1.72501388                1.85936148               31.41178603                1.00000000               -0.30844807               -0.35156057                1.14972045               -0.02055068               -0.13441857                1.27830517
               2.72192940                1.68606290               31.31259863                1.00000000               -0.27506449               -0.26920529                0.90114578               -0.00094164               -0.14605367                0.14404230
               3.71951259                1.51246280               31.21313416                0.89592437               -0.21269477               -0.18732743                0.64503505                0.00667589                0.01292138               -0.54420438
               4.71767551                1.33892849               31.11709388                0.22098914               -0.34059922               -0.13470363                0.39572946                0.34146141                1.63452454               -1.20399702
               5.71270061                1.17195450               31.05002643                0.38882877               -0.31644475                0.02299491                0.16193096               -0.06926631                2.45092413                1.05961622
               6.71134661                1.00994122               30.96883563                0.49432233               -0.05329580                0.06594449               -0.09924258                0.06259639                1.53265285                0.46959779
               7.71163469                0.84913508               30.88297720                0.39829434                0.07951743                0.10449370               -0.35954352                0.10861605                1.44653248               -0.32338359
               8.71293696                0.68911958               30.80004949                0.51323317                0.18344219                0.19962120               -0.62522201                0.07530361                1.48193823                0.55636223
               9.71530354                0.52901239               30.71511199                1.00000000                0.27153714                0.26019925               -0.86893618                0.03208396                0.76031278                0.80943106
              10.71836770                0.36848583               30.61796821                1.00000000                0.34126148                0.33556994               -1.12918175                0.00990507                0.08627130                0.11981359
              11.72212877                0.20792638               30.51955074                1.00000000                0.37610626                0.43659204               -1.38902565                0.00420886                0.02366341               -1.07686775
               1.89773444                2.85600534               31.37756671                1.00000000               -0.27211983               -0.32510863                1.03085819               -0.01316644                0.04727782                1.61989354
               2.89501324                2.68357759               31.27211307                1.00000000               -0.23995455               -0.23239090                0.77902499                0.01196020                0.22192252                0.12354973
               3.89293535                2.51083348               31.17010543                0.58124577               -0.16644664               -0.14536984                0.52051936                0.02348307                0.73583360               -1.32182285
               4.89168431                2.33781195               31.07494163                0.00010000               -0.86505032               -0.10365347                0.24203452                0.48554045                4.66990419               -2.02452308
               5.87563435                2.17313152               31.05177743                0.00010000               -0.91087053                0.03279197                0.05636916                0.80417924                5.57573173               -1.19306259
               6.87346690                2.01108422               30.96978943                0.00010000               -0.10592664               -0.07455995               -0.17800900                0.62240873                2.28131439               -0.17464273
               7.87351581                1.85029353               30.88032926                0.00010000                0.01895486               -0.07973890               -0.39641155                0.47486734                3.50998228                0.67098438
               8.87384600                1.69132247               30.82302239                0.00010000                0.10597832               -0.03075487               -0.69548756                0.29688152                4.20081997                1.24604163
               9.87563538                1.53161077               30.74813512                0.50388235                0.23705769                0.24447348               -0.86992408               -0.01257261                2.24423820                1.66926557
              10.87858715                1.37179979               30.65211934                1.00000000                0.33171103                0.31364255               -1.11277428               -0.01478541                0.79844775                0.78841331
              11.88226960                1.21237747               30.54824516                1.00000000                0.36824474                0.45322574               -1.38511429               -0.00332131                0.40928573               -1.03998121
               2.06960605                3.85285930               31.34340123                1.00000000               -0.22655802               -0.30355502                0.90949984               -0.01164885                0.09893152                1.53033636
               3.06734047                3.68141508               31.23041101                1.00000000               -0.19290751               -0.19863662                0.65261087                0.01163248                0.13762304               -0.02516979
               4.06574790                3.50955540               31.11814258                0.34641737               -0.11260989               -0.10190881                0.40413677               -0.00941653                1.08308819               -1.67926077
               5.06508827                3.33685542               31.02405953                0.00010000               -0.51179890               -0.05699557                0.15452445                0.41370322                5.12960738               -2.72661199
               6.05551192                3.17261034               30.99287629                0.00010000               -0.92277459               -0.03430803               -0.03266326                1.05954709                7.84296719               -3.04723080
               7.04663278                3.00845002               30.95161278                0.00010000               -0.73090647               -0.10714164               -0.21520582                0.80145084                7.01968712               -0.78777168
               8.04089379                2.84754030               30.90223139                0.00010000               -0.45377121               -0.16175415               -0.41714903                0.58292149                6.55042805                1.46712260
               9.03755735                2.68850448               30.85055760                0.00010000               -0.31595150               -0.16849211               -0.61712504                0.49014429                6.19896675                1.89381504
              10.03457476                2.53390186               30.79330660                0.22578420               -0.01260295                0.08212630               -0.81578449                0.08923496                4.01916987                3.12742863
              11.03730529                2.37475869               30.69715306                0.94998811                0.31661158                0.27763018               -1.06792811               -0.06866720                1.06590743                1.26119518
              12.04090699                2.21699089               30.58059793                1.00000000                0.36016973                0.45611961               -1.35233124               -0.01169090                0.05501328               -0.66433679
               2.24038992                4.84993424               31.30742480                1.00000000               -0.18401210               -0.27475884                0.77770354               -0.01987305                0.15013819                1.32142283
               3.23854980                4.67960486               31.18693002                0.84355961               -0.15416212               -0.15587983                0.51898307               -0.00165763                0.22708223               -0.26224651
               4.23730668                4.50879530               31.06791259                0.20163680               -0.08231789               -0.04419891                0.27257076               -0.05294922                1.24619681               -1.70924772
               5.23690344                4.33667204               30.96778852                0.00010000               -0.60379955                0.06138217                0.03395326                0.23501677                6.71074112               -2.75527459
               6.22523069                4.17244536               30.95802683                0.00010000               -1.11687452                0.07923802               -0.10371280                0.42869687               10.87344748               -1.37801790
               7.21456595                4.00894139               30.94007349                0.00010000               -1.00554506                0.11246936               -0.24780491                0.31272192               10.18151943               -0.15647079
               8.20511979                3.84705845               30.91515236                0.00010000               -0.86393126                0.04153421               -0.40664691                0.19925163                9.70088819                1.14123344
               9.19728733                3.68795263               30.88597271                0.00010000               -0.69769561               -0.00830055               -0.57340924                0.17861368                9.51329618                2.37548845
              10.19116587                3.53325329               30.85563855                0.19386373               -0.15812750               -0.11437332               -0.75258573                0.04694223                5.31193038                3.82971350
              11.19412478                3.37735240               30.74067675                0.73327335                0.32027451                0.22397267               -0.98625490               -0.02111017                0.63646624                1.34177380
              12.19757136                3.22149986               30.61643669                1.00000000                0.34465879                0.45547703               -1.30024559               -0.03869688                0.18067394               -0.41618801
               2.40986734                5.84736413               31.26911121                1.00000000               -0.14210921               -0.23272390                0.63677764               -0.02567144                0.13042936                1.10005488
               3.40844625                5.67829748               31.14044563                0.67993205               -0.11228044               -0.10360660                0.36437268               -0.01183678                0.30875129               -0.53409563
               4.40762174                5.50867142               31.01527867                0.13325543               -0.11538543                0.02066293                0.10959443               -0.04563295                1.79948157               -2.03574374
               5.40613854                5.33808306               30.91642881                0.00010000               -0.79026154                0.22573925               -0.10062030               -0.00985449                8.85750881               -1.39212339
               6.39181650                5.17419510               30.93240441                0.00010000               -1.39322066                0.26028970               -0.15740907                0.12381521               13.97796576               -0.46488636
               7.37827413                5.01069941               30.93480710                0.00010000               -1.29744608                0.25371094               -0.26540273               -0.06341297               13.05170818                0.39228259
               8.36586758                4.84837099               30.93070428                0.00010000               -1.16696744                0.19092867               -0.38938460               -0.18009354               12.66354411                1.36630143
               9.35493478                4.68833847               30.92343111                0.00010000               -0.98768738                0.06558704               -0.52062812               -0.19926175               12.57639872                2.44842279
              10.34611384                4.53161440               30.91544607                0.19785984               -0.31491282               -0.14789001               -0.66362291               -0.10364837                6.64632766                3.56198637
              11.34863652                4.37923814               30.78729238                0.64478657                0.28621471                0.17255886               -0.89568626                0.03414239                0.36726462                1.46114186
              12.35183813                4.22610044               30.65338147                1.00000000                0.32016046                0.45333310               -1.22278669               -0.02634830                0.08407816               -0.32547793
               2.57800978                6.84527976               31.22872948                1.00000000               -0.10040152               -0.18156287                0.49043055               -0.02511088                0.06167959                0.93626432
               3.57700577                6.67753273               31.09145678                0.58065474               -0.07006748               -0.05294284                0.21225240               -0.01223644                0.27526564               -0.69679517
               4.57660843                6.50920856               30.95838587                0.09450622               -0.29115458                0.07868894               -0.05295858                0.01869171                3.59156543               -2.36496068
               5.57118268                6.34118682               30.88744685                0.00010000               -1.07588944                0.34075394               -0.12839990               -0.19763080               11.66675607                0.45028321
               6.55509065                6.17765116               30.91589019                0.00010000               -1.60304388                0.41597175               -0.18603945               -0.13279672               16.21651135                0.30065756
               7.53912180                6.01401561               30.93456107                0.00010000               -1.56058954                0.41611366               -0.27331402               -0.35166579               15.59171189                0.77222218
               8.52387886                5.85087702               30.94861902                0.00010000               -1.45315588                0.32235373               -0.36474965               -0.54411807               15.38246680                1.49632200
               9.51005868                5.68926437               30.96086643                0.00010000               -1.28428095                0.13614321               -0.45730891               -0.64722642               15.41896903                2.36816130
              10.49819324                5.53029549               30.97321831                0.21749264               -0.48685495               -0.10127029               -0.54861100               -0.36309193                7.93729238                3.30957191
              11.50032158                5.38080357               30.83340031                0.59658007                0.25632843                0.15612459               -0.82723051                0.04047326                0.19871072                1.36296365
              12.50331980                5.23056652               30.69072638                1.00000000                0.29982212                0.43887707               -1.17013818               -0.01539770                0.06283790               -0.35371005
               2.74485919                7.84373287               31.18714654                1.00000000               -0.05864683               -0.12797883                0.34533469               -0.02400877                0.02356459                0.85969224
               3.74427272                7.67723862               31.04162106                0.53423995               -0.02588585               -0.00841657                0.06368595               -0.00713371                0.17163540               -0.73973939
               4.74434147                7.51024520               30.89898197                0.06909009               -0.52646966                0.11954962               -0.21365851                0.09829130                6.16682267               -2.51581378
               5.73374333                7.34489814               30.87335888                0.00010000               -1.40048455                0.41983706               -0.08807838               -0.11997087               14.93741799                1.00692826
               6.71633178                7.18251453               30.90599813                0.00010000               -1.78641908                0.57467332               -0.21142325               -0.17929245               17.87714972                0.66930134
               7.69801495                7.01902168               30.93743896                0.00010000               -1.82976620                0.61728421               -0.27886057               -0.52242991               17.85232049                0.91246654
               8.67973646                6.85481806               30.96743071                0.00010000               -1.77215842                0.49998479               -0.33576062               -0.87759229               17.90024644                1.47262695
               9.66257178                6.69106133               30.99737506                0.00010000               -1.62118345                0.25264054               -0.39088253               -1.10970603               18.08619756                2.19335820
              10.64731279                6.52958899               31.02852521                0.24697792               -0.66984094               -0.03976435               -0.43745485               -0.65543639                9.19025823                3.00908582
              11.64917496                6.38236063               30.87818155                0.57350007                0.23457449                0.16280906               -0.77540724                0.02112962                0.07863697                1.20278268
              12.65200428                6.23487798               30.72686284                0.99392805                0.28293192                0.41792158               -1.13171367               -0.00483442                0.03874563               -0.48539006
               2.91051810                8.84272018               31.14520889                1.00000000               -0.01673364               -0.07578742                0.20251978               -0.02314662                0.00737047                0.85407951
               3.91035076                8.67736440               30.99167447                0.53506424                0.01983202                0.03275909               -0.08246187               -0.00196318                0.04860720               -0.73488225
               4.91091474                8.51159955               30.83888363                0.04684508               -0.69184171                0.14659320               -0.37145797                0.21362430                8.59860079               -2.38411940
               5.89651393                8.34958356               30.85632497                0.00010000               -1.67667417                0.57031924               -0.17659794                0.18196305               18.34381391                0.55555281
               6.87738126                8.18914462               30.89753624                0.00010000               -2.00721298                0.78868752               -0.26330467               -0.05098453               19.72946850                0.59732001
               7.85636967                8.02636129               30.94075144                0.00010000               -2.15469494                0.85753812               -0.29285641               -0.52337812               20.02675402                0.78426312
               8.83428736                7.86087672               30.98567417                0.00010000               -2.16380183                0.78953151               -0.29583334               -1.05871279               20.30127707                1.23881787
               9.81309363                7.69431718               31.03197703                0.02122287               -2.02510741                0.44561930               -0.32048181               -1.59790687               20.60799019                2.05026654
              10.79378521                7.52950021               31.08049060                0.28332237               -0.88192227                0.02134031               -0.36202082               -0.97566921               10.42617741                2.57382967
              11.79545519                7.38405976               30.92101141                0.57106003                0.22016068                0.18001589               -0.73896965               -0.00609142                0.02481569                1.01610765
              12.79818842                7.23892495               30.76122483                0.97994899                0.27332356                0.38797248               -1.10758727                0.00368549                0.02130675               -0.65644119
               3.07510783                9.84221712               31.10345225                1.00000000                0.02462569               -0.02721017                0.06228858               -0.02268294               -0.01451428                0.74927842
               4.07535409                9.67789381               30.94184922                0.56123453                0.06434795                0.07317757               -0.22677049               -0.00010464                0.07677185               -0.62150941
               5.07639479                9.51317706               30.78198342                0.01021229               -0.77582855                0.17187263               -0.52076349                0.41786974               10.74914932               -1.62029765
               6.05983752                9.35630453               30.83378523                0.00010000               -1.89302146                0.86935324               -0.36449663                0.38531900               21.49700874                0.16318152
               7.03853436                9.19828828               30.88690802                0.00010000               -2.20111145                0.97490630               -0.34756535                0.06792424               21.77975450                0.31363897
               8.01581529                9.03617245               30.94186874                0.00010000               -2.39640243                1.05041975               -0.32524148               -0.32245746               22.18046455                0.44387492
               8.99060632                8.87060869               31.00070442                0.00010000               -2.69125692                1.08264318               -0.26378113               -0.85536233               22.81199302                0.72301934
               9.96199015                8.69997372               31.06626548                0.06104141               -2.62747426                0.96923388               -0.13006120               -1.56709577               22.99288297                1.49035401
              10.93805683                8.53001580               31.12701750                0.32481345               -1.11808836                0.08914049               -0.33668576               -1.31704983               11.56968292                1.61562452
              11.93962839                8.38596095               30.96185301                0.58303067                0.21453823                0.20030203               -0.72529147               -0.02859605                0.13453868                0.74547010
              12.94234760                8.24263743               30.79355552                0.96451650                0.27192091                0.35872779               -1.10095938                0.00591071               -0.00628300               -0.67665821
               3.23871107               10.84217598               31.05932342                1.00000000                0.06776552               -0.00411413               -0.07534196                0.02552058                0.41036714                0.63660206
               4.23938873               10.67882795               30.89409702                0.81878965                0.10751699                0.09341416               -0.36727829                0.04651491                0.82697613               -0.51466833
               5.24086141               10.51503700               30.73710393                0.50213543               -1.01398174                0.18599403               -0.65537170                0.85379596               12.70039850               -1.01834453
               6.21910909               10.36697063               30.80926889                0.36791169               -2.09947937                1.06660994               -0.52172934                0.60744451               23.97228863                0.01049371
               7.19887183               10.20864275               30.87344870                0.35773973               -2.07544918                1.03544679               -0.44136455                0.05369907               23.79772882                0.13694834
               8.17760011               10.04736969               30.93905598                0.37240592               -2.27464937                1.11972416               -0.38291902               -0.12717654               24.21905682                0.22148692
               9.15337884                9.88252958               31.00932357                0.41065091               -2.76277477                1.19208890               -0.27962678               -0.40613921               25.08175388                0.39017867
              10.12234461                9.71370186               31.09045220                0.54728291               -3.59609267                1.37281385               -0.01550021               -1.52688208               25.05596322                0.96898212
              11.08145699                9.53128302               31.15955391                0.68587192               -2.00414887                0.12672209               -0.36122697               -1.94178761               13.03078647                0.93571153
              12.08226164                9.38806580               30.99896986                0.80928632                0.17483490                0.21048484               -0.73426589                0.00414976                1.00625706                0.57894361
              13.08495368                9.24609951               30.82715010                0.98129662                0.26920456                0.34620833               -1.10527082                0.06398003                0.46475032               -0.59473670
               1.64248712                0.91413735               32.46555547                1.00000000               -0.34131361               -0.36692340                1.27425257               -0.05936907               -0.92950497                0.95166730
               2.63907398                0.73194500               32.36416609                1.00000000               -0.29560023               -0.28937564                1.02746723               -0.03924563               -1.20846658                0.10701236
               3.63657511                0.54944730               32.25721265                1.00000000               -0.19524009               -0.21177649                0.76664703               -0.03538746               -1.17958592               -0.21594444
               4.63516918                0.36713343               32.15649383                0.62440957                0.08626766               -0.15433579                0.51246377                0.18929687               -0.33356093               -0.82629636
               5.63830047                0.18994443               32.06662953                0.71892040                0.22059124               -0.07552619                0.23919508               -0.07395029                0.01994155                0.27077013
               6.63958100                0.01707607               31.97397398                0.80314564                0.12117939                0.01420234               -0.02540551               -0.03427493               -0.30154604                0.15701369
               7.64072405               -0.15449833               31.87778819                0.78146640                0.14716103                0.08958910               -0.29096607               -0.01536470               -0.53840231               -0.07539539
               8.64252423               -0.32532927               31.78034044                0.85833665                0.20378706                0.17514920               -0.57143864               -0.02509652               -0.81267751                0.10494127
               9.64479980               -0.49592482               31.67848453                1.00000000                0.26234086                0.25615635               -0.84972091               -0.02423497               -1.10586804                0.57323114
              10.64777104               -0.66670374               31.57492974                1.00000000                0.33594404                0.33916609               -1.12248675               -0.03038933               -1.07031780               -0.00426764
              11.65151868               -0.83760780               31.47374120                1.00000000                0.37476335                0.43153456               -1.38835897               -0.03417038               -0.95420348               -0.94688760
               1.82408577                1.91046812               32.42325421                1.00000000               -0.30592239               -0.35200410                1.14418256               -0.01907321               -0.13812374                1.29629475
               2.82102655                1.72905125               32.32159177                1.00000000               -0.27293737               -0.26908497                0.89790738                0.00238244               -0.15189430                0.15155687
               3.81862702                1.54732954               32.21961458                0.88845951               -0.21064820               -0.18797288                0.64850535                0.00816615                0.00968120               -0.55154099
               4.81681358                1.36559007               32.12114548                0.22916536               -0.30186910               -0.13279417                0.40222787                0.27978428                1.63947530               -1.24557755
               5.81258964                1.18918917               32.05163710                0.39532689               -0.26769746                0.01099965                0.15298896               -0.07170010                2.45013585                1.04548629
               6.81145963                1.01721810               31.96785120                0.50130022               -0.04082816                0.06034106               -0.10069551                0.04622098                1.52631238                0.46552669
               7.81177308                0.84639757               31.87940255                0.40757628                0.07634349                0.10756936               -0.35594142                0.09014090                1.43912838               -0.31235632
               8.81298650                0.67642222               31.79378480                0.51574761                0.17358010                0.20123501               -0.62529613                0.05245572                1.48598734                0.53759981
               9.81524468                0.50663675               31.70639770                1.00000000                0.26610689                0.25931716               -0.87372931                0.01938871                0.76870128                0.81879201
              10.81830864                0.33668792               31.60664598                1.00000000                0.34181755                0.33812608               -1.13612466                0.01092787                0.08666415                0.12054281
              11.82208103                0.16670754               31.50561525                1.00000000                0.37723898                0.44655009               -1.40040678                0.00843734                0.02441161               -1.10482790
               2.00493939                2.90709727               32.38784148                1.00000000               -0.26791815               -0.32707547                1.02372592               -0.01251464                0.05097949                1.64011824
               3.00226021                2.72656330               32.27988917                1.00000000               -0.23698894               -0.23225919                0.77449823                0.01175192                0.22441855                0.13129277
               4.00019961                2.54568785               32.17530554                0.58875077               -0.16774867               -0.14371736                0.52558811                0.01816988                0.73240303               -1.32825578
               4.99890523                2.36447755               32.07742586                0.00010000               -0.74805841               -0.10268066                0.25900716                0.40313802                4.70500014               -2.07228013
               5.98523844                2.19016443               32.05219825                0.00010000               -0.78041015                0.01368751                0.02209470                0.63814419                5.61892428               -1.20630998
               6.98329703                2.01828290               31.96796783                0.00010000               -0.09578468               -0.07068399               -0.18995902                0.47764575                2.32173070               -0.16443446
               7.98332275                1.84765306               31.87635747                0.00010000                0.00185630               -0.06585878               -0.40277728                0.34819684                3.51454537                0.69654304
               8.98333416                1.67869543               31.81598681                0.00010000                0.07995622               -0.01424619               -0.70996811                0.20337342                4.23786921                1.28508967
               9.98492187                1.50926153               31.73934305                0.49899609                0.22923239                0.24075151               -0.89260148               -0.04678895                2.31488778                1.71190859
              10.98791880                1.34005878               31.64088784                1.00000000                0.33631507                0.31914743               -1.13756249               -0.02054752                0.82250200                0.81227372
              11.99164817                1.17132320               31.53427253                1.00000000                0.37293693                0.47184571               -1.41569913               -0.00212217                0.42104169               -1.04918730
               2.18490340                3.90392661               32.35245739                1.00000000               -0.22323965               -0.30576145                0.90083722               -0.01246152                0.10492703                1.54251778
               3.18267101                3.72440606               32.23691342                1.00000000               -0.19136130               -0.19711981                0.64760124                0.00961108                0.14913923               -0.02470259
               4.18107618                3.54445519               32.12217346                0.35128294               -0.11356214               -0.09678364                0.40257673               -0.01922773                1.10033182               -1.68300002
               5.18039976                3.36353646               32.02565141                0.00010000               -0.47644989               -0.05916840                0.15731243                0.32554529                5.18750278               -2.75624921
               6.17154718                3.18946292               31.99249294                0.00010000               -0.84379250               -0.03939968               -0.04302614                0.81242787                7.92362587               -3.02601971
               7.16352391                3.01580442               31.94937344                0.00010000               -0.66113494               -0.10556649               -0.23581613                0.57768316                7.09688221               -0.74555926
               8.15832448                2.84508039               31.89795094                0.00010000               -0.40392042               -0.15630380               -0.44250610                0.38226636                6.62464087                1.51757447
               9.15544551                2.67613730               31.84426626                0.00010000               -0.26894644               -0.16274721               -0.64707250                0.33661075                6.28324820                1.98943803
              10.15294555                2.51145178               31.78506982                0.22091309                0.01952568                0.06191608               -0.83107412                0.02759658                4.08329861                3.19253757
              11.15583602                2.34307087               31.68632805                0.92759589                0.32820979                0.27956715               -1.09716332               -0.07578355                1.09713840                1.32254466
              12.15950975                2.17614446               31.56691150                1.00000000                0.36737286                0.47474621               -1.38480766               -0.01506912                0.07324653               -0.63883366
               2.36373124                4.90098204               32.31515426                1.00000000               -0.18073992               -0.27635202                0.76759918               -0.02101930                0.15991832                1.32263803
               3.36192384                4.72262091               32.19208791                0.83582062               -0.15232922               -0.15251920                0.51230735               -0.00412340                0.24338807               -0.27483892
               4.36068466                4.54375217               32.07062286                0.20198785               -0.07577165               -0.03732476                0.26921446               -0.07061965                1.27508396               -1.73191426
               5.36040841                4.36329418               31.96818950                0.00010000               -0.57328074                0.06495095                0.03615351                0.13670723                6.79511007               -2.78979812
               6.34921904                4.18937643               31.95695736                0.00010000               -1.05875921                0.08128295               -0.11111187                0.25705597               10.99914846               -1.34016434
               7.33923323                4.01617157               31.93750158                0.00010000               -0.92919239                0.09830270               -0.26957208                0.13626946               10.30469336               -0.09939765
               8.33063519                3.84452699               31.91094096                0.00010000               -0.77691214                0.02566736               -0.44016603                0.03269111                9.82328759                1.21658080
               9.32369498                3.67544049               31.88007972                0.00010000               -0.60474804               -0.02941381               -0.61288880                0.02202780                9.64095679                2.46063558
              10.31854023                3.51049985               31.84797744                0.18757391               -0.09922645               -0.14943594               -0.78262073               -0.02228431                5.42378297                3.89946204
              11.32171045                3.34565012               31.73068114                0.70727020                0.33296885                0.21731564               -1.00376086               -0.02621935                0.68532258                1.42710421
              12.32519961                3.18081812               31.60331659                1.00000000                0.34891573                0.47148681               -1.31594064               -0.04619455                0.18483448               -0.36424431
               2.54120528                5.89839957               32.27542192                1.00000000               -0.13868729               -0.23350123                0.62497133               -0.02661182                0.13131519                1.09357671
               3.53981840                5.72135568               32.14405231                0.67282738               -0.11073822               -0.09883489                0.35682089               -0.01483983                0.31855204               -0.55441614
               4.53899051                5.54370870               32.01635906                0.13209569               -0.11543770                0.02978900                0.10634257               -0.06448299                1.84365956               -2.07088228
               5.53750965                5.36483548               31.91550274                0.00010000               -0.75897989                0.22424957               -0.08919426               -0.12763931                8.99658230               -1.35463885
               6.52381091                5.19108858               31.93083383                0.00010000               -1.32054495                0.24756616               -0.15949776               -0.05744097               14.16481538               -0.40541164
               7.51109875                5.01777047               31.93205556                0.00010000               -1.20507659                0.23158225               -0.28868144               -0.22731350               13.21603367                0.46142568
               8.49970938                4.84559374               31.92664500                0.00010000               -1.05927768                0.16176033               -0.42791742               -0.33628069               12.83209886                1.44965510
               9.48991320                4.67554902               31.91802452                0.00010000               -0.87095768                0.03562870               -0.56804360               -0.36127185               12.75338866                2.54476881
              10.48229023                4.50846306               31.90860479                0.19061728               -0.24599197               -0.17973351               -0.71351144               -0.18323592                6.79475080                3.66985608
              11.48499336                4.34741718               31.77828435                0.62143071                0.29798124                0.16572006               -0.91086401                0.03315833                0.42449690                1.53580285
              12.48824985                4.18557419               31.64109761                1.00000000                0.32564962                0.46973910               -1.24302822               -0.02758224                0.08955717               -0.27681732
               2.71728678                6.89631201               32.23356740                1.00000000               -0.09688615               -0.18106685                0.47689982               -0.02578252                0.06083460                0.92764965
               3.71631791                6.72064421               32.09353819                0.57420929               -0.06857896               -0.04767351                0.20384313               -0.01529083                0.28097439               -0.71313923
               4.71591520                6.54434795               31.95784130                0.09222209               -0.29210876                0.08873853               -0.05611612               -0.01546016                3.71125671               -2.39703827
               5.71047574                6.36777917               31.88643038                0.00010000               -1.03899826                0.31230168               -0.07660070               -0.32485907               11.87443458                0.57827593
               6.69513523                6.19432776               31.91405448                0.00010000               -1.51469703                0.38790592               -0.18492890               -0.31138976               16.41049983                0.37025907
               7.68018180                6.02080321               31.93172295                0.00010000               -1.45021006                0.38244307               -0.29892340               -0.51391281               15.79095307                0.84467445
               8.66613103                5.84776219               31.94478728                0.00010000               -1.32907882                0.28467036               -0.40718045               -0.69736997               15.59838047                1.58404422
               9.65360022                5.67615306               31.95606927                0.00010000               -1.15618370                0.10326663               -0.50877824               -0.80829167               15.65391731                2.47422107
              10.64300736                5.50690518               31.96750352                0.21012177               -0.41688687               -0.11695362               -0.60181774               -0.44461832                8.10049648                3.44168922
              11.64526249                5.34896452               31.82502412                0.57638036                0.26632912                0.15943234               -0.85547286                0.04382861                0.23698822                1.42352062
              12.64833394                5.19021291               31.67891354                0.99532525                0.30714536                0.45830913               -1.20309442               -0.01336529                0.06405690               -0.31891435
               2.89202523                7.89477823               32.19052421                1.00000000               -0.05485846               -0.12572583                0.33001603               -0.02451888                0.02282153                0.85294931
               3.89147665                7.72040221               32.04221243                0.52854309               -0.02394421               -0.00356012                0.05429715               -0.00951873                0.17309015               -0.75254258
               4.89154635                7.54548347               31.89682982                0.06614803               -0.52219904                0.12794747               -0.21769752                0.03818288                6.38343183               -2.54455821
               5.88103267                7.37108151               31.87272281                0.00010000               -1.34936333                0.38559077               -0.04580308               -0.24954520               15.22259398                1.08158702
               6.86455908                7.19884670               31.90388091                0.00010000               -1.68233039                0.54000292               -0.21705785               -0.33912887               18.05989671                0.72178351
               7.84738606                7.02541933               31.93452289                0.00010000               -1.70734736                0.57723439               -0.30958509               -0.67786609               18.09038164                0.97815430
               8.83041213                6.85128714               31.96387013                0.00010000               -1.63908413                0.45579003               -0.38207560               -1.02782949               18.16478925                1.56534212
               9.81460438                6.67761435               31.99323041                0.00010000               -1.49128677                0.21889346               -0.44364826               -1.26094937               18.37697759                2.30252867
              10.80058640                6.50612399               32.02393030                0.24045693               -0.60210864               -0.04102487               -0.48584889               -0.73266435                9.35713613                3.12748654
              11.80256220                6.35060583               31.87025993                0.55518385                0.24496926                0.17331994               -0.81279590                0.02597663                0.08969809                1.25607493
              12.80548578                6.19474038               31.71537251                0.97600415                0.29235806                0.43970646               -1.17270099               -0.00213628                0.03931404               -0.45548584
               3.06554844                8.89379750               32.14714899                1.00000000               -0.01261344               -0.07176884                0.18534093               -0.02343940                0.00673093                0.84986170
               4.06542230                8.72057301               31.99079985                0.53105054                0.02255573                0.03691091               -0.09278660               -0.00352124                0.04532193               -0.74505432
               5.06599955                8.54690690               31.83513905                0.04406008               -0.66503487                0.15192176               -0.37815377                0.13645728                8.83478524               -2.40549660
               6.05212160                8.37549099               31.85455106                0.00010000               -1.59923574                0.54784219               -0.18678456                0.05236324               18.69130951                0.51435942
               7.03401484                8.20512781               31.89482761                0.00010000               -1.89687859                0.75443236               -0.28418586               -0.19093283               19.97057437                0.61878543
               8.01418403                8.03234790               31.93765707                0.00010000               -2.03177082                0.81969972               -0.33189563               -0.66253080               20.32315662                0.83361146
               8.99337942                7.85687799               31.98249749                0.00010000               -2.03198201                0.74835315               -0.34657887               -1.19859992               20.61913517                1.32885639
               9.97354439                7.68053093               32.02852287                0.02109058               -1.90084114                0.40793031               -0.37618524               -1.74167095               20.92921800                2.22131684
              10.95536260                7.50608468               32.07664466                0.27868854               -0.81893819                0.03050836               -0.40797327               -1.04230877               10.58548715                2.64815484
              11.95716563                7.35243092               31.91340306                0.55319041                0.23297589                0.19420428               -0.78432418               -0.00281463                0.01927580                1.05381955
              12.96002211                7.19900704               31.74993191                0.96451304                0.28564861                0.40881319               -1.15472824                0.00659801                0.02077813               -0.63694107
               3.23800542                9.89334285               32.10397965                1.00000000                0.02913954               -0.02178661                0.04305087               -0.02279626               -0.01565194                0.74771576
               4.23829682                9.72114043               31.93952937                0.55884901                0.06760464                0.07675607               -0.23758563               -0.00091903                0.07247508               -0.62838659
               5.23935751                9.54852190               31.77674996                0.00959450               -0.72188981                0.17446701               -0.52529517                0.33136451               10.96024680               -1.62777867
               6.22385902                9.38203836               31.83001295                0.00010000               -1.77369999                0.83246641               -0.39446302                0.27577656               21.87536505                0.10200949
               7.20388351                9.21393535               31.88327878                0.00010000               -2.07368781                0.94010112               -0.38406897               -0.03105714               22.10931641                0.31537198
               8.18238526                9.04181333               31.93840190                0.00010000               -2.28132047                1.02016426               -0.37481341               -0.41362316               22.54620321                0.47000243
               9.15825710                8.86625421               31.99782415                0.00010000               -2.59104985                1.05929231               -0.32178933               -0.95623046               23.25386918                0.78190547
              10.13056427                8.68577296               32.06478801                0.06479638               -2.52084376                0.94098497               -0.17966403               -1.67146514               23.31440350                1.68038996
              11.10784023                8.50673415               32.12337388                0.32348540               -1.04903549                0.10546153               -0.39068516               -1.36101577               11.64275021                1.63570788
              12.10958356                8.35448991               31.95432150                0.56439514                0.23126446                0.21816677               -0.78143091               -0.02686760                0.12847604                0.75991464
              13.11246552                8.20291664               31.78228001                0.95036532                0.28819614                0.37845262               -1.15671484                0.00884702               -0.00434244               -0.66999863
               3.40949736               10.89336177               32.05846501                1.00000000                0.07275125                0.00189134               -0.09641089                0.02383011                0.40952341                0.63643529
               4.41022487               10.72210813               31.89037033                0.81808747                0.11157765                0.09677019               -0.37874672                0.04452923                0.82745769               -0.51922263
               5.41172891               10.55039624               31.73053337                0.50117763               -0.90005894                0.18743409               -0.65955110                0.73874894               12.90457103               -1.01736009
               6.39222369               10.39214032               31.80391989                0.36814745               -1.90550937                1.01019581               -0.55125582                0.51314673               24.37783598               -0.03445910
               7.37361872               10.22392984               31.86882672                0.35789965               -1.93154917                0.99944905               -0.48844846                0.00406425               24.18734086                0.13338242
               8.35359271               10.05275118               31.93496028                0.37219987               -2.16617733                1.09378560               -0.44374900               -0.17255553               24.63805139                0.23497705
               9.33029518                9.87806384               32.00623769                0.40982518               -2.69787833                1.18096318               -0.34891417               -0.46622057               25.62487279                0.42678506
              10.29963514                9.69935063               32.09012735                0.55048642               -3.54349241                1.35776679               -0.07114225               -1.58640889               25.37955006                1.12228750
              11.25942533                9.50819391               32.15557661                0.68647955               -1.95946759                0.14597583               -0.43263000               -1.96930863               13.04476355                0.92806085
              12.26044579                9.35679426               31.99126609                0.79960447                0.19601353                0.23043453               -0.80656030                0.00533197                1.01845143                0.58111468
              13.26334560                9.20657609               31.81576333                0.97439630                0.28998093                0.36594471               -1.17448713                0.06619095                0.47981192               -0.59287330
               1.73573696                0.96667243               33.47828292                1.00000000               -0.34300773               -0.36710672                1.27282194               -0.05825235               -0.94393752                0.96412794
               2.73230689                0.77625059               33.37443760                1.00000000               -0.29944954               -0.28796380                1.02718489               -0.03833103               -1.23084442                0.11041677
               3.72974797                0.58545729               33.26488592                1.00000000               -0.20241007               -0.21181995                0.76904773               -0.03823713               -1.20524986               -0.21246062
               4.72825869                0.39467679               33.16165384                0.62547816                0.06015546               -0.15918780                0.51974102                0.14910915               -0.36747003               -0.83431281
               5.73095108                0.20807188               33.06901767                0.71764147                0.19736486               -0.07763824                0.23720221               -0.07162931               -0.01256157                0.27423292
               6.73220598                0.02515116               32.97375653                0.80245182                0.12181300                0.01067452               -0.01894807               -0.04010040               -0.31894583                0.16015539
               7.73338734               -0.15653298               32.87494938                0.78515948                0.15306831                0.08516522               -0.27672706               -0.02091897               -0.56018418               -0.07173472
               8.73526735               -0.33745986               32.77471989                0.86264430                0.21329785                0.16850630               -0.54841991               -0.03167746               -0.84199361                0.10492595
               9.73765330               -0.51795495               32.67008934                1.00000000                0.26863289                0.24846610               -0.82427177               -0.03217115               -1.13617280                0.57952146
              10.74064001               -0.69842945               32.56378171                1.00000000                0.33531040                0.33680357               -1.10321835               -0.02992065               -1.09749066               -0.00888907
              11.74435951               -0.87904022               32.45990851                1.00000000                0.37195009                0.43387153               -1.37485168               -0.02918282               -0.97915971               -0.97393175
               1.92557628                1.96300136               33.43466968                1.00000000               -0.30451381               -0.35339546                1.13991854               -0.01695710               -0.14292080                1.31293112
               2.92253115                1.77337095               33.33055678                1.00000000               -0.27118907               -0.26843980                0.89573515                0.00342006               -0.15889461                0.15783503
               3.92015250                1.58333909               33.22610427                0.90365645               -0.20443320               -0.18739070                0.64354398                0.00063556                0.00032246               -0.54599434
               4.91844248                1.39308491               33.12513844                0.23817226               -0.25774497               -0.14081834                0.38621068                0.22946592                1.63016710               -1.25780148
               5.91499760                1.20729550               33.05308621                0.40011654               -0.21675360                0.00388027                0.13380020               -0.06536140                2.45005098                1.02367533
               6.91410741                1.02525790               32.96682172                0.50590367               -0.02569717                0.05610687               -0.10967887                0.02797434                1.53081342                0.46201393
               7.91448366                0.84431867               32.87585838                0.41555050                0.07770731                0.11044952               -0.35601527                0.06838537                1.43658904               -0.30071648
               8.91566156                0.66422521               32.78754357                0.51809638                0.16663617                0.20013309               -0.62034956                0.02807524                1.48852660                0.52005389
               9.91781638                0.48452971               32.69763740                1.00000000                0.26109403                0.25658871               -0.87616141                0.00460926                0.77623007                0.82537932
              10.92088344                0.30493859               32.59524572                1.00000000                0.34310352                0.33963209               -1.14374258                0.01182400                0.08742506                0.11984058
              11.92467845                0.12529849               32.49154261                1.00000000                0.37950165                0.45688496               -1.41430708                0.01406737                0.02531883               -1.13629870
               2.11465865                2.95960452               33.39804123                1.00000000               -0.26210914               -0.33022424                1.01667658               -0.01146147                0.05110376                1.65973074
               3.11203756                2.77088179               33.28760303                1.00000000               -0.23059624               -0.23243287                0.76920321                0.00904946                0.22808370                0.14014596
               4.11004673                2.58170948               33.18061719                0.60325796               -0.15729812               -0.13805080                0.53089727               -0.00786631                0.72903252               -1.32498436
               5.10889160                2.39186042               33.08012177                0.00010000               -0.62879334               -0.10590562                0.26183384                0.32581842                4.68996338               -2.07509561
               6.09747086                2.20814949               33.05221933                0.00010000               -0.65746495                0.00176670               -0.01741700                0.48388385                5.64768891               -1.20199139
               7.09574230                2.02627330               32.96599025                0.00010000               -0.08415565               -0.06264066               -0.21208156                0.32657686                2.37904536               -0.14926058
               8.09578775                1.84567601               32.87227372                0.00010000               -0.00622443               -0.05051822               -0.42092761                0.21398184                3.52063045                0.72073926
               9.09561781                1.66654281               32.80882303                0.00010000                0.06221782               -0.00124409               -0.72003042                0.09713505                4.26511692                1.32122206
              10.09703210                1.48717683               32.73028309                0.48734119                0.22449485                0.22942525               -0.92408364               -0.09085278                2.38168096                1.76905461
              11.10010771                1.30836319               32.62936809                1.00000000                0.34444710                0.32388418               -1.17058318               -0.02782022                0.84751047                0.84072091
              12.10392104                1.13009748               32.51993118                1.00000000                0.38133382                0.49358330               -1.45759806               -0.00024253                0.43303766               -1.05605702
               2.30279252                3.95639688               33.36141797                1.00000000               -0.21853361               -0.30910290                0.89165811               -0.01434135                0.10979752                1.55513717
               3.30060718                3.76872229               33.24336304                1.00000000               -0.18879835               -0.19562979                0.64217136                0.00462993                0.15827616               -0.02108160
               4.29901655                3.58057808               33.12619412                0.35650957               -0.10441690               -0.08690310                0.40214704               -0.05477304                1.11189620               -1.68678241
               5.29851884                3.39096680               33.02720577                0.00010000               -0.43770725               -0.04178379                0.15368972                0.21661495                5.22024429               -2.75352128
               6.29026240                3.20733083               32.99201577                0.00010000               -0.77032080               -0.04241505               -0.05565715                0.57345062                7.98346605               -2.98113325
               7.28311243                3.02400509               32.94689646                0.00010000               -0.58843089               -0.10009890               -0.26237206                0.34556981                7.16004174               -0.69611960
               8.27849379                2.84330831               32.89338127                0.00010000               -0.35044937               -0.14900024               -0.47377128                0.17074416                6.68985583                1.56829970
               9.27610344                2.66420032               32.83761615                0.00010000               -0.21574239               -0.15678646               -0.68744075                0.16310422                6.36348763                2.08948081
              10.27417894                2.48911822               32.77668512                0.21392191                0.06514718                0.02653652               -0.84299077               -0.03880230                4.11607830                3.23927953
              11.27740638                2.31141627               32.67520980                0.89383405                0.35130494                0.27874972               -1.14235862               -0.07818462                1.12177267                1.40478677
              12.28120504                2.13517016               32.55290178                1.00000000                0.37986553                0.49656936               -1.43125991               -0.02080583                0.10324240               -0.58977569
               2.48972100                4.95342246               33.32277679                1.00000000               -0.17720370               -0.27871793                0.75704694               -0.02330889                0.16839624                1.32463513
               3.48794896                4.76696920               33.19717617                0.82833337               -0.15071182               -0.14817081                0.50540730               -0.00890362                0.25792650               -0.28572675
               4.48670676                4.57997142               33.07329688                0.20193940               -0.07389109               -0.02713725                0.26516827               -0.09582528                1.29846296               -1.75165008
               5.48647114                4.39102474               32.96851159                0.00010000               -0.54025922                0.08913085                0.02763252                0.02031720                6.85883401               -2.78201771
               6.47590158                4.20730119               32.95580460                0.00010000               -0.98974590                0.08294568               -0.12320819                0.07720810               11.10848717               -1.29212938
               7.46667622                4.02427132               32.93468205                0.00010000               -0.84470915                0.08507283               -0.29781010               -0.04669859               10.40781569               -0.03494417
               8.45900739                3.84269600               32.90634904                0.00010000               -0.68031207                0.01047295               -0.48342105               -0.14087167                9.92922275                1.29749847
               9.45306998                3.66340708               32.87371493                0.00010000               -0.49836426               -0.04780153               -0.66804580               -0.15245625                9.76584772                2.55570857
              10.44904011                3.48770756               32.83998613                0.18001956               -0.02889536               -0.18163932               -0.84358701               -0.09493989                5.55312382                3.96358749
              11.45249207                3.31393819               32.72060154                0.67466649                0.34785220                0.20974732               -1.01235925               -0.02257121                0.74538091                1.53032332
              12.45599715                3.14002886               32.59011788                1.00000000                0.35050800                0.48984901               -1.33191881               -0.05104652                0.19723639               -0.29084951
               2.67523288                5.95082252               33.28161063                1.00000000               -0.13527192               -0.23460005                0.61288312               -0.02816913                0.13174928                1.08730348
               3.67388016                5.76575888               33.14758205                0.66570872               -0.10941896               -0.09296859                0.34904674               -0.01923987                0.32773448               -0.57326490
               4.67304450                5.58003533               33.01740552                0.13023419               -0.11423699                0.04128109                0.10287272               -0.08874223                1.89016991               -2.10248372
               5.67159542                5.39274941               32.91464493                0.00010000               -0.72422520                0.22537647               -0.08054616               -0.25292651                9.12829417               -1.27142629
               6.65855999                5.20898975               32.92921445                0.00010000               -1.24058898                0.23540367               -0.16764804               -0.24681906               14.32973898               -0.33515134
               7.64678364                5.02570655               32.92903347                0.00010000               -1.10096991                0.20852241               -0.32036446               -0.39700736               13.35577958                0.53699912
               8.63654059                4.84351776               32.92214594                0.00010000               -0.93704387                0.13183835               -0.47851849               -0.49847498               12.98166947                1.54084660
               9.62804276                4.66324429               32.91207024                0.00010000               -0.73957828                0.00679159               -0.63320059               -0.53407622               12.91956386                2.65333919
              10.62174903                4.48548543               32.90117584                0.18236573               -0.17045543               -0.19518949               -0.78436158               -0.27124344                6.96131866                3.78691764
              11.62463365                4.31561122               32.76907510                0.59610124                0.31268637                0.16801069               -0.94552746                0.03204816                0.50116062                1.62449385
              12.62800276                4.14496714               32.62852090                0.99885355                0.33691051                0.49422329               -1.29176663               -0.02316060                0.09351029               -0.21876140
               2.85928491                6.94873046               33.23826747                1.00000000               -0.09335520               -0.18061279                0.46321164               -0.02674808                0.05982388                0.91881205
               3.85835135                6.76510982               33.09553364                0.56741061               -0.06717625               -0.04163835                0.19494906               -0.01923292                0.28649354               -0.72836275
               4.85794138                6.58079704               32.95726354                0.08930536               -0.29465796                0.10104785               -0.06008391               -0.05611577                3.85477546               -2.42602871
               5.85245819                6.39553227               32.88591484                0.00010000               -0.99666591                0.28298927               -0.02648136               -0.46195401               12.07672113                0.72646766
               6.83800806                6.21200926               32.91219161                0.00010000               -1.41250690                0.35936620               -0.19234459               -0.49604322               16.56041654                0.44497984
               7.82420806                6.02844177               32.92858260                0.00010000               -1.32539577                0.34720525               -0.33457434               -0.68133838               15.96289660                0.92274199
               8.81150015                5.84533277               32.94047541                0.00010000               -1.18936344                0.24484674               -0.46232392               -0.85573619               15.79566753                1.68084993
               9.80042079                5.66354291               32.95069086                0.00010000               -1.01259155                0.07070072               -0.57621630               -0.97602996               15.88000231                2.59527445
              10.79124832                5.48380377               32.96118196                0.20176867               -0.33847293               -0.12439238               -0.67498028               -0.52837722                8.27843969                3.59838888
              11.79365133                5.31729840               32.81629085                0.55548346                0.27868914                0.17459842               -0.89861483                0.05013148                0.29094914                1.50091886
              12.79682210                5.14991333               32.66666449                0.97410549                0.31707698                0.48913766               -1.25613768               -0.01037482                0.06625220               -0.26632585
               3.04193919                7.94721027               33.19374686                1.00000000               -0.05102689               -0.12342421                0.31460547               -0.02511073                0.02191758                0.84566074
               4.04142892                7.76492611               33.04270700                0.52259823               -0.02197300                0.00182706                0.04421321               -0.01190941                0.17379637               -0.76429291
               5.04149973                7.58205629               32.89462802                0.06303991               -0.51424042                0.13862172               -0.22415802               -0.02995282                6.61678349               -2.57136768
               6.03114411                7.39840920               32.87244282                0.00010000               -1.28850486                0.35241702               -0.01830587               -0.38429245               15.50186662                1.12681259
               7.01572963                7.21617707               32.90165697                0.00010000               -1.56553784                0.50566040               -0.23323264               -0.50399377               18.20267388                0.77074060
               7.99983336                7.03265065               32.93124726                0.00010000               -1.57024536                0.53563717               -0.35166864               -0.84037522               18.30281565                1.04761251
               8.98432473                6.84841470               32.95978920                0.00010000               -1.48910978                0.40835298               -0.44142642               -1.18441129               18.41376319                1.66657192
               9.97005116                6.66465831               32.98850209                0.00010000               -1.34493692                0.18215016               -0.50994260               -1.41535395               18.66566056                2.42585192
              10.95742599                6.48299758               33.01880823                0.23287694               -0.52622226               -0.03920189               -0.54573269               -0.80943390                9.53587707                3.27120757
              11.95952672                6.31910319               32.86192563                0.53651032                0.25697074                0.18880870               -0.85751188                0.03272168                0.10941188                1.32515981
              12.96256540                6.15474989               32.70340882                0.95862103                0.30386868                0.46826500               -1.22464750                0.00088039                0.04079229               -0.40603369
               3.22335100                8.94626198               33.14891571                1.00000000               -0.00838611               -0.06774232                0.16809768               -0.02375329                0.00590377                0.84472549
               4.22326714                8.76514637               32.98981874                0.52720271                0.02541159                0.04147418               -0.10388328               -0.00440749                0.04011199               -0.75386401
               5.22385924                8.58356947               32.83132056                0.04169305               -0.63077895                0.15854428               -0.38600437                0.05253358                9.06012550               -2.42258306
               6.21065156                8.40258061               32.85258928                0.00010000               -1.50862508                0.52833467               -0.21393080               -0.08875549               19.02451128                0.44423707
               7.19368673                8.22212247               32.89185253                0.00010000               -1.77443200                0.72097693               -0.31609535               -0.34120017               20.19219791                0.63331270
               8.17516292                8.03915451               32.93411353                0.00010000               -1.89412347                0.78093162               -0.38371741               -0.81310073               20.59795427                0.88445882
               9.15580426                7.85349983               32.97874259                0.00010000               -1.88160504                0.70459532               -0.41351694               -1.34978681               20.92449806                1.42495165
              10.13753082                7.66718591               33.02445332                0.02003267               -1.75947522                0.36593668               -0.44563526               -1.89013832               21.25472287                2.40402882
              11.12061476                7.48301973               33.07233113                0.27305932               -0.74886841                0.04002072               -0.45675400               -1.10794888               10.75466644                2.73884650
              12.12255345                7.32107458               32.90532492                0.53518108                0.24657672                0.20965135               -0.83288604                0.00119780                0.01532036                1.10208945
              13.12554629                7.15927863               32.73813027                0.94935672                0.29928398                0.43280703               -1.20821927                0.00932142                0.02029117               -0.60250280
               3.40369535                9.94585542               33.10431326                1.00000000                0.03379263               -0.01640064                0.02380559               -0.02298788               -0.01675953                0.74508923
               4.40403328                9.76575559               32.93709751                0.55641502                0.07104010                0.08076046               -0.24941321               -0.00129325                0.06774609               -0.63381137
               5.40511616                9.58522717               32.77147752                0.00922349               -0.66086351                0.17767588               -0.53073105                0.23821708               11.15205028               -1.63075959
               6.39081601                9.40897589               32.82589597                0.00010000               -1.63922102                0.79434742               -0.43364997                0.15451673               22.22874911                0.03918716
               7.37233174                9.23059661               32.87922664                0.00010000               -1.93110147                0.90460195               -0.43131411               -0.14075467               22.41986306                0.31294310
               8.35219398                9.04826928               32.93437247                0.00010000               -2.15170733                0.98989800               -0.43881062               -0.51513765               22.89174621                0.49610514
               9.32929759                8.86250661               32.99426863                0.00010000               -2.47327426                1.03691919               -0.40150844               -1.06936381               23.68693644                0.84365136
              10.30272850                8.67197704               33.06267220                0.06788163               -2.39596216                0.91415149               -0.26475957               -1.78213713               23.64420143                1.87812672
              11.28137835                8.48379800               33.11920380                0.32153617               -0.97183615                0.12095160               -0.44218905               -1.40410386               11.72065405                1.66005553
              12.28329177                8.32329621               32.94622440                0.54590439                0.24826898                0.23621675               -0.83800998               -0.02507352                0.12098426                0.77862788
              13.28634373                8.16340603               32.77042122                0.93635509                0.30519527                0.39983890               -1.21674691                0.01143944               -0.00291529               -0.65478272
               3.58309090               10.94593397               33.05739520                1.00000000                0.07786238                0.00785473               -0.11744494                0.02231528                0.40802786                0.63519162
               4.58386952               10.76676157               32.88652208                0.81755834                0.11561896                0.10059818               -0.39170208                0.04307539                0.82645020               -0.52246218
               5.58540328               10.58712299               32.72391291                0.50031140               -0.77485298                0.18958158               -0.66647342                0.61401154               13.09025038               -1.01429169
               6.56837246               10.41846756               32.79824377                0.36836651               -1.69125148                0.94916698               -0.58645185                0.41022109               24.74959402               -0.07218790
               7.55157825               10.24021451               32.86367973                0.35805612               -1.77111444                0.96178968               -0.54639996               -0.05110336               24.54867897                0.12824810
               8.53295017               10.05895247               32.93018100                0.37196894               -2.04345092                1.06831849               -0.52050733               -0.22319529               25.03294951                0.24821648
               9.51070923                9.87423821               33.00234528                0.40897417               -2.61767439                1.17316079               -0.44404093               -0.53301231               26.15599004                0.46500561
              10.48059669                9.68546894               33.08902935                0.55341593               -3.47478593                1.34918988               -0.17989959               -1.65315350               25.70906081                1.28155814
              11.44121351                9.48543876               33.15090131                0.68689948               -1.90763682                0.16407624               -0.50035535               -1.99998491               13.06139985                0.91880028
              12.44244395                9.32579891               32.98283865                0.79007537                0.21709663                0.25026981               -0.87785778                0.00705008                1.02945681                0.58380320
              13.44555544                9.16727541               32.80366036                0.96756621                0.31114937                0.38693749               -1.24714267                0.06882150                0.49468968               -0.58624674
               1.83129902                1.02064639               34.49101191                1.00000000               -0.34449270               -0.36779609                1.27394472               -0.05772860               -0.95689838                0.97418959
               2.82785409                0.82191497               34.38470979                1.00000000               -0.30225752               -0.28724607                1.02728339               -0.03825183               -1.24888892                0.11623046
               3.82525387                0.62276140               34.27259361                1.00000000               -0.20830314               -0.20830235                0.76917929               -0.04205534               -1.22225641               -0.21108901
               4.82368803                0.42347798               34.16688865                0.62692737                0.03463383               -0.15118662                0.51929236                0.10122493               -0.39842585               -0.85167911
               5.82594655                0.22729201               34.07137358                0.71481377                0.17911736               -0.08309851                0.23171530               -0.07037595               -0.04529024                0.28008587
               6.82727038                0.03414880               33.97359502                0.79809185                0.13052312                0.00758620               -0.01684421               -0.04881517               -0.32614515                0.16272216
               7.82855701               -0.15775102               33.87225365                0.78544400                0.16370064                0.08099100               -0.26596336               -0.02874554               -0.56639528               -0.06772625
               8.83054439               -0.34887812               33.76937204                0.86776019                0.22287544                0.15982755               -0.52140086               -0.04061320               -0.85261557                0.10571788
               9.83301452               -0.53943051               33.66199909                1.00000000                0.27288348                0.23810980               -0.79410905               -0.04130961               -1.15633441                0.58329967
              10.83600206               -0.72980954               33.55286537                1.00000000                0.33336830                0.33078858               -1.07782500               -0.03121873               -1.11925137               -0.01075209
              11.83968189               -0.92035464               33.44624417                1.00000000                0.36798235                0.43135406               -1.35537187               -0.02333577               -0.99806849               -0.99419144
               2.02945316                2.01696843               34.44605258                1.00000000               -0.30390860               -0.35514021                1.13803742               -0.01565053               -0.14741526                1.32731867
               3.02641407                1.81904251               34.33950647                1.00000000               -0.27006714               -0.26775020                0.89366733                0.00508846               -0.17050495                0.16537568
               4.02405181                1.62067838               34.23248545                0.91731671               -0.19895456               -0.18315478                0.63426447               -0.00343748               -0.02184289               -0.53094286
               5.02243498                1.42196611               34.12886969                0.24727770               -0.20722171               -0.12848385                0.36655060                0.15984892                1.61028175               -1.25432652
               6.01990738                1.22646102               34.05431311                0.40408092               -0.15656205               -0.00484833                0.11059017               -0.06821290                2.45489897                1.00362210
               7.01930374                1.03422466               33.96565763                0.50787158               -0.00621848                0.05370759               -0.12694779                0.00755184                1.54665955                0.46005844
               8.01978301                0.84305889               33.87228225                0.42031315                0.08371352                0.11479852               -0.36464641                0.04205333                1.44729215               -0.28967736
               9.02097801                0.65272016               33.78137781                0.51831483                0.16420626                0.19627036               -0.61572832               -0.00127892                1.49534491                0.50801688
              10.02306714                0.46295058               33.68887448                1.00000000                0.25869643                0.25127105               -0.87504456               -0.01129547                0.78231226                0.83027719
              11.02615194                0.27349834               33.58377113                1.00000000                0.34632454                0.33593291               -1.15056849                0.01135901                0.08799933                0.12254993
              12.02999363                0.08395890               33.47732911                1.00000000                0.38416888                0.45987660               -1.42684660                0.02109947                0.02673188               -1.16336677
               2.22683785                3.01354359               34.40817501                1.00000000               -0.25919379               -0.33373202                1.01163801               -0.01055854                0.04962450                1.67822849
               3.22424592                2.81655997               34.29527324                1.00000000               -0.22881668               -0.23156061                0.76545914                0.01005180                0.22958343                0.15040715
               4.22226152                2.61909831               34.18592348                0.61823060               -0.15717734               -0.13192637                0.52715350               -0.01160583                0.71275226               -1.30690266
               5.22110237                2.42090830               34.08266254                0.00010000               -0.49688874               -0.09449483                0.24549919                0.23223745                4.64016904               -2.03720020
               6.21232375                2.22719504               34.05184991                0.00010000               -0.51394128               -0.01030187               -0.05428913                0.29665409                5.66290199               -1.18385879
               7.21082354                2.03522295               33.96372620                0.00010000               -0.07105853               -0.05172164               -0.24411685                0.17027134                2.44437269               -0.12500059
               8.21090258                1.84454495               33.86793892                0.00010000               -0.00982097               -0.03439180               -0.45208683                0.07216189                3.53906598                0.74986516
               9.21062712                1.65504729               33.80158620                0.00010000                0.05539250                0.01574251               -0.73312960               -0.02583235                4.28381353                1.35362496
              10.21201043                1.46559491               33.72086137                0.45628958                0.22969011                0.17918701               -0.96219395               -0.17659198                2.44140580                1.85751027
              11.21522093                1.27690912               33.61747617                1.00000000                0.35861692                0.32174089               -1.21055759               -0.04245710                0.87272907                0.87447048
              12.21918276                1.08884289               33.50512057                1.00000000                0.39618370                0.51016725               -1.50216999                0.00322812                0.44005040               -1.05839069
               2.42320923                4.01029379               34.37029055                1.00000000               -0.21488410               -0.31307532                0.88428427               -0.01512172                0.11299558                1.56809279
               3.42106039                3.81441130               34.24975685                1.00000000               -0.18689326               -0.19363038                0.63689460                0.00312099                0.16590294               -0.01495489
               4.41947136                3.61803985               34.13021640                0.36066045               -0.10386955               -0.07952697                0.40133141               -0.06390566                1.11843006               -1.68598920
               5.41898300                3.42007622               34.02872520                0.00010000               -0.39727733               -0.03468145                0.15184891                0.10950691                5.22992029               -2.71885104
               6.41152582                3.22625498               33.99137980                0.00010000               -0.68118728               -0.04299381               -0.07686679                0.30042964                8.02491407               -2.91549102
               7.40535925                3.03319022               33.94412600                0.00010000               -0.50619563               -0.09436392               -0.29500155                0.10688112                7.21300172               -0.63613315
               8.40140190                2.84237106               33.88847551                0.00010000               -0.29739207               -0.14163342               -0.51202363               -0.04355128                6.75134149                1.62443181
               9.39941141                2.65303501               33.83051745                0.00010000               -0.18642170               -0.14733621               -0.73034814               -0.05445060                6.47122420                2.17971138
              10.39767347                2.46653432               33.76821000                0.20332287                0.13217010               -0.01570152               -0.93429089               -0.11980828                4.20296926                3.36278460
              11.40205481                2.27993316               33.66348088                0.83211840                0.42585846                0.27410852               -1.23800477               -0.05533382                1.13084604                1.53609310
              12.40619064                2.09416224               33.53828630                1.00000000                0.41358281                0.52695580               -1.52029809               -0.03064694                0.15034038               -0.50988775
               2.61830041                5.00728208               34.33029520                1.00000000               -0.17381308               -0.28194211                0.74770305               -0.02506236                0.17551719                1.32745829
               3.61656227                4.81268736               34.20219605                0.82102378               -0.14909577               -0.14391962                0.49876879               -0.01282477                0.27017411               -0.29455792
               4.61531849                4.61750777               34.07592623                0.20107133               -0.07424492               -0.01737457                0.26018805               -0.11065095                1.31600797               -1.76883609
               5.61507738                4.42021467               33.96874215                0.00010000               -0.50500799                0.09637466                0.02286487               -0.09444999                6.91672395               -2.75499353
               6.60521833                4.22633516               33.95449320                0.00010000               -0.91161422                0.08717768               -0.14205586               -0.11938355               11.20299515               -1.23150714
               7.59684509                4.03333567               33.93154538                0.00010000               -0.75157830                0.07098401               -0.33377084               -0.23496360               10.49205886                0.03617969
               8.59018676                3.84171229               33.90127254                0.00010000               -0.57351228               -0.00433779               -0.53690661               -0.31655022               10.01839777                1.37966572
               9.58537485                3.65210057               33.86671880                0.00010000               -0.37353286               -0.06975654               -0.74266786               -0.32841242                9.86647682                2.65671027
              10.58271611                3.46528088               33.83110570                0.17092894                0.05557416               -0.17643679               -0.94002533               -0.14355036                5.69522501                4.05754775
              11.58648633                3.28239129               33.71043396                0.63872296                0.36977760                0.21422910               -1.05565606               -0.01410881                0.84509196                1.67433014
              12.59011166                3.09938201               33.57667822                1.00000000                0.36253295                0.52450542               -1.40039311               -0.04903723                0.22185043               -0.18925353
               2.81189743                6.00465495               34.28767958                1.00000000               -0.13192203               -0.23650305                0.60160671               -0.02967895                0.13153962                1.08163559
               3.81057821                5.81153291               34.15103324                0.65766816               -0.10831973               -0.08676767                0.34120576               -0.02365751                0.33633009               -0.59087795
               4.80973103                5.61769236               34.01841651                0.12752665               -0.11558021                0.05485540                0.09899704               -0.11090889                1.94165572               -2.13154646
               5.80826660                5.42200371               33.91389182                0.00010000               -0.68569407                0.21479789               -0.06927459               -0.38445533                9.25021710               -1.15036761
               6.79601715                5.22799854               33.92748087                0.00010000               -1.14918725                0.22248339               -0.18225777               -0.44681663               14.46827595               -0.25417908
               7.78528286                5.03460990               33.92564827                0.00010000               -0.98555742                0.18542956               -0.36173698               -0.57016971               13.46903547                0.61823699
               8.77630600                4.84228430               33.91707463                0.00010000               -0.80041430                0.10118210               -0.54320685               -0.66103358               13.10635253                1.63890204
               9.76927457                4.65163988               33.90536051                0.00010000               -0.58971295               -0.02369351               -0.72020284               -0.70799200               13.06596566                2.77855384
              10.76451174                4.46300559               33.89291756                0.17314120               -0.08015331               -0.20201575               -0.88859479               -0.35810408                7.14757298                3.94055579
              11.76767151                4.28421774               33.75937380                0.57013776                0.33583558                0.18705431               -1.01064707                0.03796858                0.60326489                1.73623804
              12.77122845                4.10465235               33.61526227                0.97329645                0.35569496                0.53082326               -1.37128702               -0.01653681                0.09491864               -0.13685433
               3.00395091                7.00255202               34.24283163                1.00000000               -0.08992002               -0.18058702                0.45012318               -0.02770704                0.05841885                0.91016641
               4.00305171                6.81095201               34.09743717                0.55967303               -0.06607015               -0.03508243                0.18540830               -0.02269664                0.29169976               -0.74282607
               5.00262951                6.61860488               33.95663963                0.08581940               -0.29848094                0.11533700               -0.06588904               -0.10131076                4.02378973               -2.45556365
               5.99708209                6.42451063               33.88590075                0.00010000               -0.94768536                0.24698062                0.02099261               -0.60227991               12.27552436                0.88405333
               6.98367580                6.23078483               33.91020759                0.00010000               -1.29630802                0.33010296               -0.20901814               -0.68377011               16.66270934                0.52352542
               7.97115593                6.03704426               33.92503147                0.00010000               -1.18698420                0.31153730               -0.38167994               -0.85108081               16.10553539                1.00666246
               8.95993612                5.84373593               33.93554081                0.00010000               -1.03311063                0.20335477               -0.53303537               -1.01455000               15.96960599                1.78835853
               9.95049372                5.65162670               33.94454495                0.00010000               -0.84799790                0.03645257               -0.66524233               -1.14356937               16.09111047                2.73665580
              10.94297616                5.46124056               33.95400392                0.19240990               -0.24473920               -0.13033134               -0.77825490               -0.60628307                8.47474098                3.78805617
              11.94559894                5.28613237               33.80705183                0.53425284                0.29677720                0.19286031               -0.95281698                0.06181303                0.36790918                1.60753054
              12.94891170                5.10999847               33.65379079                0.95425456                0.33127678                0.52507867               -1.32067911               -0.00805041                0.07045935               -0.17655858
               3.19454332                8.00104321               34.19681632                1.00000000               -0.04718974               -0.12132066                0.29970508               -0.02571822                0.02077071                0.83814498
               4.19407142                7.81083126               34.04309669                0.51651598               -0.01985613                0.00766051                0.03319872               -0.01380650                0.17309001               -0.77516937
               5.19414619                7.61999910               33.89234666                0.05986294               -0.50151845                0.15004330               -0.23389484               -0.10429666                6.86020923               -2.59769595
               6.18404105                7.42694332               33.87235669                0.00010000               -1.21690368                0.32059779               -0.00965618               -0.52003695               15.77382067                1.13622755
               7.16980812                7.23460060               33.89921626                0.00010000               -1.43654523                0.47197818               -0.26022260               -0.67219644               18.30839921                0.81777430
               8.15531014                7.04084065               33.92748952                0.00010000               -1.41877769                0.49338039               -0.40689020               -1.00760418               18.48846002                1.12175800
               9.14143257                6.84635140               33.95504161                0.00010000               -1.32057970                0.35808327               -0.51687238               -1.34391256               18.64546360                1.77717915
              10.12889855                6.65236893               33.98303156                0.00010000               -1.17760802                0.14073516               -0.59471992               -1.56979242               18.95221103                2.56727901
              11.11788041                6.46039896               34.01301565                0.22407260               -0.43743479               -0.03872561               -0.62401979               -0.88429080                9.73242231                3.45088315
              12.12014985                6.28807495               33.85310969                0.51767525                0.27274213                0.20207859               -0.90832633                0.04144661                0.14256950                1.41466265
              13.12333525                6.11515393               33.69087956                0.94202321                0.31853930                0.49730547               -1.28208624                0.00317508                0.04249636               -0.33049308
               3.38386045                9.00012561               34.15051095                1.00000000               -0.00407608               -0.06390343                0.15132671               -0.02411805                0.00496363                0.83898923
               4.38381969                8.81110522               33.98872218                0.52332151                0.02855310                0.04647969               -0.11605323               -0.00519010                0.03357878               -0.76153805
               5.38443151                8.62160574               33.82741897                0.04104503               -0.58699154                0.16576264               -0.39570120               -0.03643800                9.26797209               -2.43632045
               6.37207986                8.43092259               33.85027244                0.00010000               -1.40484839                0.51121445               -0.25227518               -0.23687590               19.33439591                0.34992604
               7.35633455                8.24022440               33.88850570                0.00010000               -1.64134052                0.68832043               -0.35939568               -0.50072836               20.39557864                0.64348851
               8.33925305                8.04691187               33.92998272                0.00010000               -1.74024787                0.74136561               -0.45020607               -0.97293721               20.84921212                0.93783263
               9.32152959                7.85089759               33.97422715                0.00010000               -1.71013701                0.65865729               -0.50033684               -1.51034655               21.21816140                1.52583860
              10.30505031                7.65444140               34.01961017                0.01779145               -1.59726316                0.31952669               -0.53270923               -2.04084836               21.59269137                2.58810808
              11.28958432                7.46046605               34.06750958                0.26618085               -0.66887023                0.04830629               -0.51223653               -1.17233728               10.94191131                2.85391383
              12.29167290                7.29017394               33.89674534                0.51708578                0.26164644                0.22368972               -0.88427619                0.00572496                0.01433786                1.16307033
              13.29481725                7.11994458               33.72576753                0.93459235                0.31443490                0.45684847               -1.26491881                0.01097978                0.01972048               -0.55211999
               3.57210174                9.99976514               34.10445576                1.00000000                0.03857443               -0.01119428                0.00502649               -0.02324404               -0.01787231                0.74168527
               4.57248748                9.81176085               33.93454111                0.55422144                0.07491631                0.08522603               -0.26260460               -0.00171567                0.06240318               -0.63812084
               5.57360006                9.62331435               33.76613534                0.00885935               -0.59013013                0.18169414               -0.53957112                0.13937376               11.32170866               -1.63081323
               6.56068488                9.43716761               33.82133995                0.00010000               -1.48978961                0.75391786               -0.47825025                0.02107736               22.55001810               -0.01928931
               7.54380427                9.24836701               33.87465249                0.00010000               -1.77533384                0.86821170               -0.48898842               -0.25895582               22.70945158                0.30691828
               8.52517820                9.05566796               33.92962569                0.00010000               -2.00540845                0.95932940               -0.51885595               -0.62546850               23.21316200                0.52296919
               9.50369610                8.85952454               33.98979398                0.00010000               -2.33325372                1.01565233               -0.50732725               -1.19357327               24.10192156                0.90637813
              10.47851313                8.65875946               34.05949282                0.06993985               -2.24974941                0.89130420               -0.39788674               -1.89747177               24.00020312                2.06399723
              11.45870111                8.46136509               34.11453010                0.31861652               -0.88636532                0.13544192               -0.49214619               -1.44755071               11.82748068                1.69276691
              12.46078582                8.29254874               33.93756130                0.52755474                0.26562276                0.25339353               -0.89438500               -0.02356070                0.11220307                0.80318079
              13.46401357                8.12429090               33.75794507                0.92250122                0.32277482                0.42141473               -1.27918053                0.01315145               -0.00234760               -0.63169904
               3.75940415               10.99990172               34.05611611                1.00000000                0.08320149                0.01365821               -0.13811994                0.02104254                0.40589645                0.63311729
               4.76023616               10.81280974               33.88253629                0.81718303                0.12040407                0.10488860               -0.40621979                0.04176325                0.82365217               -0.52473233
               5.76181223               10.62523963               33.71720390                0.49947125               -0.63937038                0.19252714               -0.67675249                0.48077685               13.25633757               -1.00958788
               6.74744876               10.44600094               33.79219085                0.36855752               -1.45785763                0.88333331               -0.62768191                0.29383777               25.08660559               -0.09881088
               7.73265508               10.25758863               33.85789872                0.35820164               -1.59313071                0.92216234               -0.61497224               -0.11004390               24.87799726                0.12054520
               8.71558614               10.06609846               33.92455014                0.37176279               -1.90442278                1.04304928               -0.61458710               -0.27810559               25.39818353                0.26124228
               9.69456662                9.87121064               33.99735687                0.40811742               -2.51629057                1.16860963               -0.56988720               -0.60449674               26.65715065                0.50230764
              10.66526033                9.67226748               34.08652936                0.55587363               -3.38612958                1.35080197               -0.35873718               -1.72706745               26.06760358                1.42956661
              11.62684403                9.46317489               34.14556951                0.68690287               -1.84922239                0.18098003               -0.56417175               -2.03699188               13.11726427                0.91015845
              12.62827588                9.29524182               33.97370894                0.78071939                0.23759749                0.26930711               -0.94605301                0.00890547                1.04043756                0.58824188
              13.63159598                9.12837288               33.79082048                0.96074943                0.33200977                0.40819808               -1.32057060                0.07134708                0.50950682               -0.57581754
               1.92920325                1.07607489               35.50376182                1.00000000               -0.34558342               -0.36902572                1.27679824               -0.05761214               -0.96891421                0.98360638
               2.92574741                0.86898183               35.39498326                1.00000000               -0.30396317               -0.28668156                1.02723447               -0.03707837               -1.26664490                0.12291504
               3.92312398                0.66145182               35.28026951                1.00000000               -0.21186069               -0.20614565                0.76466908               -0.04219231               -1.24064566               -0.20937485
               4.92151020                0.45368111               35.17203969                0.62790782                0.01074619               -0.14566200                0.50941749                0.04816217               -0.42794617               -0.86803848
               5.92333891                0.24779453               35.07365198                0.71030640                0.16464048               -0.09029306                0.22031399               -0.07316182               -0.06749860                0.28470970
               6.92480301                0.04428038               34.97341964                0.79005680                0.14717530                0.00475045               -0.02423326               -0.06011685               -0.31994741                0.16531095
               7.92628241               -0.15794471               34.86963011                0.78039326                0.18332915                0.07845597               -0.26601887               -0.03918102               -0.55136422               -0.06359546
               8.92846959               -0.35935704               34.76429187                0.86677606                0.23754344                0.15284283               -0.50372047               -0.05408700               -0.84162723                0.10663229
               9.93103328               -0.56003972               34.65420716                1.00000000                0.27701543                0.23126973               -0.77155024               -0.05134564               -1.16192221                0.59122906
              10.93400990               -0.76045601               34.54222521                1.00000000                0.33036255                0.32347915               -1.05211962               -0.03482175               -1.12907559               -0.00714368
              11.93764053               -0.96109393               34.43280107                1.00000000                0.36306332                0.42486889               -1.33409949               -0.01813282               -1.00548585               -0.99878771
               2.13572019                2.07238464               35.45743043                1.00000000               -0.30320227               -0.35718876                1.13844752               -0.01439007               -0.15254381                1.34084470
               3.13268817                1.86611501               35.34843013                1.00000000               -0.26838853               -0.26711373                0.89114361                0.00695337               -0.18392675                0.17500202
               4.13035242                1.65939036               35.23878956                0.92975239               -0.19338529               -0.18056683                0.62688242               -0.00510180               -0.04689434               -0.51493482
               5.12882046                1.45222449               35.13246945                0.25505453               -0.15223844               -0.12101009                0.35503878                0.08797943                1.58570798               -1.25638538
               6.12730765                1.24689160               35.05529801                0.40649275               -0.08745005               -0.01944558                0.08586606               -0.07851365                2.45772932                0.98617542
               7.12707146                1.04432789               34.96428277                0.50692012                0.02008324                0.05122624               -0.15141123               -0.01570076                1.57248650                0.46105654
               8.12770932                0.84283985               34.86856545                0.42155004                0.09523827                0.12123789               -0.38400355                0.01350762                1.47612028               -0.27862069
               9.12897623                0.64217139               34.77522900                0.51259892                0.16799970                0.19163554               -0.62173168               -0.03324189                1.51897502                0.50179959
              10.13106931                0.44227298               34.68013651                1.00000000                0.26062805                0.25156139               -0.87597474               -0.02278235                0.79360333                0.83592726
              11.13418879                0.24277878               34.57223435                1.00000000                0.35139083                0.32994305               -1.15677965                0.00874852                0.08987215                0.13276779
              12.13809713                0.04315476               34.46300568                1.00000000                0.39083390                0.45332038               -1.43665200                0.02723379                0.02935287               -1.17082815
               2.34145469                3.06893112               35.41827399                1.00000000               -0.25739354               -0.33730448                1.00959423               -0.00917474                0.04830470                1.69584644
               3.33888076                2.86363955               35.30291222                1.00000000               -0.22711107               -0.23073171                0.76219095                0.01102901                0.23046769                0.16262757
               4.33691247                2.65784048               35.19116026                0.63420188               -0.15561062               -0.12674053                0.51918754               -0.01571345                0.69412783               -1.28527904
               5.33576855                2.45126091               35.08503176                0.00010000               -0.36236186               -0.08571650                0.22935656                0.13492633                4.58890807               -2.00870147
               6.32966523                2.24740562               35.05113354                0.00010000               -0.36138996               -0.02569371               -0.08800914                0.10481193                5.67036077               -1.15331226
               7.32854075                2.04530491               34.96110791                0.00010000               -0.04780831               -0.04323197               -0.28113215                0.01398558                2.51562778               -0.09027541
               8.32870907                1.84448005               34.86323198                0.00010000               -0.00845597               -0.01882629               -0.49163656               -0.07046938                3.57750262                0.78326168
               9.32837163                1.64447567               34.79416044                0.00010000                0.06305864                0.02452784               -0.76266483               -0.13356674                4.32415673                1.40047587
              10.32997024                1.44499151               34.71103921                0.43087430                0.24657314                0.19283037               -0.99650197               -0.20636210                2.49470809                1.89561061
              11.33330309                1.24614285               34.60515694                1.00000000                0.37315085                0.32007836               -1.25164487               -0.06304069                0.89662332                0.89573837
              12.33743326                1.04797248               34.48988778                1.00000000                0.41301685                0.51300001               -1.53887961                0.00815671                0.44173916               -1.05762627
               2.54611983                4.06563855               35.37910366                1.00000000               -0.21204373               -0.31742622                0.87991643               -0.01506950                0.11580357                1.58054443
               3.54399939                3.86150038               35.25610093                1.00000000               -0.18515135               -0.19189551                0.63204992                0.00288307                0.17448061               -0.00805339
               4.54241680                3.65685555               35.13422074                0.36399417               -0.10227699               -0.07229496                0.39797340               -0.07109350                1.12663511               -1.68253621
               5.54195385                3.45051016               35.03024275                0.00010000               -0.35284551               -0.02513244                0.14674100               -0.00038611                5.23559847               -2.69272910
               6.53535989                3.24637773               34.99047843                0.00010000               -0.58385507               -0.04178254               -0.10481960                0.02230551                8.05191581               -2.83300485
               7.53027675                3.04346325               34.94099643                0.00010000               -0.41153596               -0.09161348               -0.33455409               -0.13585455                7.26203462               -0.56703088
               8.52712917                2.84246332               34.88314079                0.00010000               -0.22416569               -0.13949235               -0.55916611               -0.26542268                6.81973931                1.68481488
               9.52579343                2.64266194               34.82300919                0.00010000               -0.09271408               -0.13887276               -0.78628723               -0.20695060                6.54628299                2.25397758
              10.52527489                2.44612958               34.75799930                0.18935026                0.20767861               -0.04202778               -1.10508370               -0.21111909                4.32179685                3.55626565
              11.52994701                2.24918035               34.65044970                0.75218699                0.46630621                0.26945122               -1.37595043               -0.10982607                1.17855129                1.71329595
              12.53460101                2.05341476               34.52249581                1.00000000                0.46540064                0.56476717               -1.64342485               -0.05093984                0.20169161               -0.41388318
               2.74942964                5.06258259               35.33773085                1.00000000               -0.17082221               -0.28598747                0.74090359               -0.02626883                0.18213616                1.32989602
               3.74772142                4.85980164               35.20715154                0.81423163               -0.14744091               -0.14000898                0.49237626               -0.01587869                0.28134002               -0.30231549
               4.74648082                4.65639458               35.07850064                0.19932814               -0.07413865               -0.00822742                0.25355413               -0.12205731                1.33425383               -1.78393395
               5.74623865                4.45075826               34.96896889                0.00010000               -0.46612836                0.10366518                0.01952548               -0.21215293                6.96781889               -2.72786494
               6.73715825                4.24656997               34.95296348                0.00010000               -0.82502925                0.09070244               -0.16637977               -0.32382250               11.27833719               -1.15941372
               7.72973806                4.04347264               34.92800663                0.00010000               -0.64781668                0.05609722               -0.37840695               -0.42929644               10.55912281                0.11203664
               8.72420192                3.84169020               34.89561091                0.00010000               -0.45858526               -0.02178928               -0.60136652               -0.49740969               10.08800379                1.45838097
               9.72056635                3.64169821               34.85886158                0.00010000               -0.24862329               -0.08363573               -0.83757708               -0.49067718                9.94686075                2.74635953
              10.71922946                3.44415095               34.82118563                0.16020276                0.16275199               -0.23656272               -1.05320751               -0.23770123                5.84259790                4.22035698
              11.72382139                3.25153188               34.69948841                0.60251679                0.43580945                0.22688824               -1.19605178               -0.02379500                0.95841582                1.91037491
              12.72794564                3.05926782               34.56211001                0.97567831                0.41242496                0.58513620               -1.56129414               -0.05024730                0.23539341               -0.03274658
               2.95115635                6.05991880               35.29364277                1.00000000               -0.12865210               -0.23927702                0.59224892               -0.03123109                0.13103611                1.07582047
               3.94986983                5.85870020               35.15440617                0.64945408               -0.10686560               -0.08058951                0.33300228               -0.02859294                0.34496958               -0.60770625
               4.94901904                5.65669100               35.01938546                0.12417043               -0.11672144                0.06805212                0.09346619               -0.13219814                2.00050779               -2.15810984
               5.94753540                5.45258346               34.91325944                0.00010000               -0.64249904                0.19951031               -0.05904190               -0.51685743                9.36596522               -1.00683032
               6.93616906                5.24819178               34.92556929                0.00010000               -1.04824060                0.20872051               -0.20346435               -0.65124972               14.57684853               -0.16580452
               7.92657059                5.04458519               34.92179873                0.00010000               -0.86068280                0.16305632               -0.41354879               -0.74583761               13.55335952                0.70304334
               8.91895540                4.84202754               34.91128180                0.00010000               -0.65257246                0.07213814               -0.62311788               -0.82095485               13.20104163                1.73921353
               9.91351914                4.64098923               34.89766619                0.00010000               -0.41340993               -0.05466167               -0.83143121               -0.87078399               13.17889022                2.91443514
              10.91068720                4.44139833               34.88340394                0.16297588                0.04175491               -0.23420744               -1.04465936               -0.41321571                7.34241578                4.11803930
              11.91435424                4.25371811               34.74886216                0.54373420                0.37184879                0.20906210               -1.09475001                0.05601999                0.73638978                1.88925306
              12.91812418                4.06511748               34.60109516                0.95029405                0.37699409                0.57485262               -1.45461359               -0.01967759                0.10294385                0.00068469
               3.15124222                7.05779705               35.24726994                1.00000000               -0.08648585               -0.18124725                0.43854720               -0.02884422                0.05654178                0.90154296
               4.15037736                6.85818985               35.09924181                0.55142651               -0.06443097               -0.02812474                0.17491740               -0.02754356                0.29645550               -0.75680656
               5.14995360                6.65775562               34.95594576                0.08210206               -0.29883179                0.13160148               -0.07519927               -0.15082542                4.21711214               -2.48476802
               6.14440072                6.45474847               34.88633469                0.00010000               -0.89110334                0.20892944                0.06009996               -0.73978589               12.46816225                1.03764700
               7.13213153                6.25074438               34.90801125                0.00010000               -1.17075872                0.30213324               -0.23505873               -0.87094825               16.71488290                0.60375413
               8.12098555                6.04673377               34.92094900                0.00010000               -1.03763701                0.27746805               -0.44134423               -1.02023976               16.21575623                1.09480633
               9.11137879                5.84313296               34.92981470                0.00010000               -0.86028314                0.16221997               -0.62155340               -1.16961125               16.11331002                1.90503317
              10.10377988                5.64060498               34.93738601                0.00010000               -0.65712660               -0.00252799               -0.78187307               -1.30319808               16.27415295                2.89856700
              11.09823626                5.43946680               34.94561686                0.18205444               -0.12786207               -0.14443712               -0.92215567               -0.67913850                8.69287994                4.01602954
              12.10122264                5.25571312               34.79723451                0.51279753                0.32585497                0.19924039               -1.01589140                0.07290147                0.47982300                1.74620586
              13.10475336                5.07076487               34.64025091                0.93584171                0.35307143                0.55229073               -1.38508795               -0.00725359                0.07399636               -0.04842689
               3.34979387                8.05629385               35.19974097                1.00000000               -0.04334765               -0.11973660                0.28602729               -0.02633562                0.01933515                0.83046140
               4.34936039                7.85813770               35.04337097                0.50995416               -0.01749737                0.01406669                0.02101858               -0.01587403                0.17060467               -0.78535920
               5.34944392                7.65932303               34.88995012                0.05661748               -0.48047323                0.16493764               -0.24735946               -0.18304160                7.10529491               -2.62228835
               6.33975093                7.45676205               34.87224970                0.00010000               -1.13395640                0.29237058               -0.02120808               -0.66182827               16.03318465                1.10919464
               7.32676479                7.25423444               34.89645252                0.00010000               -1.29868575                0.44058109               -0.29889755               -0.84354992               18.38190919                0.86169222
               8.31377721                7.05013456               34.92310946                0.00010000               -1.25364146                0.45206108               -0.47655960               -1.17611662               18.64492611                1.20014408
               9.30169196                6.84527194               34.94945175                0.00010000               -1.13279359                0.30656315               -0.61109312               -1.50173116               18.85560174                1.89672366
              10.29112134                6.64093867               34.97660770                0.00010000               -0.98478326                0.09409125               -0.70363846               -1.72200069               19.23149045                2.73060103
              11.28199630                6.43850959               35.00632784                0.21398313               -0.33035705               -0.04416212               -0.73022671               -0.95770987                9.95116591                3.67652696
              12.28451420                6.25770292               34.84375910                0.49861635                0.29396510                0.20856288               -0.96408138                0.05066671                0.19596217                1.52174265
              13.28787560                6.07616330               34.67776710                0.92629101                0.33614009                0.52029226               -1.33816294                0.00318668                0.04426544               -0.23428904
               3.54702780                9.05540232               35.15194224                1.00000000                0.00028997               -0.06049472                0.13554655               -0.02444584                0.00397660                0.83268893
               4.54703070                8.85847119               34.98749767                0.51922442                0.03203089                0.05206825               -0.12963516               -0.00532864                0.02604792               -0.76824352
               5.54766842                8.66105438               34.82340653                0.04024690               -0.53889770                0.17514712               -0.40902603               -0.12838698                9.45820949               -2.44639578
               6.53625274                8.46059588               34.84754378                0.00010000               -1.28901948                0.49548238               -0.29423429               -0.39750386               19.61787243                0.24131804
               7.52188803                8.25955600               34.88466461                0.00010000               -1.49135132                0.65537571               -0.41618407               -0.66753284               20.57970482                0.64992138
               8.50642572                8.05577499               34.92510941                0.00010000               -1.56739879                0.70133504               -0.53240270               -1.13766270               21.07501739                0.99467850
               9.49054005                7.84926423               34.96873586                0.00010000               -1.51617490                0.61162573               -0.60948849               -1.67556276               21.49954123                1.63000043
              10.47610222                7.64248681               35.01379914                0.01421185               -1.41111218                0.26995635               -0.64091569               -2.19027811               21.94832913                2.76081876
              11.46231781                7.43858356               35.06208640                0.25779445               -0.57599766                0.05419117               -0.58058389               -1.23696245               11.15438086                3.00392793
              12.46458227                7.25988437               34.88763940                0.49885422                0.27892664                0.23466578               -0.93874592                0.00969083                0.01921087                1.23626847
              13.46789634                7.08117072               34.71283189                0.92030991                0.33140736                0.47779023               -1.32193580                0.01131573                0.01917718               -0.49138672
               3.74316722               10.05508396               35.10441379                1.00000000                0.04345459               -0.00633544               -0.01293688               -0.02345532               -0.01895795                0.73747959
               4.74360176                9.85917907               34.93184542                0.55199511                0.07921364                0.09026868               -0.27734601               -0.00169546                0.05640943               -0.64136665
               5.74475149                9.66282597               34.76068610                0.00837637               -0.51512712                0.18698689               -0.55260417                0.03498408               11.47119222               -1.62776249
               6.73329922                9.46667170               34.81633096                0.00010000               -1.32582340                0.70968288               -0.52351499               -0.11635037               22.83918619               -0.07304277
               7.71823502                9.26734196               34.86944688                0.00010000               -1.59917448                0.82884753               -0.55784333               -0.38097812               22.97485106                0.29956354
               8.70131573                9.06416126               34.92399535                0.00010000               -1.83830670                0.92767177               -0.61542223               -0.74037609               23.50676502                0.55184584
               9.68146889                8.85750445               34.98412208                0.00010000               -2.16596448                0.99471855               -0.64079807               -1.32452437               24.48521696                0.96839512
              10.65799644                8.64633780               35.05471447                0.07057631               -2.08047050                0.87502003               -0.58580599               -2.01385725               24.40008773                2.21385807
              11.63985948                8.43959341               35.10936087                0.31432860               -0.79377928                0.14897755               -0.54265336               -1.49400761               11.99134801                1.74002117
              12.64212086                8.26239624               34.92833670                0.50930435                0.28348755                0.26920539               -0.95062371               -0.02274224                0.10239593                0.83423175
              13.64552923                8.08571910               34.74483761                0.90888568                0.34083727                0.44187680               -1.34262056                0.01359423               -0.00287509               -0.60505573
               3.93836847               11.05527561               35.05463280                1.00000000                0.08863053                0.01916548               -0.15808184                0.02022005                0.40320463                0.63015079
               4.93925478               10.86027656               34.87839769                0.81688478                0.12534994                0.10974916               -0.42226775                0.04122617                0.81937855               -0.52600462
               5.94087547               10.66479411               34.71037786                0.49858049               -0.49225105                0.19681405               -0.69084725                0.33804647               13.40174175               -1.00207589
               6.92940975               10.47478953               34.78569013                0.36873275               -1.20482803                0.81178348               -0.67603469                0.17799527               25.38769487               -0.11904776
               7.91677891               10.27613295               34.85138028                0.35834782               -1.39770273                0.87909971               -0.69382495               -0.16866696               25.17398350                0.11205386
               8.90145570               10.07432842               34.91788926                0.37153549               -1.74529425                1.01671675               -0.72599738               -0.33472097               25.72807420                0.27435031
               9.88187302                9.86915860               34.99094754                0.40725161               -2.38597916                1.16541451               -0.72743128               -0.67664735               27.10497575                0.53594989
              10.85373612                9.65998721               35.08185461                0.55759217               -3.27469039                1.36494100               -0.61565426               -1.80580687               26.47944598                1.54503866
              11.81637922                9.44156311               35.13961788                0.68626188               -1.78671925                0.19697006               -0.62532136               -2.08396249               13.25638766                0.90521991
              12.81800173                9.26526848               34.96391759                0.77147638                0.25716412                0.28722458               -1.00990343                0.01034460                1.05359386                0.59584197
              13.82152250                9.09000825               34.77724894                0.95398408                0.35207662                0.42891522               -1.39292062                0.07330385                0.52496826               -0.56434266
               2.02947785                1.13298130               36.51654788                1.00000000               -0.34643382               -0.37081428                1.28162066               -0.05767103               -0.98198700                0.99337007
               3.02601351                0.91747955               36.40525448                1.00000000               -0.30466556               -0.28659484                1.02731179               -0.03608400               -1.28670023                0.12984003
               4.02338453                0.70153381               36.28788699                1.00000000               -0.21334330               -0.20448840                0.75808389               -0.04208637               -1.26242356               -0.20832537
               5.02174664                0.48525768               36.17707700                0.62892201               -0.00839569               -0.14113463                0.49668757               -0.00258072               -0.45971088               -0.88466847
               6.02321662                0.26969412               36.07577986                0.70512813                0.15733272               -0.09911585                0.19937433               -0.07324235               -0.08260721                0.28685287
               7.02489330                0.05572877               35.97311035                0.77995521                0.17204392                0.00287509               -0.04633119               -0.07011191               -0.30074461                0.16675510
               8.02665750               -0.15689360               35.86693327                0.77170375                0.21207524                0.07782075               -0.28294890               -0.04725753               -0.51521176               -0.06005157
               9.02913480               -0.36861974               35.75929763                0.86057350                0.25926196                0.15073223               -0.50672228               -0.06338760               -0.80954115                0.10722828
              10.03184274               -0.57946464               35.64656809                1.00000000                0.28459192                0.23017170               -0.76419261               -0.05843576               -1.14789173                0.60553524
              11.03482664               -0.78997069               35.53182298                1.00000000                0.32888543                0.31926593               -1.03467552               -0.03839076               -1.12186016                0.00072707
              12.03842045               -1.00073961               35.41956218                1.00000000                0.35938076                0.41952390               -1.31851557               -0.01513357               -0.99956382               -0.98622431
               2.24440289                2.12927316               36.46882153                1.00000000               -0.30264757               -0.35970052                1.14095891               -0.01347330               -0.15851348                1.35467276
               3.24137641                1.91461360               36.35732934                1.00000000               -0.26641415               -0.26689149                0.88908237                0.00856303               -0.19888641                0.18530235
               4.23907460                1.69948893               36.24502310                0.94167401               -0.18678654               -0.17861369                0.61913089               -0.00636304               -0.07322098               -0.49924751
               5.23764068                1.48384634               36.13597047                0.26190352               -0.09129751               -0.11483554                0.34366738                0.01873223                1.55559411               -1.26083931
               6.23724865                1.26870296               36.05603043                0.40738966               -0.00773216               -0.03728724                0.05840302               -0.08253135                2.45637479                0.96795477
               7.23748604                1.05575752               35.96262940                0.50383248                0.05552624                0.04875032               -0.18290790               -0.03369950                1.60643904                0.46333673
               8.23835918                0.84388461               35.86460218                0.42057796                0.11502045                0.12642198               -0.41232858               -0.00636674                1.52163933               -0.26823876
               9.23978645                0.63288759               35.76894318                0.50802897                0.17873408                0.19481805               -0.63815916               -0.04396513                1.56298167                0.49357715
              10.24193386                0.42283708               35.67135498                1.00000000                0.26468853                0.25544866               -0.88302378               -0.03001391                0.81633862                0.84520873
              11.24508022                0.21322196               35.56063554                1.00000000                0.35520836                0.32896113               -1.16312214                0.00483699                0.09588038                0.14856464
              12.24903803                0.00345563               35.44859607                1.00000000                0.39578103                0.44699185               -1.44452694                0.03013804                0.03338984               -1.15395588
               2.45852749                3.12578729               36.42836690                1.00000000               -0.25584973               -0.34126665                1.01033293               -0.00816326                0.04694267                1.71347608
               3.45596900                2.91214172               36.31051706                1.00000000               -0.22514781               -0.23013468                0.75894036                0.01153774                0.23023032                0.17579769
               4.45402454                2.69796154               36.19630723                0.65093768               -0.15308719               -0.12200903                0.50968445               -0.01965536                0.67240871               -1.26033353
               5.45290725                2.48296097               36.08724967                0.00010000               -0.21848642               -0.07809177                0.21388573                0.03917177                4.52794678               -1.97696300
               6.44965481                2.26894838               36.05008973                0.00010000               -0.19347960               -0.04690062               -0.12369026               -0.08476943                5.67974364               -1.11221621
               7.44903766                2.05670378               35.95810356                0.00010000               -0.01273537               -0.04033183               -0.32088167               -0.14309946                2.59538888               -0.04975938
               8.44940010                1.84563484               35.85810619                0.00010000                0.01326855               -0.00980912               -0.53297483               -0.20012008                3.63053907                0.81569788
               9.44930303                1.63527662               35.78633290                0.00010000                0.07539899                0.02629180               -0.78993930               -0.21491940                4.38638596                1.44294146
              10.45090808                1.42564433               35.70093133                0.41986799                0.25008979                0.23380718               -1.01869512               -0.19665312                2.54335063                1.87182600
              11.45430483                1.21660853               35.59244328                1.00000000                0.38238994                0.33228220               -1.28656831               -0.06975007                0.91279080                0.88878079
              12.45855588                1.00820023               35.47434298                1.00000000                0.42510529                0.51033576               -1.56665603                0.01388098                0.44119634               -1.05660441
               2.67153076                4.12244782               36.38788888                1.00000000               -0.20978469               -0.32231960                0.87866608               -0.01497945                0.11868607                1.59241009
               3.66943292                3.91001091               36.26239785                1.00000000               -0.18342600               -0.19029518                0.62749051                0.00256034                0.18408488               -0.00048713
               4.66786224                3.69704875               36.13817587                0.36677934               -0.09978189               -0.06485818                0.39136893               -0.07823612                1.13414423               -1.67600400
               5.66743728                3.48228450               36.03166002                0.00010000               -0.30258915               -0.01601407                0.13374731               -0.11100649                5.22985369               -2.65879595
               6.66181046                3.26776495               35.98928341                0.00010000               -0.47498472               -0.04461739               -0.13650707               -0.26205456                8.06603475               -2.74131316
               7.65793758                3.05495089               35.93743492                0.00010000               -0.30132647               -0.09648405               -0.38027921               -0.38670335                7.30647960               -0.49297293
               8.65578393                2.84368843               35.87729219                0.00010000               -0.12295083               -0.14479698               -0.61457277               -0.49228347                6.88066592                1.74085948
               9.65547857                2.63341342               35.81479170                0.00010000                0.04424817               -0.14529317               -0.86241358               -0.33704459                6.56654434                2.32042601
              10.65666889                2.42751322               35.74610833                0.17359939                0.28253772               -0.06804806               -1.21957153               -0.27563336                4.34875517                3.65354961
              11.66112932                2.21986761               35.63596187                0.69503913                0.47316779                0.27889003               -1.47963602               -0.17127215                1.23179366                1.84596227
              12.66613225                2.01366234               35.50541780                1.00000000                0.50029279                0.59637502               -1.73069136               -0.06950394                0.23231870               -0.34433358
               2.88310174                5.11934090               36.34511327                1.00000000               -0.16824607               -0.29077758                0.73720513               -0.02747873                0.18879806                1.33136315
               3.88141928                4.90833581               36.21204358                0.80770874               -0.14577596               -0.13611946                0.48602223               -0.01872661                0.29223067               -0.30955571
               4.88018622                4.69666437               36.08099731                0.19679197               -0.07241790                0.00181494                0.24499041               -0.13347248                1.35312490               -1.79634510
               5.87997092                4.48264069               35.96913266                0.00010000               -0.42194431                0.11084010                0.00951798               -0.33217759                7.00938475               -2.68864050
               6.87174733                4.26805603               35.95116560                0.00010000               -0.72954015                0.09348637               -0.19680046               -0.53311136               11.33496515               -1.08015495
               7.86538012                4.05477410               35.92397724                0.00010000               -0.53277187                0.03887591               -0.43148339               -0.63085832               10.60688820                0.18916096
               8.86109190                3.84273890               35.88924521                0.00010000               -0.33213854               -0.04118223               -0.67765452               -0.68639419               10.13268336                1.52972942
               9.85873735                3.63237076               35.84996726                0.00010000               -0.10753346               -0.10046387               -0.94480907               -0.66019326               10.00819444                2.82038901
              10.85894123                3.42428337               35.81004155                0.14793218                0.29964571               -0.32890391               -1.21637890               -0.33446203                5.97053262                4.37567055
              11.86473026                3.22218633               35.68651292                0.56416772                0.53175520                0.21945506               -1.38677565               -0.02884423                1.02668794                2.20859836
              12.86957633                3.02012773               35.54545234                0.94756101                0.48460705                0.64314049               -1.72450061               -0.07140633                0.20815588                0.17501186
               3.09299135                6.11663227               36.29952456                1.00000000               -0.12564472               -0.24281078                0.58580131               -0.03256227                0.13027118                1.06920024
               4.09173490                5.90728852               36.15769329                0.63976706               -0.10517176               -0.07423733                0.32369793               -0.03307541                0.35407761               -0.62419711
               5.09088792                5.69708505               36.02028584                0.12022883               -0.11664164                0.08402386                0.08408842               -0.15472811                2.06697314               -2.18080291
               6.08940207                5.48450130               35.91271098                0.00010000               -0.59365454                0.18163088               -0.05280701               -0.65207178                9.47237927               -0.84031346
               7.07901483                5.26963468               35.92341158                0.00010000               -0.93822640                0.19603308               -0.23282310               -0.85805404               14.65379900               -0.07342201
               8.07063754                5.05572840               35.91737729                0.00010000               -0.72777220                0.14277820               -0.47608048               -0.92412037               13.60596435                0.78843413
               9.06445938                4.84286478               35.90461227                0.00010000               -0.49536561                0.04638692               -0.71789664               -0.98254255               13.25989541                1.83619919
              10.06073023                4.63140414               35.88873189                0.00010000               -0.21476487               -0.08571176               -0.96933288               -1.02461818               13.23688624                3.04467580
              11.06016408                4.42093514               35.87202438                0.15171028                0.19889244               -0.28230573               -1.26013394               -0.45516990                7.54054591                4.29348817
              12.06470808                4.22425671               35.73747880                0.51671092                0.43286202                0.19866092               -1.19700136                0.07105509                0.91262027                2.11848905
              13.06882132                4.02652515               35.58617000                0.92952281                0.41132444                0.61151376               -1.53689763               -0.03403020                0.11444037                0.21288838
               3.30113800                7.11448468               36.25160258                1.00000000               -0.08330086               -0.18260692                0.42936665               -0.02942861                0.05400324                0.89250723
               4.30030499                6.90685107               36.10093552                0.54179945               -0.06295662               -0.02101525                0.16324815               -0.03001896                0.30041694               -0.77047482
               5.29987887                6.69834485               35.95513564                0.07809522               -0.29625708                0.15037599               -0.08958909               -0.20461555                4.43253229               -2.51345634
               6.29437985                6.48627331               35.88710275                0.00010000               -0.82598593                0.17084117                0.08977191               -0.87839428               12.65033035                1.17994599
               7.28335915                6.27197669               35.90550641                0.00010000               -1.03561238                0.27732005               -0.27199773               -1.05359646               16.71709795                0.68193399
               8.27366760                6.05762966               35.91620458                0.00010000               -0.87969237                0.24773592               -0.51409668               -1.18690793               16.29032983                1.18458851
               9.26576530                5.84366664               35.92310974                0.00010000               -0.67464913                0.12499671               -0.72900530               -1.31930770               16.21755068                2.02676207
              10.26017462                5.63065653               35.92890748                0.00010000               -0.43900208               -0.04181590               -0.93026558               -1.45536718               16.40936866                3.07654778
              11.25698526                5.41863726               35.93556081                0.17055505                0.01933638               -0.17375925               -1.12117432               -0.74543731                8.92973640                4.29218205
              12.26056135                5.22615955               35.78673400                0.49095407                0.36867881                0.19241019               -1.08882600                0.08212532                0.63776933                1.90808269
              13.26435884                5.03235800               35.62608903                0.91882696                0.37974887                0.56810047               -1.44137594               -0.01099214                0.07531082                0.09614125
               3.50767001                8.11298013               36.20253687                1.00000000               -0.03956519               -0.11890601                0.27425471               -0.02663627                0.01767185                0.82225493
               4.50727435                7.90686821               36.04351706                0.50282143               -0.01483204                0.02074173                0.00756062               -0.01581024                0.16654857               -0.79505987
               5.50737337                7.70009257               35.88739947                0.05295539               -0.45360029                0.17985012               -0.26499025               -0.26396802                7.34639342               -2.64646097
               6.49820235                7.48791813               35.87193253                0.00010000               -1.03934104                0.26971891               -0.05212761               -0.80560563               16.28041158                1.04932932
               7.48658654                7.27518108               35.89323831                0.00010000               -1.14964562                0.41258882               -0.34978185               -1.01155726               18.42775718                0.89888392
               8.47520944                7.06068312               35.91795833                0.00010000               -1.07700908                0.41449425               -0.56122412               -1.34009080               18.76983884                1.28164582
               9.46504636                6.84536472               35.94281974                0.00010000               -0.92785822                0.25803140               -0.72586020               -1.65249586               19.03666255                2.02369460
              10.45665227                6.63056783               35.96895879                0.00010000               -0.76470231                0.04472400               -0.84240193               -1.87065187               19.49092269                2.92014339
              11.44975232                6.41745996               35.99841112                0.20248951               -0.20112151               -0.05628419               -0.87805158               -1.03082474               10.19406559                3.96183481
              12.45262984                6.22810491               35.83382807                0.47932960                0.32261274                0.20810869               -1.02568708                0.05887462                0.27934128                1.64370464
              13.45620457                6.03788716               35.66411630                0.91138471                0.35747302                0.53441665               -1.38974062                0.00107388                0.04611313               -0.13057447
               3.71282912                9.11210656               36.15322188                1.00000000                0.00472353               -0.05779813                0.12119081               -0.02459968                0.00303010                0.82550094
               4.71287636                8.90726590               35.98612948                0.51487328                0.03602372                0.05826451               -0.14495063               -0.00478472                0.01759508               -0.77418935
               5.71354959                8.70194185               35.81923845                0.03912649               -0.48485642                0.18476043               -0.42685466               -0.22166079                9.63363224               -2.45460743
               6.70317923                8.49166769               35.84438776                0.00010000               -1.15932920                0.48211365               -0.34543326               -0.56039551               19.88640614                0.12686465
               7.69036301                8.28022847               35.88018202                0.00010000               -1.32485380                0.62307636               -0.48498389               -0.83488912               20.74358042                0.65351984
               8.67668215                8.06591955               35.91933467                0.00010000               -1.37661639                0.66209553               -0.63037916               -1.29861707               21.27385661                1.05559552
               9.66283068                7.84882727               35.96203738                0.00010000               -1.30079034                0.56580234               -0.74132343               -1.83667880               21.76570726                1.73668056
              10.65066634                7.63155101               36.00679185                0.00905924               -1.19995014                0.22066635               -0.77339471               -2.33459364               22.32197958                2.91205554
              11.63883168                7.41751157               36.05589790                0.24761243               -0.46773542                0.05870404               -0.67042170               -1.30378788               11.39715470                3.20432171
              12.64131164                7.23032172               35.87797043                0.48049812                0.29920686                0.24251380               -0.99768091                0.01309637                0.03420349                1.31962168
              13.64481582                7.04304634               35.69932881                0.90647080                0.35041813                0.49427816               -1.37808093                0.00994518                0.01869922               -0.43147561
               3.91685933               10.11182417               36.10419702                1.00000000                0.04840367               -0.00199198               -0.03003097               -0.02359952               -0.01988370                0.73206758
               4.91734337                9.90803350               35.92899419                0.54978525                0.08395181                0.09596012               -0.29373774               -0.00170387                0.04981764               -0.64337856
               5.91853837                9.70378778               35.75508326                0.00766149               -0.43177701                0.19363627               -0.57065428               -0.07340395               11.60418530               -1.62264836
               6.90870783                9.49756040               35.81086965                0.00010000               -1.14507312                0.66169773               -0.57127204               -0.25620827               23.10103805               -0.12430648
               7.89563690                9.28764261               35.86349563                0.00010000               -1.40347661                0.78672117               -0.63766681               -0.50313762               23.21412258                0.29492006
               8.88063829                9.07392503               35.91731725                0.00010000               -1.64777882                0.89390525               -0.72756099               -0.85318135               23.76973571                0.58411692
               9.86268133                8.85668076               35.97697802                0.00010000               -1.96810999                0.97257286               -0.79899415               -1.45368905               24.82189746                1.02916034
              10.84127609                8.63498115               36.04777670                0.06933268               -1.88877415                0.86684806               -0.82402669               -2.12670789               24.85781429                2.30503804
              11.82490584                8.41863404               36.10367703                0.30815106               -0.69595438                0.16268525               -0.59767296               -1.54744201               12.23969988                1.81097739
              12.82735701                8.23295519               35.91854883                0.49103992                0.30242010                0.28375737               -1.00816984               -0.02281279                0.09211687                0.87249468
              13.83095425                8.04777273               35.73109266                0.89542734                0.35972398                0.46085068               -1.40726218                0.01259455               -0.00461256               -0.58165931
               4.11993847               11.11206672               36.05295447                1.00000000                0.09402059                0.02425507               -0.17688976                0.01975224                0.39948873                0.62583698
               5.12087867               10.90918510               35.87409094                0.81678510                0.13080750                0.11516032               -0.43993430                0.04092374                0.81315510               -0.52570792
               6.12255462               10.70581458               35.70338696                0.49760108               -0.33392213                0.20268048               -0.71056026                0.18745207               13.52740302               -0.99284636
               7.11420023               10.50490164               35.77867016                0.36889857               -0.93094964                0.73412415               -0.73148447                0.05665608               25.65285475               -0.13889169
               8.10393563               10.29596289               35.84402222                0.35849569               -1.18099318                0.83202841               -0.78278512               -0.22532731               25.43678180                0.10545753
               9.09058037               10.08379765               35.91003019                0.37131642               -1.56174218                0.98726176               -0.85279922               -0.39000084               26.01873035                0.28833330
              10.07270078                9.86827873               35.98280824                0.40634667               -2.22007275                1.15979620               -0.91100501               -0.74353869               27.47565154                0.56398238
              11.04617891                9.64888797               36.07421627                0.55826389               -3.13959891                1.39068136               -0.94234913               -1.88539047               26.96453433                1.60578356
              12.00990880                9.42076528               36.13306308                0.68463583               -1.72311103                0.21312403               -0.68716635               -2.14425895               13.52340627                0.90841822
              13.01171669                9.23599687               35.95351087                0.76231526                0.27619159                0.30416786               -1.07027426                0.01087214                1.07252161                0.60867380
              14.01543264                9.05226335               35.76296206                0.94724504                0.37159435                0.44906230               -1.46467946                0.07448705                0.54243529               -0.55608239
               2.13215031                1.19139500               37.52939423                1.00000000               -0.34760127               -0.37359236                1.28984503               -0.05821179               -0.99744977                1.00416515
               3.12867430                0.96742890               37.41552950                1.00000000               -0.30486590               -0.28704155                1.02855587               -0.03563904               -1.31077952                0.13697202
               4.12605299                0.74301308               37.29543119                1.00000000               -0.21255910               -0.20279151                0.74991612               -0.04201693               -1.28925082               -0.20771734
               5.12442311                0.51820079               37.18197344                0.63071646               -0.01997913               -0.13657605                0.48009249               -0.04894158               -0.49865024               -0.90114326
               6.12565341                0.29303044               37.07763946                0.70088196                0.16057945               -0.10896201                0.16476246               -0.06888938               -0.10098718                0.28573246
               7.12763470                0.06857739               36.97249302                0.77011213                0.20687456                0.00240296               -0.08751171               -0.07632074               -0.27456410                0.16518076
               8.12979090               -0.15448356               36.86397113                0.76263809                0.25046238                0.07857123               -0.31938236               -0.05030532               -0.46234007               -0.05927502
               9.13264395               -0.37650357               36.75415742                0.85370876                0.28796013                0.15112299               -0.52913096               -0.06705163               -0.75496815                0.10898556
              10.13555010               -0.59750280               36.63892331                1.00000000                0.29673265                0.23167078               -0.77037331               -0.06278873               -1.11147221                0.62182618
              11.13857860               -0.81806659               36.52153170                1.00000000                0.33103728                0.31963621               -1.03082845               -0.04049954               -1.09842419                0.01072399
              12.14217085               -1.03888620               36.40643076                1.00000000                0.35922444                0.41810397               -1.31399765               -0.01466040               -0.98216326               -0.96174762
               2.35553429                2.18765907               37.48024961                1.00000000               -0.30254264               -0.36308531                1.14658829               -0.01291303               -0.16579953                1.36938317
               3.35250886                1.96455848               37.36621177                1.00000000               -0.26437086               -0.26709472                0.88800821                0.00984122               -0.21621955                0.19604222
               4.35024687                1.74098516               37.25117217                0.95342017               -0.17919230               -0.17660178                0.60967234               -0.00742020               -0.10160155               -0.48386157
               5.34892502                1.51683503               37.13934280                0.26859573               -0.02353280               -0.10843492                0.32825418               -0.04612379                1.51863819               -1.26646073
               6.34977622                1.29194082               37.05646608                0.40772488                0.08517389               -0.05610606                0.02476406               -0.07404027                2.44773970                0.94429382
               7.35062850                1.06860142               36.96062461                0.49997778                0.10260546                0.04634077               -0.22271921               -0.04206517                1.64502240                0.46229445
               8.35182833                0.84630215               36.86031888                0.41987025                0.14272807                0.12937753               -0.44686457               -0.01470763                1.58151261               -0.26261938
               9.35348306                0.62500766               36.76246582                0.50799639                0.19376993                0.19947723               -0.65607495               -0.04289995                1.62193954                0.48873064
              10.35570373                0.40481390               36.66247604                1.00000000                0.26911243                0.25887418               -0.89260574               -0.03505560                0.84713066                0.85539167
              11.35886531                0.18512977               36.54897190                1.00000000                0.35700647                0.33293586               -1.16944593                0.00247968                0.10508461                0.16301041
              12.36284385               -0.03470516               36.43411514                1.00000000                0.39785485                0.44524276               -1.45092279                0.03085336                0.03881141               -1.12406850
               2.57809323                3.18413329               37.43848065                1.00000000               -0.25482023               -0.34593488                1.01424798               -0.00756297                0.04500291                1.73182994
               3.57554503                2.96208700               37.31809102                1.00000000               -0.22325979               -0.22971828                0.75622587                0.01164935                0.22828507                0.18977123
               4.57362803                2.73948104               37.20135395                0.66760804               -0.15000228               -0.11698854                0.49888439               -0.02321348                0.64857477               -1.23368223
               5.57254498                2.51603210               37.08930947                0.00010000               -0.06109085               -0.06918933                0.19657120               -0.05271797                4.45718324               -1.94598146
               6.57240622                2.29190832               37.04865974                0.00010000               -0.00564577               -0.07326142               -0.16613383               -0.26992099                5.68205427               -1.07085759
               7.57243207                2.06950421               36.95469028                0.00010000                0.03421443               -0.04356545               -0.36396137               -0.30176338                2.67922625               -0.01383598
               8.57309051                1.84810399               36.85257249                0.00010000                0.04210673               -0.00803301               -0.56971628               -0.32304266                3.69785287                0.83830062
               9.57327420                1.62748598               36.77836165                0.00010000                0.08181856                0.02142202               -0.79305963               -0.28020935                4.44061169                1.44967529
              10.57472688                1.40767468               36.69066531                0.41754002                0.24365294                0.26382274               -1.02926526               -0.17588764                2.57474712                1.82821496
              11.57814726                1.18859213               36.57942558                1.00000000                0.38654515                0.34500865               -1.30691356               -0.06239626                0.91660061                0.86896105
              12.58245778                0.97001866               36.45855466                1.00000000                0.43105201                0.50619440               -1.58157116                0.01723653                0.43770871               -1.04441838
               2.79947561                4.18074037               37.39667698                1.00000000               -0.20815096               -0.32795583                0.88080465               -0.01503781                0.12144027                1.60438884
               3.79739410                3.95996412               37.26865074                1.00000000               -0.18190479               -0.18859561                0.62329072                0.00209931                0.19381912                0.00753210
               4.79583751                3.73864539               37.14204812                0.36861093               -0.09753565               -0.05616676                0.38148079               -0.08433337                1.14034758               -1.66734451
               5.79544338                3.51545125               37.03291770                0.00010000               -0.24659110               -0.00488013                0.11489631               -0.22283699                5.21637060               -2.62253215
               6.79090569                3.29047559               36.98774829                0.00010000               -0.35229135               -0.05348132               -0.17376292               -0.55571869                8.06835868               -2.64366130
               7.78839756                3.06773011               36.93339084                0.00010000               -0.17599923               -0.10953613               -0.43117419               -0.64849731                7.34158909               -0.42236627
               8.78738570                2.84614149               36.87084934                0.00010000               -0.00446868               -0.15696427               -0.67486338               -0.72594769                6.92263428                1.78314865
               9.78830818                2.62543610               36.80576092                0.00010000                0.18470576               -0.16600839               -0.93875596               -0.46957176                6.56236589                2.34886819
              10.79107982                2.41009036               36.73360787                0.15841171                0.34826108               -0.09631831               -1.23116462               -0.30192924                4.31122601                3.60995598
              11.79527340                2.19202995               36.62085698                0.65581001                0.46278554                0.27973945               -1.51067392               -0.19372610                1.25759244                1.90415842
              12.80033553                1.97541873               36.48788199                1.00000000                0.50621255                0.59985998               -1.74938943               -0.07251386                0.24640949               -0.28925238
               3.01934499                5.17757417               37.35247495                1.00000000               -0.16629974               -0.29634392                0.73681448               -0.02847252                0.19555713                1.33249374
               4.01768199                4.95831509               37.21687199                0.79813708               -0.14453781               -0.13198991                0.47995547               -0.02102265                0.30379998               -0.31761796
               5.01645424                4.73835771               37.08340045                0.19325014               -0.07119752                0.01456076                0.23470222               -0.14386473                1.37303418               -1.80964091
               6.01625804                4.51593449               36.96915925                0.00010000               -0.37206277                0.11779299               -0.00836964               -0.45525801                7.04366073               -2.63777187
               7.00901298                4.29083869               36.94902747                0.00010000               -0.62309124                0.09534672               -0.23431427               -0.74739888               11.37437636               -0.99657159
               8.00379622                4.06731348               36.91937696                0.00010000               -0.40737092                0.01982101               -0.49218227               -0.83911775               10.63320072                0.26290022
               9.00086556                3.84496471               36.88205782                0.00010000               -0.19311592               -0.06272510               -0.76295441               -0.88673323               10.14956769                1.58882431
               9.99993390                3.62416581               36.83996539                0.00010000                0.06144426               -0.12467886               -1.05817602               -0.83399078               10.00773697                2.86617641
              11.00209445                3.40574831               36.79685805                0.13487437                0.45052335               -0.41707611               -1.42767380               -0.41537487                6.05608746                4.44118966
              12.00894437                3.19418692               36.67175290                0.52899148                0.60677457                0.19184371               -1.51790307               -0.02724229                1.09359894                2.47142218
              13.01422994                2.98201586               36.52762000                0.92664120                0.52855703                0.66599121               -1.79611597               -0.08235373                0.17388381                0.37550609
               3.23742432                6.17481350               37.30535879                1.00000000               -0.12342145               -0.24696391                0.58259898               -0.03334727                0.12856474                1.06191790
               4.23619011                5.95732432               37.16088012                0.62787805               -0.10417547               -0.06792531                0.31354822               -0.03531246                0.36397825               -0.64169025
               5.23534081                5.73893661               37.02106723                0.11568976               -0.11664343                0.10075790                0.07037220               -0.17672178                2.14563579               -2.20806399
               6.23385724                5.51780711               36.91220330                0.00010000               -0.53810456                0.15956707               -0.05237098               -0.78877853                9.57584548               -0.65379877
               7.22457872                5.29238253               36.92091283                0.00010000               -0.81840253                0.18588215               -0.27120355               -1.06609527               14.69961607                0.02046974
               8.21748919                5.06812653               36.91227712                0.00010000               -0.58900032                0.12655111               -0.54857795               -1.10514682               13.62620872                0.87085817
               9.21279871                4.84488699               36.89692387                0.00010000               -0.33222139                0.02480125               -0.82529995               -1.15113340               13.27492605                1.92422753
              10.21084476                4.62294252               36.87827953                0.00010000               -0.00237517               -0.11283842               -1.13013387               -1.17779338               13.21605198                3.15421106
              11.21275121                4.40174884               36.85820126                0.13942658                0.38081280               -0.34123062               -1.52712711               -0.50828387                7.73228417                4.46760323
              12.21846102                4.19586682               36.72492213                0.48963053                0.51396837                0.16692922               -1.31142946                0.07475759                1.12846896                2.40195065
              13.22303058                3.98873855               36.57035721                0.91129995                0.45695624                0.63627699               -1.61208935               -0.04684842                0.10728897                0.45294467
               3.45365640                7.17263489               37.25585727                1.00000000               -0.08037721               -0.18469215                0.42303994               -0.02970161                0.05109144                0.88256798
               4.45285263                6.95695658               37.10250677                0.53163973               -0.06096969               -0.01408876                0.15054780               -0.03116863                0.30374389               -0.78408605
               5.45243701                6.74037287               36.95415398                0.07357475               -0.29080381                0.16771990               -0.11003285               -0.26076194                4.67164007               -2.54702232
               6.44703656                6.51912583               36.88813013                0.00010000               -0.75326796                0.13282595                0.10922097               -1.00767269               12.82621036                1.30311400
               7.43737165                6.29455634               36.90257130                0.00010000               -0.89238689                0.25769922               -0.32070956               -1.22829569               16.67022890                0.75732303
               8.42918882                6.06984450               36.91066707                0.00010000               -0.71723752                0.22554271               -0.59938703               -1.34961214               16.32775375                1.27289742
               9.42302690                5.84546073               36.91523460                0.00010000               -0.48363149                0.09655972               -0.85418318               -1.46547146               16.27262037                2.14821760
              10.41951619                5.62190904               36.91878070                0.00010000               -0.20112142               -0.07426765               -1.10992907               -1.60166856               16.47041674                3.26411311
              11.41900447                5.39892370               36.92319337                0.15798021                0.19668075               -0.21698253               -1.38716263               -0.80632101                9.18197234                4.62232105
              12.42344980                5.19752550               36.77545799                0.46891302                0.42725163                0.17368825               -1.16937227                0.08762580                0.85867276                2.09922049
              13.42754951                4.99474140               36.61142339                0.90321815                0.40997016                0.57867374               -1.48876495               -0.01887004                0.07518217                0.25127610
               3.66818691                8.17111965               37.20522606                1.00000000               -0.03581492               -0.11913557                0.26476613               -0.02687172                0.01601938                0.81302764
               4.66782876                7.95704254               37.04352219                0.49546333               -0.01152946                0.02768465               -0.00713702               -0.01576229                0.16132070               -0.80442531
               5.66795632                7.74229101               36.88465032                0.05086274               -0.41542236                0.19527832               -0.28672132               -0.34665714                7.57765481               -2.67198154
               6.65952032                7.52046363               36.87120715                0.00010000               -0.93310928                0.25351082               -0.09978089               -0.93768806               16.51035073                0.95376625
               7.64929414                7.29753651               36.88945688                0.00010000               -0.99638826                0.39063713               -0.41288913               -1.16925841               18.44935872                0.93146683
               8.63959255                7.07263738               36.91188498                0.00010000               -0.89346926                0.38417364               -0.66049133               -1.49298264               18.85988868                1.36433982
               9.63142475                6.84681819               36.93493455                0.00010000               -0.71220654                0.21894145               -0.86125727               -1.79050500               19.17892597                2.15559423
              10.62534842                6.62145717               36.95975966                0.00010000               -0.52082119                0.00004810               -1.01509115               -2.01219495               19.70942749                3.13871363
              11.62100833                6.39740919               36.98876681                0.18952281               -0.04762909               -0.07598106               -1.08531264               -1.10193647               10.46165377                4.32884136
              12.62439584                6.19934059               36.82324536                0.45985581                0.36065313                0.20152723               -1.09401170                0.06442343                0.40826266                1.77753653
              13.62822139                6.00031203               36.64997228                0.89736509                0.38255528                0.54117236               -1.43688340               -0.00265318                0.04693781               -0.03611962
               3.88127319                9.17025218               37.15436606                1.00000000                0.00928404               -0.05634702                0.10851932               -0.02477531                0.00191251                0.81700173
               4.88136603                8.95751028               36.98459866                0.51050165                0.04047960                0.06537514               -0.16216074               -0.00453152                0.00844930               -0.77927365
               5.88208278                8.74427843               36.81486944                0.03762320               -0.41643707                0.19667431               -0.44916741               -0.31554052                9.78988155               -2.46109326
               6.87303729                8.52419605               36.84063511                0.00010000               -1.01350298                0.47197731               -0.40860567               -0.72610270               20.12808091                0.01440879
               7.86181272                8.30236908               36.87496493                0.00010000               -1.14949001                0.59318217               -0.56418139               -0.99461677               20.88712699                0.65442232
               8.85004749                8.07752798               36.91250183                0.00010000               -1.17078546                0.62553457               -0.74339756               -1.44470082               21.44098755                1.12061271
               9.83839702                7.84983956               36.95390939                0.00010000               -1.06831006                0.52493060               -0.89374003               -1.97976735               22.01111721                1.84644152
              10.82868129                7.62191000               36.99833124                0.00218437               -0.96573436                0.17784842               -0.93306387               -2.46650908               22.70662347                3.03962117
              11.81908233                7.39740408               37.04867797                0.23546469               -0.34229297                0.06192969               -0.79390011               -1.37404661               11.67383513                3.47800545
              12.82183543                7.20155605               36.86768578                0.46194510                0.32356145                0.24825512               -1.06321038                0.01562432                0.06711233                1.41147279
              13.82555356                7.00556484               36.68527027                0.89312329                0.37181268                0.50703154               -1.43457638                0.00727553                0.01874647               -0.38479088
               4.09317522               10.16999271               37.10381317                0.99758492                0.05366631                0.00126348               -0.04650883               -0.02366020               -0.01980876                0.72603520
               5.09371188                9.95835004               36.92597066                0.54756295                0.08922593                0.10293151               -0.31253605               -0.00244280                0.04298080               -0.64409181
               6.09495974                9.74622449               36.74927301                0.00664052               -0.34021334                0.20256787               -0.59409556               -0.18426746               11.72272626               -1.61561211
               7.08690762                9.52990317               36.80490552                0.00010000               -0.94449315                0.61073141               -0.62597352               -0.40150232               23.33463214               -0.16885775
               8.07606987                9.30940015               36.85669354                0.00010000               -1.18397815                0.74099155               -0.72815864               -0.62066538               23.42475161                0.29159354
               9.06322805                9.08514808               36.90944413                0.00010000               -1.43112465                0.85706135               -0.85362200               -0.95432793               23.99957889                0.62075621
              10.04744738                8.85731680               36.96814220                0.00010000               -1.73871671                0.94691214               -0.97487450               -1.56654901               25.10078965                1.09078341
              11.02845372                8.62501414               37.03823393                0.06564868               -1.67830159                0.86568707               -1.09112888               -2.22891720               25.38147095                2.32399893
              12.01388135                8.39864778               37.09740741                0.29948873               -0.59530785                0.17776473               -0.66373515               -1.61190178               12.59220945                1.91885267
              13.01654756                8.20430569               36.90817330                0.47274504                0.32339794                0.29809171               -1.07017548               -0.02386858                0.08299604                0.91857014
              14.02034931                8.01045266               36.71669236                0.88217780                0.38017473                0.47914798               -1.47540110                0.01045968               -0.00761381               -0.57018208
               4.30408532               11.17027745               37.05109501                1.00000000                0.10000720                0.02847404               -0.19522882                0.02015586                0.39583184                0.62195563
               5.30508540               10.95956891               36.86959900                0.81652001                0.13794921                0.12188620               -0.46122110                0.03996825                0.80557557               -0.52384165
               6.30684431               10.74832979               36.69616666                0.49646627               -0.16269060                0.21052972               -0.73669259                0.03054564               13.63416074               -0.98205105
               7.30183158               10.53641068               36.77106045                0.36901367               -0.63448976                0.65075071               -0.79468409               -0.06464720               25.88443933               -0.16044040
               8.29415451               10.31718891               36.83572458                0.35862701               -0.93936473                0.77887555               -0.88193154               -0.27860989               25.66658195                0.10076511
               9.28304429               10.09466920               36.90083327                0.37109762               -1.34772702                0.95211286               -0.99230278               -0.43893166               26.26901029                0.30364397
              10.26719997                9.86877780               36.97272744                0.40545158               -2.01361625                1.14610054               -1.10887360               -0.79701404               27.75306242                0.58702895
              11.24277196                9.63922374               37.06300763                0.55748968               -2.98236145                1.42096033               -1.30445376               -1.95909685               27.53755220                1.59274556
              12.20755274                9.40095937               37.12587455                0.68159373               -1.66093921                0.23115949               -0.75649300               -2.21815370               13.95329233                0.92650473
              13.20955318                9.20751788               36.94251210                0.75321245                0.29580330                0.32121927               -1.13058741                0.00998325                1.10202876                0.62904899
              14.21346881                9.01514780               36.74795536                0.94049293                0.39156296                0.46951437               -1.53873087                0.07494226                0.56320812               -0.55670751
               2.23725831                1.25135385               38.54234478                1.00000000               -0.34973497               -0.37794462                1.30367195               -0.05951597               -1.01607117                1.01640109
               3.23376096                1.01885444               38.42582559                1.00000000               -0.30513670               -0.28815199                1.03208744               -0.03596877               -1.34007427                0.14443603
               4.23115558                0.78589749               38.30288531                1.00000000               -0.20978012               -0.20085610                0.74025298               -0.04232022               -1.32277576               -0.20741169
               5.22956536                0.55249610               38.18667885                0.63376557               -0.02391410               -0.13150086                0.45810721               -0.09167934               -0.55098081               -0.91801966
               6.23067730                0.31775554               38.07907510                0.69848103                0.17524912               -0.11869797                0.11424283               -0.06191018               -0.13454916                0.28149571
               7.23307034                0.08276921               37.97136012                0.76204316                0.25344978                0.00369432               -0.14972247               -0.08017229               -0.24872380                0.15922712
               8.23574629               -0.15077459               37.86054562                0.75461001                0.30064611                0.08054536               -0.37533924               -0.05110900               -0.39521560               -0.06253216
               9.23908327               -0.38305682               37.74871501                0.84811054                0.32463648                0.15147901               -0.56449509               -0.06946848               -0.67622379                0.11168784
              10.24223902               -0.61413358               37.63116062                1.00000000                0.31337193                0.23364852               -0.78654267               -0.06585389               -1.05418927                0.63497821
              11.24535070               -0.84463663               37.51120641                1.00000000                0.33700199                0.32249228               -1.03973888               -0.04127692               -1.06278626                0.02024716
              12.24897906               -1.07534332               37.39328223                1.00000000                0.36283581                0.41936830               -1.32079595               -0.01579661               -0.95629582               -0.93196304
               2.46916256                2.24757440               38.49175329                1.00000000               -0.30331079               -0.36786677                1.15709879               -0.01272402               -0.17487522                1.38543840
               3.46612945                2.01597292               38.37508951                1.00000000               -0.26255075               -0.26781309                0.88848976                0.01074779               -0.23678512                0.20726976
               4.46391155                1.78388893               38.25721655                0.96573960               -0.17049566               -0.17427736                0.59779744               -0.00849124               -0.13304514               -0.46843257
               5.46271954                1.55118109               38.14253555                0.27572558                0.05050457               -0.10148276                0.30646317               -0.10702977                1.47412951               -1.27273007
               6.46492164                1.31656856               38.05652571                0.40843880                0.19070715               -0.07532677               -0.01839508               -0.05685720                2.42943552                0.91226163
               7.46653368                1.08280615               37.95817502                0.49649700                0.16132889                0.04458057               -0.27362355               -0.04493009                1.68606764                0.45364734
               8.46814822                0.85003087               37.85566489                0.42018006                0.17671962                0.13224877               -0.48852369               -0.02043448                1.65679888               -0.26306055
               9.47006808                0.61845797               37.75582168                0.51032340                0.21110863                0.20159256               -0.67307746               -0.04443920                1.69431630                0.48929333
              10.47237039                0.38820291               37.65350287                1.00000000                0.27373652                0.26051890               -0.90046530               -0.03848022                0.88219012                0.86211056
              11.47554281                0.15858829               37.53724662                1.00000000                0.35787001                0.33696500               -1.17409007                0.00221199                0.11560551                0.17415496
              12.47952779               -0.07114964               37.41957761                1.00000000                0.39849823                0.44441658               -1.45445498                0.02984833                0.04514411               -1.08861007
               2.70020680                3.24399651               38.44865186                1.00000000               -0.25454065               -0.35165528                1.02258961               -0.00735912                0.04194956                1.75161675
               3.69766139                3.01349818               38.32564157                1.00000000               -0.22146071               -0.22961677                0.75437635                0.01120655                0.22438181                0.20458486
               4.69577758                2.78241194               38.20628492                0.68439970               -0.14581301               -0.11167865                0.48583481               -0.02705244                0.62339730               -1.20585454
               5.69474513                2.55046644               38.09118109                0.00010000                0.10687521               -0.05985050                0.17443375               -0.14089787                4.37663871               -1.91665744
               6.69791509                2.31624901               38.04676706                0.00010000                0.19821522               -0.10222861               -0.21685661               -0.45113855                5.66953359               -1.03753333
               7.69870944                2.08366082               37.95082433                0.00010000                0.08853478               -0.04946408               -0.41288110               -0.46219922                2.76653908                0.00851457
               8.69968578                1.85187039               37.84671186                0.00010000                0.06565030               -0.00824022               -0.60449032               -0.44837319                3.78381644                0.84130121
               9.70002244                1.62097503               37.77047171                0.00010000                0.08266563                0.01645341               -0.78647395               -0.34471554                4.49252942                1.41468538
              10.70133910                1.39107680               37.68034603                0.41465483                0.23625243                0.26583453               -1.02852116               -0.17227026                2.58932401                1.80190277
              11.70474749                1.16210267               37.56630501                1.00000000                0.38563992                0.35175792               -1.30781277               -0.05337748                0.91256784                0.84723633
              12.70905190                0.93354501               37.44271156                1.00000000                0.43044045                0.49807953               -1.57749382                0.01836576                0.43190612               -1.02205785
               2.93001205                4.24054130               38.40550497                1.00000000               -0.20738962               -0.33437771                0.88710962               -0.01547091                0.12373232                1.61708001
               3.92793816                4.01138058               38.27486366                1.00000000               -0.18049090               -0.18720540                0.61965465                0.00112205                0.20317816                0.01633642
               4.92640223                3.78165536               38.14580548                0.36972929               -0.09368177               -0.04797463                0.36822566               -0.09072248                1.14515869               -1.65659209
               5.92606452                3.54998408               38.03395795                0.00010000               -0.18488726                0.00666062                0.08872287               -0.33296907                5.19641906               -2.58649108
               6.92270449                3.31452399               37.98580815                0.00010000               -0.21981012               -0.06444756               -0.21890339               -0.85325750                8.06146456               -2.54303062
               7.92166832                3.08181687               37.92881143                0.00010000               -0.04189737               -0.12575007               -0.48824802               -0.91767918                7.36792286               -0.36211553
               8.92186654                2.84986606               37.86379492                0.00010000                0.11495191               -0.17147645               -0.73653239               -0.96103988                6.94953363                1.79895898
               9.92396736                2.61878704               37.79601658                0.00010000                0.29654029               -0.18996780               -0.99941501               -0.61385258                6.58451257                2.31391912
              10.92779735                2.39351960               37.72148503                0.14432915                0.40198466               -0.12815161               -1.19065616               -0.31136089                4.27957798                3.45534570
              11.93200705                2.16562345               37.60574839                0.62630333                0.46065408                0.27234760               -1.49494012               -0.18074260                1.24181773                1.91799542
              12.93701043                1.93881195               37.47043001                1.00000000                0.50033796                0.58088088               -1.72727124               -0.06775452                0.25380582               -0.23950044
               3.15821881                5.23730896               38.35984956                1.00000000               -0.16490325               -0.30264933                0.74027193               -0.03009231                0.20303602                1.33366112
               4.15656977                5.00975407               38.22164269                0.78806266               -0.14295833               -0.12803286                0.47400639               -0.02443150                0.31679427               -0.32638178
               5.15535964                4.78145245               38.08569135                0.18930261               -0.06763286                0.02574404                0.22105314               -0.15395945                1.39295327               -1.82339050
               6.15521712                4.55059966               37.96896527                0.00010000               -0.31712468                0.12351845               -0.03510661               -0.57417691                7.06940434               -2.57316288
               7.14901715                4.31496006               37.94647932                0.00010000               -0.51016683                0.09881284               -0.27945767               -0.96125012               11.39950564               -0.91086071
               8.14501378                4.08114582               37.91413359                0.00010000               -0.27611639                0.00192963               -0.55964966               -1.05184141               10.63979136                0.32957443
               9.14349482                3.84844086               37.87398612                0.00010000               -0.04609616               -0.08467533               -0.85210443               -1.09405933               10.13885233                1.62786288
              10.14409186                3.61717568               37.82880374                0.00010000                0.23903251               -0.15569916               -1.17122877               -1.00602883                9.93107552                2.86996978
              11.14827547                3.38851377               37.78148807                0.12188863                0.58742148               -0.47838579               -1.61762855               -0.46281198                6.10972685                4.34411550
              12.15584029                3.16754962               37.65615486                0.49942540                0.65221696                0.14835913               -1.55518678               -0.01183391                1.20457701                2.67141390
              13.16131981                2.94516263               37.50953002                0.91109865                0.54795210                0.64843548               -1.78782556               -0.08437370                0.15162366                0.55676365
               3.38451998                6.23448831               38.31117654                1.00000000               -0.12139507               -0.25200938                0.58280052               -0.03473737                0.12631056                1.05434087
               4.38330603                6.00881993               38.16396425                0.61507695               -0.10212624               -0.06133928                0.30283223               -0.04023444                0.37500215               -0.66033248
               5.38247746                5.78217024               38.02169328                0.11066923               -0.11163284                0.11844314                0.05103740               -0.20184021                2.23663476               -2.24062099
               6.38107338                5.55245445               37.91166356                0.00010000               -0.47720693                0.13660408               -0.05800368               -0.92001801                9.67655532               -0.44760904
               7.37293332                5.31650025               37.91798751                0.00010000               -0.69613459                0.18095225               -0.31770459               -1.26946688               14.71606817                0.11314266
               8.36715069                5.08185546               37.90640573                0.00010000               -0.44889115                0.11669672               -0.62917638               -1.28910463               13.61568121                0.94685772
               9.36395550                4.84817256               37.88810627                0.00010000               -0.16884062                0.00897251               -0.94071578               -1.32865753               13.24336972                1.99723771
              10.36377387                4.61567306               37.86612921                0.00010000                0.21058325               -0.13585101               -1.30078642               -1.33441760               13.09862426                3.23231251
              11.36816716                4.38395188               37.84148183                0.12664687                0.56738201               -0.39978166               -1.81397442               -0.57052354                7.92225587                4.61067961
              12.37512151                4.16859063               37.71125021                0.46403307                0.59648925                0.11355527               -1.39490024                0.07466410                1.40778024                2.68498381
              13.38009695                3.95178066               37.55392821                0.89575090                0.49754350                0.63029129               -1.64753742               -0.05040349                0.08787083                0.68631215
               3.60886083                7.23226877               38.26006338                1.00000000               -0.07776678               -0.18782065                0.41965156               -0.03024076                0.04790685                0.87186203
               4.60808316                7.00852728               38.10394647                0.52164733               -0.05862559               -0.00660548                0.13715654               -0.03384912                0.30562286               -0.79732981
               5.60768831                6.78382131               37.95293498                0.06858250               -0.27982059                0.18836203               -0.13579190               -0.32157538                4.93170403               -2.58255350
               6.60248675                6.55333174               37.88928717                0.00010000               -0.67307608                0.10170088                0.11158777               -1.13563948               12.99791326                1.40465594
               7.59422679                6.31857910               37.89909222                0.00010000               -0.74636841                0.24582639               -0.37982456               -1.39447062               16.57926114                0.82716286
               8.58755938                6.08347976               37.90421684                0.00010000               -0.55613587                0.21398465               -0.69508269               -1.50899651               16.32885049                1.35574909
               9.58310408                5.84862031               37.90602607                0.00010000               -0.29675991                0.08146255               -0.99273031               -1.61131977               16.27251508                2.26278410
              10.58162418                5.61445866               37.90670890                0.00010000                0.04216730               -0.09407507               -1.31351511               -1.74337445               16.43238953                3.44992937
              11.58394742                5.38051813               37.90781755                0.14459558                0.39403052               -0.26998475               -1.71519938               -0.86527021                9.45410353                4.99477338
              12.58950479                5.16982073               37.76334655                0.44710924                0.49921326                0.14186091               -1.24637194                0.08592110                1.16578239                2.30967818
              13.59393169                4.95776845               37.59631373                0.88897387                0.44268959                0.57686137               -1.52556188               -0.02560082                0.06919100                0.40205913
               3.83139814                8.23073190               38.20783219                1.00000000               -0.03216347               -0.12046449                0.25770725               -0.02734101                0.01455724                0.80277348
               4.83107651                8.00868782               38.04337432                0.48830973               -0.00783221                0.03523335               -0.02312488               -0.01678095                0.15554687               -0.81300619
               5.83124150                7.78593748               37.88166504                0.04863326               -0.37368545                0.21379912               -0.31216555               -0.42884474                7.79597373               -2.69344913
               6.82360280                7.55448847               37.86993691                0.00010000               -0.81728047                0.24628762               -0.16080244               -1.06810496               16.72306523                0.82648217
               7.81489589                7.32141678               37.88498052                0.00010000               -0.83366276                0.37505774               -0.48859070               -1.31706316               18.45067035                0.95862991
               8.80692954                7.08613516               37.90474850                0.00010000               -0.70728449                0.36464447               -0.77225843               -1.63084488               18.91372663                1.44465588
               9.80075020                6.84980181               37.92559460                0.00010000               -0.49604923                0.19640658               -1.01491223               -1.91120340               19.27270147                2.28774578
              10.79700856                6.61379156               37.94865696                0.00010000               -0.26252560               -0.02947515               -1.22236689               -2.14217844               19.85938485                3.38360092
              11.79549969                6.37855219               37.97670486                0.17525950                0.12905288               -0.10435302               -1.36938095               -1.16786399               10.75842578                4.79428471
              12.79958962                6.17142785               37.81194783                0.44035789                0.40948977                0.19012550               -1.16655733                0.06612459                0.60883039                1.91898890
              13.80368948                5.96331789               37.63537863                0.88414355                0.40998657                0.54309926               -1.48127062               -0.00649241                0.04632987                0.03776480
               4.05240217                9.22985948               38.15539226                1.00000000                0.01397928               -0.05579873                0.09757787               -0.02525146                0.00053412                0.80714521
               5.05254196                9.00923195               37.98288627                0.50591547                0.04543024                0.07317516               -0.18131460               -0.00477756               -0.00100494               -0.78346293
               6.05331077                8.78809730               37.81025510                0.03568401               -0.34483044                0.21204184               -0.47615657               -0.40789641                9.92813635               -2.46389781
               7.04564535                8.55825749               37.83621565                0.00010000               -0.85359664                0.46347230               -0.47384018               -0.88199495               20.33860971               -0.09342267
               8.03623884                8.32608026               37.86889839                0.00010000               -0.95439510                0.56490274               -0.65570471               -1.13937054               21.00773705                0.65245741
               9.02655745                8.09077264               37.90446672                0.00010000               -0.95076146                0.59367766               -0.86974062               -1.56400749               21.57317189                1.18752554
              10.01722361                7.85254844               37.94416258                0.00010000               -0.82636077                0.49382857               -1.06259461               -2.08731861               22.22682142                1.95905090
              11.01003023                7.61386915               37.98813057                0.00010000               -0.71348818                0.14965957               -1.12299439               -2.57428147               23.08676984                3.15383261
              12.00295385                7.37843107               38.04001990                0.22122749               -0.19843254                0.06311617               -0.96875537               -1.44674702               11.98798879                3.85450779
              13.00606158                7.17362324               37.85670622                0.44332978                0.35339616                0.25362084               -1.13718326                0.01708608                0.13144983                1.50902959
              14.01002177                6.96863044               37.67063728                0.88023931                0.39601865                0.51830562               -1.49490350                0.00443777                0.01940909               -0.36309167
               4.27214818               10.22961592               38.10326685                0.99305996                0.05949679                0.00413428               -0.06237097               -0.02421284               -0.01848799                0.71983858
               5.27274314               10.01015132               37.92274347                0.54492859                0.09549291                0.11098207               -0.33478633               -0.00305159                0.03659091               -0.64468105
               6.27405803                9.79017832               37.74320135                0.00525513               -0.23816010                0.21444864               -0.62362453               -0.29638948               11.82782899               -1.60673470
               7.26797994                9.56375791               37.79835018                0.00010000               -0.72323548                0.55627462               -0.68973541               -0.53888705               23.54040207               -0.20738526
               8.25959332                9.33271483               37.84893245                0.00010000               -0.93993665                0.69179261               -0.82913513               -0.72468009               23.60491343                0.28863979
               9.24918121                9.09800871               37.90024481                0.00010000               -1.18430029                0.81598013               -0.99226737               -1.03180927               24.19422073                0.66094795
              10.23590732                8.85967838               37.95748053                0.00010000               -1.47704544                0.91501914               -1.16014934               -1.64299493               25.31970194                1.15610066
              11.21964030                8.61678475               38.02595412                0.05909916               -1.45483270                0.86631653               -1.34935745               -2.30556277               25.96499681                2.27766358
              12.20681066                8.37981451               38.09040233                0.28788938               -0.49541613                0.19650127               -0.75094252               -1.68840752               13.05028867                2.08059979
              13.20973198                8.17650027               37.89714532                0.45445774                0.34765883                0.31385000               -1.14100242               -0.02578153                0.07844035                0.97306909
              14.21376384                7.97368400               37.70158464                0.86911074                0.40318641                0.49863894               -1.55103658                0.00779943               -0.01178730               -0.57802716
               4.49084711               11.22994217               38.04904990                1.00000000                0.10714217                0.03262443               -0.21457546                0.02083633                0.39261410                0.61955595
               5.49191854               11.01145159               37.86486651                0.81622760                0.14646381                0.13002719               -0.48794263                0.03974426                0.79859511               -0.52283194
               6.49377639               10.79238627               37.68865311                0.49518685                0.02062792                0.22079543               -0.77017796               -0.13159496               13.72451772               -0.97008687
               7.49233109               10.56938298               37.76277647                0.36913407               -0.31409761                0.56250693               -0.86639916               -0.18839284               26.08299017               -0.18335528
               8.48749444               10.33991611               37.82638359                0.35876663               -0.66866901                0.72012778               -0.99148316               -0.32442539               25.86297327                0.09753103
               9.47895771               10.10709225               37.89018413                0.37085806               -1.09533821                0.90835362               -1.14263007               -0.47571362               26.47976121                0.32026007
              10.46558767                9.87084883               37.96063077                0.40454020               -1.75874335                1.11704462               -1.30893276               -0.82680261               27.93840542                0.60912785
              11.44378285                9.63119549               38.04812719                0.55491673               -2.80587501                1.44107372               -1.63700411               -2.01013164               28.19377558                1.50081689
              12.40947017                9.38236110               38.11793322                0.67682720               -1.60531923                0.25465893               -0.84344783               -2.29881147               14.55311828                0.96660564
              13.41167646                9.17990024               37.93089912                0.74410630                0.31700613                0.33999686               -1.19647551                0.00655427                1.14851416                0.65956091
              14.41581030                8.97860322               37.73218745                0.93380485                0.41338342                0.49192158               -1.62010183                0.07494326                0.58841420               -0.57067525
               2.34486725                1.31290599               39.55546767                1.00000000               -0.35349770               -0.38452261                1.32554812               -0.06190930               -1.03809539                1.03017451
               3.34133228                1.07178979               39.43617125                1.00000000               -0.30615160               -0.29018933                1.03903253               -0.03741823               -1.37489540                0.15238425
               4.33874422                0.83020237               39.31023625                1.00000000               -0.20592865               -0.19854650                0.72957224               -0.04357003               -1.36375365               -0.20732769
               5.33721370                0.58812699               39.19113558                0.63805388               -0.02315337               -0.12487989                0.43039802               -0.13368708               -0.62126989               -0.93537556
               6.33828115                0.34375914               39.07992432                0.69828122                0.19880030               -0.12650390                0.04758064               -0.05531162               -0.19289618                0.27513884
               7.34118971                0.09813213               38.96949857                0.75602722                0.31252697                0.00780199               -0.23335766               -0.08449720               -0.22846481                0.14862844
               8.34453169               -0.14597273               38.85646435                0.74731263                0.36573829                0.08474308               -0.45144593               -0.05216929               -0.31236417               -0.07109517
               9.34850448               -0.38848315               38.74286752                0.84300278                0.37216138                0.15199775               -0.61078990               -0.07305731               -0.57093756                0.11299801
              10.35197492               -0.62948773               38.62319245                1.00000000                0.33483979                0.23584373               -0.81104701               -0.06817930               -0.97808589                0.64417935
              11.35520127               -0.86974207               38.50073692                1.00000000                0.34591844                0.32563401               -1.05740079               -0.04128573               -1.01782310                0.02896207
              12.35889329               -1.11011623               38.38001484                1.00000000                0.36920187                0.42095457               -1.33549510               -0.01827179               -0.92407002               -0.89882609
               2.58536436                2.30906076               39.50339158                1.00000000               -0.30544538               -0.37460204                1.17472126               -0.01300962               -0.18599535                1.40294501
               3.58230990                2.06888790               39.38398157                1.00000000               -0.26122174               -0.26926237                0.89132305                0.01117324               -0.26132223                0.21910254
               4.58013992                1.82821690               39.26312812                0.97919589               -0.16057287               -0.17136744                0.58295336               -0.00987340               -0.16869356               -0.45256494
               5.57909845                1.58687819               39.14547206                0.28368164                0.12927708               -0.09252174                0.27685926               -0.16704412                1.42133056               -1.27889282
               6.58272547                1.34249410               39.05609817                0.41022102                0.30561137               -0.09419629               -0.07394306               -0.03977688                2.40115807                0.87243077
               7.58521067                1.09821015               38.95515214                0.49398018                0.22960886                0.04529724               -0.33993557               -0.04955357                1.73013300                0.43645211
               8.58731764                0.85487470               38.85054840                0.42093060                0.21603645                0.13863547               -0.54344287               -0.02927807                1.75259838               -0.27228699
               9.58953140                0.61303683               38.74900427                0.51234469                0.23024733                0.20339627               -0.69424805               -0.05089225                1.78627825                0.48888810
              10.59192259                0.37287071               38.64446673                1.00000000                0.27856318                0.26091479               -0.90508108               -0.04087094                0.92349016                0.86428076
              11.59510267                0.13351427               38.52549010                1.00000000                0.35810763                0.33885717               -1.17513058                0.00272110                0.12753913                0.18321654
              12.59908474               -0.10590669               38.40502604                1.00000000                0.39820742                0.44206677               -1.45313224                0.02737932                0.05231202               -1.04915217
               2.82495279                3.30541395               39.45893244                1.00000000               -0.25531901               -0.35882455                1.03720139               -0.00751482                0.03738605                1.77307470
               3.82239960                3.06640454               39.33317855                1.00000000               -0.21981637               -0.22990830                0.75371204                0.01041581                0.21787399                0.22056735
               4.82055646                2.82677502               39.21107065                0.70078741               -0.14019886               -0.10548914                0.46867870               -0.03107573                0.59658815               -1.17627677
               5.81959562                2.58627655               39.09279815                0.00010000                0.27985943               -0.04704699                0.14319714               -0.23145755                4.28778568               -1.88938722
               6.82615365                2.34187522               39.04432261                0.00010000                0.41112091               -0.12956931               -0.27834461               -0.63412220                5.64421364               -1.01417535
               7.82781804                2.09903808               38.94643265                0.00010000                0.14829028               -0.05158088               -0.47403720               -0.62583356                2.86192615                0.01402786
               8.82911946                1.85679998               38.84048268                0.00010000                0.08362922               -0.00141422               -0.65279304               -0.57998578                3.89746197                0.81914298
               9.82949063                1.61558478               38.76263217                0.00010000                0.07803017                0.01728083               -0.78845935               -0.41462479                4.56448112                1.34463045
              10.83068006                1.37573057               38.67009488                0.40932668                0.22712325                0.25922598               -1.01495905               -0.17663625                2.59945783                1.78319059
              11.83403309                1.13703508               38.55326932                1.00000000                0.38013712                0.35128620               -1.29179035               -0.04716759                0.90532448                0.82860174
              12.83828280                0.89872510               38.42700478                1.00000000                0.42497124                0.48584742               -1.55606582                0.01718579                0.42590366               -0.99103369
               3.06323287                4.30188427               39.41441917                1.00000000               -0.20757214               -0.34190612                0.89872884               -0.01612017                0.12558754                1.63089021
               4.06115715                4.06428973               39.28104383                1.00000000               -0.17932346               -0.18588394                0.61658229               -0.00003300                0.21207337                0.02619984
               5.05964640                3.82610712               39.14941264                0.36916812               -0.08940237               -0.03864591                0.35082845               -0.09591125                1.14804286               -1.64355383
               6.05936910                3.58593725               39.03469216                0.00010000               -0.11824524                0.02445365                0.05221074               -0.44709304                5.17310178               -2.55274007
               7.05728149                3.33990272               38.98337022                0.00010000               -0.07999299               -0.07165509               -0.27458597               -1.15387971                8.05060877               -2.44022900
               8.05776924                3.09717854               38.92362588                0.00010000                0.09448666               -0.13637048               -0.55470981               -1.18945475                7.39268487               -0.31502229
               9.05917123                2.85484642               38.85611869                0.00010000                0.22695409               -0.17946830               -0.80114441               -1.19715443                6.97982895                1.78397550
              10.06230832                2.61338245               38.78577262                0.00010000                0.38841690               -0.20661027               -1.04648682               -0.76141789                6.65166780                2.21234922
              11.06693957                2.37805523               38.70979474                0.13094051                0.44282294               -0.15483704               -1.14424476               -0.32923223                4.29279377                3.22159544
              12.07116478                2.14054000               38.59095818                0.59955083                0.45544223                0.25391521               -1.45380476               -0.16420453                1.20957906                1.91895447
              13.07604841                1.90381026               38.45333656                0.99658436                0.48836295                0.54639131               -1.68219384               -0.06150873                0.25600746               -0.18380832
               3.29981946                5.29857582               39.36728039                1.00000000               -0.16433753               -0.30988862                0.74838885               -0.03178382                0.21080970                1.33506551
               4.29817609                5.06268686               39.22635211                0.77626373               -0.14143723               -0.12379250                0.46785669               -0.02787289                0.33076690               -0.33542420
               5.29699072                4.82600210               39.08782152                0.18483917               -0.06589617                0.03867186                0.20263818               -0.15967173                1.41182150               -1.83675038
               6.29685817                4.58676563               38.96845712                0.00010000               -0.25779756                0.12978891               -0.07173777               -0.69174870                7.09276741               -2.49728362
               7.29183477                4.34044211               38.94343832                0.00010000               -0.38864599                0.10648799               -0.33360952               -1.17892712               11.41616421               -0.82099480
               8.28908525                4.09631067               38.90818397                0.00010000               -0.14311555               -0.00990516               -0.63378604               -1.26583436               10.63398236                0.38810087
               9.28897246                3.85321061               38.86501573                0.00010000                0.09841058               -0.10273128               -0.94154590               -1.30433456               10.11051738                1.64251435
              10.29105346                3.61145257               38.81654082                0.00010000                0.39827037               -0.18494171               -1.27199917               -1.17217129                9.80673444                2.81677268
              11.29693787                3.37263383               38.76450548                0.10926259                0.69702548               -0.52111387               -1.74709269               -0.51017134                6.18240136                4.08056600
              12.30499397                3.14211338               38.64064917                0.47338616                0.67871197                0.09174047               -1.52087193                0.00122805                1.38451480                2.81217576
              13.31051210                2.90965293               38.49186349                0.89722704                0.55181376                0.59354102               -1.72890954               -0.07686673                0.14010149                0.71686022
               3.53437511                6.29568650               39.31701480                1.00000000               -0.12016998               -0.25796678                0.58711161               -0.03581728                0.12303905                1.04634076
               4.53317341                6.06181388               39.16693677                0.60262753               -0.10004543               -0.05434729                0.29125396               -0.04442730                0.38522554               -0.67873629
               5.53237420                5.82688056               39.02208798                0.10506056               -0.10396494                0.13739686                0.02364374               -0.22705884                2.33955949               -2.27132543
               6.53109411                5.58853303               38.91104322                0.00010000               -0.41081476                0.10899878               -0.06736284               -1.04343314                9.76934823               -0.22440131
               7.52415791                5.34203248               38.91455874                0.00010000               -0.57050299                0.18322339               -0.37296889               -1.46800820               14.70431870                0.20410933
               8.51968405                5.09698043               38.89969360                0.00010000               -0.31076374                0.11530264               -0.71579179               -1.47469775               13.58081392                1.01485252
               9.51794263                4.85279179               38.87810955                0.00010000               -0.01211841                0.00087367               -1.05769921               -1.51420679               13.17331634                2.05029125
              10.51944168                4.60968361               38.85226380                0.00010000                0.40663491               -0.15363498               -1.46418948               -1.49198995               12.89485005                3.26730867
              11.52607533                4.36763295               38.82192178                0.11388063                0.73642773               -0.45188437               -2.06619885               -0.63988879                8.14082167                4.66434203
              12.53417024                4.14237481               38.69702413                0.44024435                0.66783265                0.04540301               -1.41913741                0.06617183                1.77989849                2.92018142
              13.53943198                3.91568108               38.53740646                0.88179877                0.52617444                0.58396157               -1.63399610               -0.04502970                0.06872168                0.88533349
               3.76684835                7.29341649               39.26425030                1.00000000               -0.07548691               -0.19201305                0.41937614               -0.03072302                0.04473464                0.86057692
               4.76609348                7.06159992               39.10524990                0.51175950               -0.05589773                0.00143714                0.12318761               -0.03665055                0.30622461               -0.80930265
               5.76573040                6.82875004               38.95143814                0.06371603               -0.26279493                0.21106772               -0.16426180               -0.38576550                5.20615353               -2.61447005
               6.76083758                6.58894560               38.89036188                0.00010000               -0.58515997                0.07658816                0.09291166               -1.25357173               13.16547902                1.48278872
               7.75402720                6.34410658               38.89497480                0.00010000               -0.60028040                0.24352307               -0.44748086               -1.54954155               16.45327326                0.88744598
               8.74883198                6.09861672               38.89676541                0.00010000               -0.40210278                0.21500961               -0.79794619               -1.66547695               16.29884901                1.42960379
               9.74598514                5.85322809               38.89537999                0.00010000               -0.12297380                0.08224021               -1.13742854               -1.76045825               16.22003658                2.36262720
              10.74637250                5.60837987               38.89251040                0.00010000                0.27318766               -0.09880476               -1.52630083               -1.88238917               16.28306815                3.61601187
              11.75144890                5.36359614               38.88888939                0.13077265                0.59483865               -0.32702082               -2.07454182               -0.92738948                9.76639636                5.36275631
              12.75826927                5.14302144               38.75053055                0.42594106                0.57750349                0.09929451               -1.30143667                0.07322283                1.59336852                2.50760812
              13.76299897                4.92133216               38.58091215                0.87578083                0.47296921                0.55313470               -1.54438450               -0.02620820                0.05871685                0.52716733
               3.99739379                8.29184624               39.21038021                1.00000000               -0.02869407               -0.12280296                0.25319973               -0.02798544                0.01323369                0.79186295
               4.99710685                8.06184262               39.04305969                0.48081213               -0.00402905                0.04359779               -0.04066813               -0.01773532                0.14997488               -0.82053244
               5.99731321                7.83110191               38.87840701                0.04589735               -0.32203577                0.23570648               -0.34225959               -0.50960494                7.99970127               -2.70967716
               6.99066613                7.59006479               38.86799110                0.00010000               -0.69086273                0.24843651               -0.23834395               -1.19351848               16.92815115                0.67851887
               7.98349595                7.34690294               38.87968507                0.00010000               -0.67065629                0.36798580               -0.57288561               -1.45474849               18.43830059                0.97612375
               8.97725301                7.10128063               38.89643981                0.00010000               -0.52628193                0.35827292               -0.89273614               -1.75257882               18.93359138                1.51695438
               9.97297032                6.85443660               38.91463630                0.00010000               -0.29135789                0.19532797               -1.18124880               -2.01443306               19.31165230                2.41255356
              10.97142585                6.60770752               38.93531232                0.00010000               -0.00421713               -0.03451912               -1.45871119               -2.25785981               19.91087028                3.64158520
              11.97288597                6.36109253               38.96137919                0.16001022                0.32364121               -0.13996827               -1.74203971               -1.22646277               11.09763195                5.35519697
              12.97789868                6.14436070               38.79991421                0.42104313                0.47002060                0.17588553               -1.23768194                0.06145068                0.91990738                2.05564194
              13.98228639                5.92674377               38.62034687                0.87163077                0.43877104                0.53824216               -1.52552101               -0.00766008                0.04392790                0.08017076
               4.22629587                9.29096043               39.15631761                1.00000000                0.01872324               -0.05571935                0.08842450               -0.02593388               -0.00074009                0.79611675
               5.22648310                9.06247187               38.98097237                0.50108471                0.05101320                0.08167766               -0.20264240               -0.00469551               -0.01005474               -0.78678275
               6.22731613                8.83346417               38.80534631                0.03318862               -0.26584558                0.22949396               -0.50890078               -0.49805721               10.05479133               -2.46308445
               7.22116619                8.59391433               38.83115831                0.00010000               -0.67998700                0.45649237               -0.53963076               -1.03397268               20.52907435               -0.19532749
               8.21371639                8.35146630               38.86185084                0.00010000               -0.74597234                0.53924068               -0.75743000               -1.26772962               21.10340981                0.64700616
               9.20624674                8.10578218               38.89510701                0.00010000               -0.72234017                0.56844978               -1.00610904               -1.65101350               21.67007642                1.25024855
              10.19926959                7.85713465               38.93265750                0.00010000               -0.58436878                0.47670133               -1.24236540               -2.14654520               22.40088633                2.07067236
              11.19455937                7.60768949               38.97587136                0.00010000               -0.45015641                0.14316357               -1.34628065               -2.64659339               23.43559460                3.27825026
              12.19026646                7.36079677               39.02930286                0.20508614               -0.03561604                0.06269612               -1.21955518               -1.51701923               12.34615591                4.36433983
              13.19384705                7.14653915               38.84494212                0.42477581                0.39065751                0.26067352               -1.22011537                0.01678042                0.25236528                1.60675085
              14.19807961                6.93209700               38.65537220                0.86784335                0.42325650                0.52990879               -1.56405516                0.00321156                0.02113499               -0.37430068
               4.45385222               10.29073185               39.10256575                0.98856124                0.06569776                0.00710212               -0.07711367               -0.02514186               -0.01653626                0.71233789
               5.45450920               10.06347618               38.91927494                0.54211543                0.10286925                0.11971499               -0.36039626               -0.00345337                0.03052708               -0.64509796
               6.45590961                9.83569179               38.73680052                0.00346334               -0.12623247                0.22801857               -0.65981467               -0.40864855               11.91988881               -1.59568063
               7.45198455                9.59919464               38.79111081                0.00010000               -0.48180474                0.49883219               -0.76202038               -0.67046644               23.71788096               -0.24459985
               8.44627351                9.35768775               38.84011084                0.00010000               -0.67100804                0.63854779               -0.93905012               -0.81275438               23.75346382                0.28601756
               9.43856439                9.11264962               38.88959878                0.00010000               -0.90707056                0.77067859               -1.14146928               -1.07857676               24.35094525                0.70077650
              10.42813210                8.86397062               38.94493921                0.00010000               -1.18662664                0.87626184               -1.34864053               -1.66617011               25.48806561                1.22501578
              11.41483186                8.61057079               39.01124678                0.04931664               -1.22180866                0.86022239               -1.56313290               -2.34192546               26.58273082                2.20512846
              12.40369593                8.36234646               39.08238856                0.27306060               -0.39489017                0.22164645               -0.87482881               -1.77099487               13.59110031                2.31843259
              13.40693405                8.14957417               38.88535325                0.43621002                0.37694944                0.33311732               -1.22558401               -0.02911574                0.08630946                1.03530465
              14.41123492                7.93734195               38.68567163                0.85633672                0.43008634                0.52158421               -1.64016826                0.00581952               -0.01620785               -0.61030743
               4.68030438               11.29110247               39.04680350                1.00000000                0.11497157                0.03706219               -0.23460859                0.02158554                0.38847572                0.61597266
               5.68145409               11.06486617               38.85984015                0.81578835                0.15601626                0.13899969               -0.51879499                0.04059250                0.79076248               -0.52242920
               6.68342470               10.83802454               38.68076310                0.49369771                0.21534043                0.23327483               -0.81163314               -0.29725064               13.79923521               -0.95658273
               7.68576090               10.60389098               38.75373246                0.36922123                0.02908099                0.46963378               -0.94612454               -0.31172940               26.25015048               -0.20649644
               8.68400632               10.36423725               38.81589492                0.35889238               -0.36842817                0.65495024               -1.11000612               -0.36148036               26.02420615                0.09433364
               9.67839234               10.12119575               38.87798067                0.37062375               -0.79906509                0.85461314               -1.30215527               -0.49607390               26.65044813                0.33736788
              10.66802502                9.87465988               38.94654879                0.40362071               -1.45236562                1.06892613               -1.50536954               -0.82579899               28.05661764                0.63561654
              11.64934502                9.62489394               39.03026755                0.55022834               -2.60909170                1.43231499               -1.86922738               -2.02019245               28.90065172                1.35956867
              12.61584318                9.36522970               39.10900559                0.67000868               -1.55378938                0.28832460               -0.96176807               -2.36989643               15.28653783                1.03760487
              13.61826924                9.15320150               38.91858259                0.73502452                0.34086264                0.36273305               -1.27548372               -0.00153253                1.21989728                0.70217689
              14.62266044                8.94252869               38.71555332                0.92716231                0.43912010                0.51867362               -1.71663731                0.07527076                0.61833290               -0.60094625
               2.45508925                1.37610951               40.56885574                1.00000000               -0.35947677               -0.39409795                1.35791038               -0.06545942               -1.06354200                1.04560654
               3.45149448                1.12628148               40.44660624                1.00000000               -0.30865386               -0.29338148                1.05044996               -0.03991732               -1.41485495                0.16084704
               4.44891617                0.87596718               40.31747676                1.00000000               -0.20212954               -0.19639566                0.71783058               -0.04519150               -1.41171648               -0.20753629
               5.44745189                0.62511563               40.19528681                0.64335701               -0.02298923               -0.11749590                0.39461465               -0.18040772               -0.71289917               -0.95296463
               6.44845639                0.37091061               40.08002672                0.70018182                0.22545638               -0.12917169               -0.03519099               -0.05321512               -0.28270917                0.26770088
               7.45196102                0.11443465               39.96669296                0.75193399                0.38368348                0.01664647               -0.33902240               -0.09125044               -0.21660082                0.13317661
               8.45613006               -0.14036460               39.85151670                0.74015547                0.44876963                0.09313942               -0.55034577               -0.05345081               -0.21041821               -0.08689372
               9.46093641               -0.39307035               39.73649921                0.83684862                0.43389258                0.15414403               -0.67046569               -0.07780706               -0.43471637                0.10997380
              10.46480791               -0.64379855               39.61493968                1.00000000                0.36177227                0.23846361               -0.84292423               -0.07002474               -0.88237830                0.65192596
              11.46817186               -0.89356376               39.49005839                1.00000000                0.35669583                0.32839775               -1.08012445               -0.04094225               -0.96421905                0.03739973
              12.47194182               -1.14334224               39.36657233                1.00000000                0.37699692                0.42196193               -1.35418008               -0.02181530               -0.88639810               -0.86223926
               2.70426268                2.37216853               40.51524772                1.00000000               -0.30962116               -0.38395477                1.20181093               -0.01343400               -0.19926990                1.42195387
               3.70116647                2.12334767               40.39291597                1.00000000               -0.26077501               -0.27171105                0.89760888                0.01104382               -0.28994084                0.23114030
               4.69904718                1.87400323               40.26887562                0.99453062               -0.14951858               -0.16826452                0.56532951               -0.01167090               -0.20831283               -0.43562247
               5.69817610                1.62394067               40.14807274                0.29294932                0.21087716               -0.08285122                0.24153914               -0.22936683                1.35964403               -1.28188408
               6.70326473                1.36961889               40.05504685                0.41371173                0.42550079               -0.11085794               -0.14453905               -0.03155456                2.36214912                0.82547083
               7.70668612                1.11460111               39.95137630                0.49280629                0.30416613                0.05164930               -0.42706410               -0.06126135                1.77817393                0.41004674
               8.70934805                0.86056680               39.84479603                0.42143126                0.25945990                0.15237787               -0.61983049               -0.04122879                1.87592957               -0.29604870
               9.71187531                0.60847109               39.74193672                0.51214380                0.25031560                0.20848259               -0.72625004               -0.06086292                1.90914306                0.48019437
              10.71435436                0.35858609               39.63540124                1.00000000                0.28294837                0.26055719               -0.90644808               -0.04338339                0.97699016                0.86399253
              11.71753428                0.10972022               39.51374401                1.00000000                0.35738998                0.33851915               -1.17177230                0.00317580                0.14151546                0.19191899
              12.72150216               -0.13912262               39.39051497                1.00000000                0.39678790                0.43780267               -1.44606527                0.02357667                0.06066430               -1.00495887
               2.95246230                3.36843042               40.46939588                1.00000000               -0.25816346               -0.36786902                1.06005683               -0.00772540                0.03093326                1.79583257
               3.94988066                3.12084726               40.34071581                1.00000000               -0.21862730               -0.23083258                0.75548180                0.00955820                0.20792983                0.23719507
               4.94808975                2.87260189               40.21565850                0.71899961               -0.13158870               -0.09849072                0.44418482               -0.03605372                0.56573931               -1.14315711
               5.94724889                2.62345861               40.09404503                0.00010000                0.45375509               -0.03351817                0.09701004               -0.32577885                4.18830027               -1.85761791
               6.95716485                2.36869345               40.04120016                0.00010000                0.62694981               -0.15075963               -0.35604915               -0.82363801                5.61009604               -0.99970456
               7.95978789                2.11546763               39.94134359                0.00010000                0.21353264               -0.04180010               -0.55921784               -0.79615288                2.96839656                0.00433204
               8.96143551                1.86268296               39.83365600                0.00010000                0.09559869                0.02228617               -0.73139431               -0.71999993                4.04955317                0.77293053
               9.96169986                1.61109930               39.75470252                0.00010000                0.06277987                0.03271455               -0.80773409               -0.49105090                4.67959335                1.24108759
              10.96269110                1.36141260               39.66004685                0.40145739                0.21221133                0.24774117               -0.98812105               -0.18896861                2.62004913                1.76448909
              11.96594409                1.11320663               39.54046920                1.00000000                0.37039742                0.34512368               -1.26196217               -0.04381289                0.89652881                0.81278685
              12.97009905                0.86541381               39.41159024                1.00000000                0.41549666                0.46998489               -1.52012389                0.01430076                0.42002143               -0.95307580
               3.19927449                4.36481115               40.42347955                1.00000000               -0.20883255               -0.35078888                0.91715346               -0.01655111                0.12664240                1.64526645
               4.19718616                4.11873102               40.28719531                1.00000000               -0.17798594               -0.18473066                0.61397310               -0.00072095                0.21997996                0.03716487
               5.19571477                3.87203341               40.15282205                0.36804317               -0.08085964               -0.02798950                0.32890247               -0.10296977                1.14762530               -1.62695405
               6.19556897                3.62327031               40.03500216                0.00010000               -0.04659145                0.04221555                0.00449779               -0.56114698                5.14599448               -2.51548660
               7.19478294                3.36660370               39.98031643                0.00010000                0.06022905               -0.06709029               -0.34411240               -1.45282367                8.04015834               -2.33373073
               8.19677355                3.11376511               39.91771724                0.00010000                0.22667241               -0.13137540               -0.63625358               -1.46315265                7.42501233               -0.27660559
               9.19931639                2.86101252               39.84777203                0.00010000                0.32755555               -0.16913354               -0.87520512               -1.43634614                7.02922362                1.74689346
              10.20332466                2.60912538               39.77508685                0.00010000                0.45756363               -0.20396746               -1.09119392               -0.92173334                6.77753180                2.05849690
              11.20846766                2.36354091               39.69860014                0.11777741                0.46660762               -0.17072705               -1.08771984               -0.36893182                4.34678876                2.90615805
              12.21265681                2.11662270               39.57667230                0.57277067                0.44530771                0.22602811               -1.39533107               -0.15176776                1.17108653                1.91813888
              13.21737381                1.87027707               39.43678614                0.98041193                0.47170013                0.50080609               -1.61890911               -0.05485545                0.25382170               -0.12247556
               3.44429155                5.36141464               40.37481734                1.00000000               -0.16475631               -0.31829691                0.76184527               -0.03308161                0.21879374                1.33679428
               4.44264398                5.11715265               40.23099982                0.76172316               -0.14002403               -0.11918013                0.46168577               -0.03106627                0.34596741               -0.34501372
               5.44149107                4.87204210               40.08974412                0.17951191               -0.05941603                0.05468439                0.17772041               -0.17011528                1.43058970               -1.85329080
               6.44145566                4.62430292               39.96753051                0.00010000               -0.19387448                0.13956745               -0.11940207               -0.81349251                7.11977767               -2.40571378
               7.43761358                4.36735164               39.93980713                0.00010000               -0.26698261                0.12211241               -0.39784480               -1.39382031               11.43211857               -0.72481014
               8.43611601                4.11284013               39.90145787                0.00010000               -0.01326302               -0.00970181               -0.71639421               -1.48043745               10.62689282                0.44223737
               9.43734832                3.85930029               39.85515520                0.00010000                0.23103943               -0.10991980               -1.03061666               -1.51424714               10.08406963                1.63583499
              10.44073680                3.60701995               39.80336376                0.00010000                0.52334160               -0.20378634               -1.35197104               -1.33841221                9.67621458                2.70868354
              11.44781515                3.35799806               39.74654622                0.09704484                0.77178854               -0.53430490               -1.82017020               -0.57685748                6.31532335                3.66822058
              12.45617257                3.11772719               39.62573742                0.44865814                0.69390203                0.02450907               -1.44839797                0.00049297                1.63369974                2.91268181
              13.46169319                2.87542993               39.47495182                0.88301761                0.55206188                0.50807983               -1.64293887               -0.06308092                0.13427324                0.85559082
               3.68713683                6.35844522               40.32291877                1.00000000               -0.11994636               -0.26498665                0.59573053               -0.03654171                0.11838185                1.03786937
               4.68593737                6.11634742               40.16978933                0.59082489               -0.09873201               -0.04671688                0.27949403               -0.04711463                0.39374903               -0.69705152
               5.68516219                5.87312710               40.02216616                0.09869486               -0.09738972                0.15853885               -0.00912900               -0.25387117                2.46128412               -2.30473214
               6.68398958                5.62606166               39.91031630                0.00010000               -0.33964361                0.08683598               -0.08125421               -1.16385754                9.86355568                0.00871780
               7.67836932                5.36904595               39.91052814                0.00010000               -0.43867114                0.19250249               -0.43862615               -1.66077148               14.67041680                0.29701683
               8.67521615                5.11357107               39.89208990                0.00010000               -0.17588511                0.12427467               -0.80714583               -1.66083313               13.53487146                1.07673586
               9.67485162                4.85881412               39.86695229                0.00010000                0.13212470                0.00229072               -1.17037264               -1.70549610               13.08470663                2.08297077
              10.67785865                4.60504965               39.83684542                0.00010000                0.56858237               -0.16447871               -1.60379935               -1.64599809               12.64653768                3.24916780
              11.68622327                4.35285481               39.80015786                0.10135362                0.86880741               -0.48411038               -2.23708233               -0.72483627                8.42645299                4.58659213
              12.69523480                4.11711288               39.68286746                0.41759128                0.72417225               -0.03221935               -1.39031488                0.03803401                2.25180262                3.09204413
              13.70070671                3.88043867               39.52124829                0.86821126                0.54719164                0.49707293               -1.58289853               -0.03493899                0.05469111                1.03611520
               3.92775631                7.35611491               40.26845090                1.00000000               -0.07365083               -0.19716862                0.42259985               -0.03130861                0.04202195                0.84842816
               4.92701981                7.11621831               40.10641022                0.50179879               -0.05284560                0.01036447                0.10799844               -0.03950969                0.30752531               -0.81962661
               5.92669940                6.87521288               39.94964975                0.06007787               -0.23800696                0.23543351               -0.19700577               -0.45183783                5.48816449               -2.64020637
               6.92225967                6.62603964               39.89114540                0.00010000               -0.49053362                0.06003809                0.05526631               -1.35565000               13.32347956                1.53072425
               7.91688873                6.37120169               39.89014260                0.00010000               -0.45642474                0.25086333               -0.52479448               -1.69350733               16.30639222                0.94282245
               8.91313117                6.11532562               39.88825792                0.00010000               -0.25644557                0.22807848               -0.90405185               -1.82108029               16.24936477                1.49381994
               9.91175982                5.85934610               39.88327750                0.00010000                0.03224878                0.09806244               -1.27963215               -1.91680656               16.13029864                2.44163888
              10.91377615                5.60373037               39.87618289                0.00010000                0.47476892               -0.08936733               -1.72877172               -2.02029119               16.03710696                3.74176802
              11.92125520                5.34831585               39.86632672                0.11693380                0.77866244               -0.38060828               -2.40750028               -1.00102033               10.15174207                5.64416563
              12.92934940                5.11708280               39.73731782                0.40547844                0.65438143                0.05081244               -1.32535053                0.04204137                2.16701044                2.66151925
              13.93434283                4.88537139               39.56542604                0.86309910                0.49934291                0.50112913               -1.54519918               -0.02134051                0.04803025                0.60425995
               4.16630385                8.35450184               40.21289618                1.00000000               -0.02546494               -0.12593195                0.25140592               -0.02863665                0.01197612                0.78046149
               5.16604920                8.11655470               40.04256096                0.47297653                0.00001306                0.05313680               -0.06024457               -0.01868538                0.14477877               -0.82691369
               6.16630411                7.87783577               39.87481985                0.04246556               -0.25807201                0.26146069               -0.37859418               -0.58855173                8.18440221               -2.72193409
               7.16088776                7.62726242               39.86517003                0.00010000               -0.55454608                0.25957952               -0.32543020               -1.31549601               17.11319687                0.51910325
               8.15521319                7.37406321               39.87352281                0.00010000               -0.51188126                0.36964585               -0.66310467               -1.58300870               18.42104523                0.98309084
               9.15065014                7.11813264               39.88689378                0.00010000               -0.35512295                0.36465104               -1.01674103               -1.86333464               18.92539544                1.57715383
              10.14811073                6.86077537               39.90196962                0.00010000               -0.10835295                0.21564365               -1.35139374               -2.10765829               19.29851832                2.52124348
              11.14848308                6.60326230               39.91948274                0.00010000                0.23698492               -0.01153389               -1.71011589               -2.36060566               19.83842124                3.88813090
              12.15285043                6.34524265               39.94186407                0.14412853                0.52685016               -0.18036769               -2.19600712               -1.27910856               11.50450824                5.97118606
              13.15902008                6.11812913               39.78719419                0.40213063                0.54261486                0.16182075               -1.30166657                0.04543779                1.39348572                2.16717229
              14.16370273                5.89046125               39.60486821                0.85961916                0.46826468                0.52241360               -1.57291429               -0.00471371                0.04092809                0.07800584
               4.40307786                9.35359627               40.15716075                1.00000000                0.02343115               -0.05625230                0.08107426               -0.02676038               -0.00170407                0.78397551
               5.40331217                9.11728105               39.97883342                0.49569262                0.05713979                0.09134371               -0.22622561               -0.00422299               -0.01844014               -0.78883447
               6.40422065                8.88044209               39.80007708                0.03003243               -0.17949328                0.25060706               -0.54860140               -0.58670009               10.17344709               -2.45825603
               7.39972230                8.63123123               39.82542303                0.00010000               -0.49311618                0.45146725               -0.61174848               -1.18540008               20.70153759               -0.28543235
               8.39435833                8.37859461               39.85374979                0.00010000               -0.52849920                0.51639453               -0.86403931               -1.38255753               21.17571277                0.63325462
               9.38915232                8.12261864               39.88434454                0.00010000               -0.49406689                0.55089704               -1.14684679               -1.71070191               21.73409848                1.30151944
              10.38447699                7.86365898               39.91931527                0.00010000               -0.35277809                0.47560168               -1.42669263               -2.16045231               22.52234975                2.17352883
              11.38209676                7.60349970               39.96120496                0.00010000               -0.18353946                0.16144119               -1.60307485               -2.67939973               23.71549929                3.43873795
              12.38080620                7.34470849               40.01562880                0.18733127                0.14713955                0.06188909               -1.57991238               -1.57523543               12.76140925                5.03239074
              13.38503955                7.12031922               39.83230391                0.40641559                0.43890480                0.27183791               -1.31180342                0.01330907                0.47193284                1.69447123
              14.38958430                6.89581966               39.63935618                0.85589892                0.45447499                0.54177405               -1.64921513                0.00505396                0.02471482               -0.42448296
               4.63839909               10.35337680               40.10172457                0.98423671                0.07198316                0.00949330               -0.08995247               -0.02624854               -0.01441289                0.70286788
               5.63911892               10.11838158               39.91553554                0.53880023                0.11104242                0.12957672               -0.38912039               -0.00334345                0.02492704               -0.64430717
               6.64061993                9.88284791               39.73000505                0.00114760               -0.00458360                0.24436840               -0.70360537               -0.52208440               12.00072190               -1.58111941
               7.63902725                9.63629176               39.78310977                0.00010000               -0.22226528                0.43892630               -0.84117480               -0.79884146               23.87090202               -0.28208223
               8.63617463                9.38439110               39.83015145                0.00010000               -0.38277556                0.58200036               -1.05413031               -0.88845784               23.87133105                0.28101369
               9.63137173                9.12915058               39.87741542                0.00010000               -0.60769990                0.72285955               -1.29626340               -1.09716049               24.46807822                0.73363817
              10.62402063                8.87028741               39.93050772                0.00010000               -0.87630838                0.83415194               -1.53766268               -1.63516492               25.62335915                1.29190066
              11.61384557                8.60649113               39.99469147                0.03620118               -0.97472144                0.84228180               -1.73149200               -2.32823310               27.19356707                2.17401390
              12.60452620                8.34648043               40.07290575                0.25502696               -0.28352347                0.25853209               -1.05915284               -1.84227828               14.17679274                2.65960674
              13.60817510                8.12356588               39.87263364                0.41820702                0.41383600                0.35829357               -1.32871927               -0.03482824                0.12290484                1.10183250
              14.61280292                7.90129673               39.66878128                0.84391303                0.46278244                0.55006279               -1.75130170                0.00564517               -0.01937262               -0.66943449
               4.87254332               11.35378613               40.04435773                1.00000000                0.12308611                0.04093376               -0.25393161                0.02306857                0.38279194                0.60996585
               5.87377418               11.11987258               39.85449061                0.81506584                0.16627289                0.14910040               -0.55331674                0.04269311                0.78108636               -0.52080653
               6.87586878               10.88532946               39.67242044                0.49201091                0.42140491                0.24815501               -0.86118839               -0.46825684               13.85956727               -0.94034237
               7.88220228               10.64000975               39.74385398                0.36929152                0.39307853                0.37179891               -1.03174129               -0.43723852               26.38993756               -0.22952758
               8.88373035               10.39023462               39.80418347                0.35901010               -0.04447373                0.58435137               -1.23313289               -0.39112377               26.15074898                0.08990769
               9.88131281               10.13707583               39.86414103                0.37040161               -0.46486007                0.79252462               -1.46648305               -0.50052277               26.77824640                0.35241633
              10.87443315                9.88034202               39.93052338                0.40268447               -1.09868681                1.00546090               -1.70009510               -0.79527293               28.14980739                0.66844241
              11.85933907                9.62034533               40.01074265                0.54320641               -2.37736347                1.38542047               -1.98316726               -1.97379345               29.60151377                1.24330844
              12.82688588                9.34987914               40.09869786                0.66095303               -1.49061948                0.33987057               -1.13036505               -2.40704423               16.08157295                1.15105101
              13.82952668                9.12748509               39.90538944                0.72605506                0.36748118                0.39192052               -1.37507132               -0.01775250                1.32717143                0.75642365
              14.83423550                8.90682092               39.69785470                0.92066161                0.47088226                0.55241841               -1.83784528                0.07684107                0.65188690               -0.64837113
               2.56809541                1.44103416               41.58262588                1.00000000               -0.36812441               -0.40744679                1.40328050               -0.06998238               -1.09267511                1.06285420
               3.56441416                1.18238728               41.45718025                1.00000000               -0.31330387               -0.29861501                1.06776146               -0.04210945               -1.46056560                0.16964920
               4.56182933                0.92325392               41.32459286                1.00000000               -0.20042015               -0.19312055                0.70428143               -0.04581595               -1.46935414               -0.21015372
               5.56040576                0.66349583               41.19902788                0.64952700               -0.03042573               -0.10135510                0.34778062               -0.23761777               -0.82873999               -0.96849142
               6.56122081                0.39907289               41.07922050                0.70408172                0.24809746               -0.12428206               -0.13309069               -0.05893558               -0.40448377                0.25828672
               7.56536771                0.13142899               40.96271812                0.74971507                0.46481335                0.03314827               -0.46682354               -0.10138082               -0.21520262                0.11261052
               8.57051708               -0.13426925               40.84545743                0.73284067                0.55097316                0.10836822               -0.67501862               -0.05350927               -0.08662905               -0.11237089
               9.57638717               -0.39715868               40.72945821                0.82819956                0.51255484                0.15960898               -0.74706166               -0.08296646               -0.26123269                0.09947502
              10.58076818               -0.65737234               40.60633397                1.00000000                0.39485373                0.24157290               -0.88065840               -0.07163853               -0.76366469                0.66164705
              11.58428425               -0.91636530               40.47913443                1.00000000                0.36846411                0.33071468               -1.10565325               -0.04019817               -0.90214411                0.04619694
              12.58813746               -1.17524631               40.35293124                1.00000000                0.38532141                0.42225293               -1.37455422               -0.02623709               -0.84396083               -0.82207865
               2.82604246                2.43695969               41.52742780                1.00000000               -0.31592723               -0.39676970                1.24076670               -0.01404648               -0.21428124                1.44232430
               3.82288319                2.17940113               41.40193375                1.00000000               -0.26127827               -0.27590903                0.90827192                0.01222223               -0.32220326                0.24361471
               4.82081690                1.92132271               41.27443471                1.00000000               -0.13815470               -0.16442391                0.54769444               -0.01030764               -0.24908366               -0.42296134
               5.82012009                1.66248228               41.15030285                0.30404612                0.29239930               -0.06505307                0.20310885               -0.30392201                1.28960903               -1.29223809
               6.82666488                1.39783007               41.05320739                0.41964305                0.54524401               -0.12306742               -0.23361322               -0.04428030                2.30680622                0.76990984
               7.83102497                1.13176047               40.94661085                0.49343232                0.38054698                0.06774010               -0.54068779               -0.08266110                1.82915606                0.37166303
               8.83427582                0.86681443               40.83815179                0.42135471                0.30420371                0.17759195               -0.72582143               -0.05442771                2.03421740               -0.34162017
               9.83710905                0.60443741               40.73447927                0.50826605                0.26896414                0.22075405               -0.77509498               -0.07332806                2.07807660                0.45634595
              10.83965510                0.34504339               40.62633777                1.00000000                0.28551007                0.25968951               -0.90443757               -0.04746891                1.05113585                0.86437085
              11.84281925                0.08694185               40.50205466                1.00000000                0.35504973                0.33639103               -1.16344671                0.00344287                0.15769114                0.20105615
              12.84675610               -0.17102378               40.37610473                1.00000000                0.39368481                0.43193640               -1.43284215                0.01862182                0.07011818               -0.95579554
               3.08293160                3.43309877               41.48013358                1.00000000               -0.26360117               -0.37957744                1.09293471               -0.00837980                0.02404710                1.81924617
               4.08029559                3.17686910               41.34828819                1.00000000               -0.21947844               -0.23260556                0.76054956                0.00988636                0.19345270                0.25356832
               5.07854203                2.91996544               41.21995435                0.73806456               -0.12378129               -0.09201481                0.41384455               -0.03495884                0.52936323               -1.10884246
               6.07781996                2.66219477               41.09473835                0.00010000                0.62574958               -0.01701213                0.03741864               -0.43396888                4.08260803               -1.83279246
               7.09105702                2.39661155               41.03720162                0.00010000                0.84550863               -0.16044684               -0.45814158               -1.03531386                5.56751519               -0.99127755
               8.09473013                2.13278379               40.93524830                0.00010000                0.28472822               -0.01141648               -0.68207957               -0.97700275                3.08343975               -0.01603437
               9.09675158                1.86928258               40.82585479                0.00010000                0.09807574                0.07353294               -0.85501846               -0.87085578                4.25128893                0.70814930
              10.09669165                1.60725640               40.74647749                0.00010000                0.02813900                0.07268675               -0.85318175               -0.57696646                4.86569038                1.10733740
              11.09731436                1.34782145               40.65033246                0.39096366                0.18643137                0.23178119               -0.94819715               -0.21295499                2.66734364                1.74395068
              12.10042027                1.09036252               40.52803008                1.00000000                0.35633924                0.33463519               -1.21987250               -0.04238848                0.88573686                0.79821794
              13.10444115                0.83339242               40.39660230                1.00000000                0.40208748                0.45114713               -1.47109066                0.01004348                0.41392859               -0.90959271
               3.33833419                4.42936815               41.43276224                1.00000000               -0.21199530               -0.36131425                0.94363027               -0.01697326                0.12669842                1.65904611
               4.33621424                4.17474902               41.29332329                1.00000000               -0.17710716               -0.18382685                0.61227289               -0.00063264                0.22800163                0.04820949
               5.33479205                3.91948242               41.15599069                0.36669937               -0.07098142               -0.01866299                0.30095177               -0.10385957                1.14467396               -1.60558582
               6.33479461                3.66214204               41.03478211                0.00010000                0.02887679                0.05712206               -0.05526890               -0.67452670                5.11134468               -2.47058081
               7.33536959                3.39462114               40.97648798                0.00010000                0.20096342               -0.04386705               -0.43300830               -1.75585693                8.02946045               -2.21605991
               8.33881388                3.13153214               40.91090081                0.00010000                0.35082523               -0.10005163               -0.74063613               -1.73955772                7.47149448               -0.23425047
               9.34238609                2.86828509               40.83861459                0.00010000                0.41084854               -0.12677627               -0.96851505               -1.68223081                7.11191300                1.70756928
              10.34703085                2.60589115               40.76394874                0.00010000                0.49518976               -0.16943670               -1.14061149               -1.10554945                6.97879939                1.87320840
              11.35228989                2.34967902               40.68804035                0.10462500                0.46848311               -0.16904660               -1.01620556               -0.43501465                4.44657116                2.51609730
              12.35640051                2.09363455               40.56305156                0.54484077                0.43036422                0.19046682               -1.32056744               -0.14188850                1.12765254                1.91418223
              13.36089717                1.83799916               40.42095838                0.96148145                0.44966565                0.44550842               -1.53720433               -0.04715791                0.24746988               -0.05938974
               3.59183038                5.42587248               41.38251729                1.00000000               -0.16617182               -0.32789109                0.78151748               -0.03461976                0.22712519                1.33746587
               4.59016866                5.17319257               41.23558583                0.74925934               -0.13792781               -0.11432884                0.45487213               -0.03467655                0.36109713               -0.35390015
               5.58907182                4.91959218               41.09137592                0.17317122               -0.04889760                0.06989322                0.14343078               -0.17872442                1.44833036               -1.86827625
               6.58919071                4.66333721               40.96606908                0.00010000               -0.12610202                0.14752284               -0.17927260               -0.93246716                7.14372197               -2.28276610
               7.58654978                4.39573421               40.93548142                0.00010000               -0.14578393                0.15080997               -0.47535937               -1.60656986               11.45275496               -0.61951094
               8.58627503                4.13078276               40.89385609                0.00010000                0.10990904                0.00914818               -0.81109073               -1.69218489               10.63012378                0.50199048
               9.58874796                3.86674706               40.84440340                0.00010000                0.34558509               -0.09780908               -1.12200039               -1.72099680               10.08291058                1.62068275
              10.59318673                3.60386767               40.78950140                0.00010000                0.60613532               -0.20216520               -1.41084024               -1.50852602                9.57558936                2.56009239
              11.60087067                3.34444052               40.72810207                0.08512273                0.80378134               -0.50473598               -1.84455625               -0.67016735                6.52821198                3.14527595
              12.60926236                3.09417186               40.61168121                0.42400042                0.69490493               -0.04996275               -1.35253001               -0.02112963                1.94420379                2.97912304
              13.61476877                2.84230259               40.45900471                0.86750024                0.55064096                0.39650023               -1.53634656               -0.04357838                0.12931092                0.96645657
               3.84300163                6.42281032               41.32892941                1.00000000               -0.12006217               -0.27324205                0.60882011               -0.03779952                0.11349630                1.02862601
               4.84180101                6.17246245               41.17252665                0.57829689               -0.09643579               -0.03784036                0.26744710               -0.05267794                0.40188657               -0.71459705
               5.84107292                5.92088028               41.02190540                0.09156841               -0.08988819                0.18500187               -0.04551510               -0.28416299                2.60237059               -2.33506338
               6.84000325                5.66509250               40.90941814                0.00010000               -0.26401354                0.06845723               -0.10206872               -1.28096673                9.96721936                0.25279866
               7.83579265                5.39763734               40.90578622                0.00010000               -0.30229588                0.21170744               -0.51574560               -1.84423253               14.62485947                0.39253340
               8.83395733                5.13171510               40.88355068                0.00010000               -0.04557017                0.14532444               -0.90318140               -1.84495436               13.49533407                1.14046016
               9.83488124                4.86632891               40.85470210                0.00010000                0.26047707                0.01482355               -1.27552797               -1.89745374               13.00546379                2.10226605
              10.83916687                4.60184784               40.82018781                0.00010000                0.68505545               -0.16448760               -1.70820939               -1.79329572               12.41203853                3.17783050
              11.84858235                4.33958430               40.77718013                0.08916619                0.94744921               -0.48336419               -2.30263204               -0.83672049                8.80642241                4.37412843
              12.85811586                4.09263530               40.66921783                0.39545513                0.75908953               -0.11233817               -1.32602460               -0.02036642                2.80279427                3.19669799
              13.86376414                3.84592917               40.50574849                0.85421129                0.56482871                0.37474245               -1.50846100               -0.02189499                0.04436904                1.12247916
               4.09177014                7.42040764               41.27270230                1.00000000               -0.07250015               -0.20323551                0.42966564               -0.03208181                0.03922967                0.83581291
               5.09104514                7.17243576               41.10740987                0.49109968               -0.05058152                0.02093551                0.09085184               -0.04188355                0.30913862               -0.82855307
               6.09075851                6.92329222               40.94749803                0.05559085               -0.21154108                0.26778072               -0.23794949               -0.52050681                5.77629967               -2.66119836
               7.08681432                6.66470636               40.89146721                0.00010000               -0.38579945                0.05383645               -0.01381108               -1.45500029               13.50087496                1.55636391
               8.08304252                6.39996835               40.88447891                0.00010000               -0.30649730                0.26601147               -0.60790474               -1.83083215               16.15885050                0.99767879
               9.08068437                6.13368924               40.87868437                0.00010000               -0.11881876                0.25109903               -1.01031123               -1.97840227               16.20052923                1.55341715
              10.08066615                5.86704353               40.86978735                0.00010000                0.16905263                0.12473956               -1.41164498               -2.08204256               16.02956788                2.50045780
              11.08406543                5.60057792               40.85793497                0.00010000                0.63413289               -0.06998902               -1.90059167               -2.15686681               15.74310435                3.81164164
              12.09334881                5.33477324               40.84073938                0.10331038                0.92223657               -0.41850605               -2.64623204               -1.09852455               10.64342004                5.74878550
              13.10251016                5.09192509               40.72402354                0.38556385                0.71971588                0.00413782               -1.32321964               -0.01637050                2.88116385                2.75092060
              14.10774312                4.84979744               40.55000817                0.85051976                0.52329660                0.42222935               -1.53723633               -0.01312742                0.03961318                0.61030869
               4.33830376                8.41874561               41.21540832                1.00000000               -0.02250001               -0.12980465                0.25263948               -0.02913000                0.01056279                0.76854401
               5.33807876                8.17288116               41.04185480                0.46443366                0.00442103                0.06424222               -0.08244067               -0.01784431                0.14009569               -0.83153709
               6.33839218                7.92623590               40.87083512                0.03817524               -0.19258276                0.29108105               -0.42249311               -0.66374905                8.35671163               -2.72950903
               7.33422711                7.66616922               40.86148249                0.00010000               -0.40995339                0.27797954               -0.40840069               -1.42842107               17.28805965                0.35330644
               8.33019311                7.40295757               40.86642297                0.00010000               -0.34564997                0.37671989               -0.76012080               -1.70827618               18.40967649                0.98727307
               9.32731411                7.13673708               40.87610499                0.00010000               -0.19206977                0.38008405               -1.13845827               -1.97275049               18.90627234                1.62616324
              10.32635172                6.86882370               40.88760843                0.00010000                0.04928606                0.25117977               -1.51471818               -2.20495041               19.24967656                2.60892736
              11.32829983                6.60044806               40.90111000                0.00010000                0.44564822                0.03388035               -1.95573840               -2.45595600               19.63649031                4.09412386
              12.33526468                6.33121417               40.91745905                0.12811874                0.72322084               -0.21851654               -2.68062872               -1.33415594               12.01570950                6.54489118
              13.34276425                6.09271805               40.77388088                0.38368695                0.62461120                0.15320193               -1.35831709                0.01038718                2.07774526                2.23348108
              14.34775691                5.85437375               40.58888859                0.84791705                0.49926624                0.49484220               -1.63159818                0.00188260                0.03953089                0.01512630
               4.58291646                9.41781155               41.15793910                0.99776930                0.02815134               -0.05766894                0.07561139               -0.02718104               -0.00149413                0.77150822
               5.58319797                9.17372060               40.97644785                0.48939624                0.06395028                0.10258415               -0.25257082               -0.00246044               -0.02579358               -0.78951908
               6.58419546                8.92911384               40.79437428                0.02608385               -0.08368705                0.27450724               -0.59667548               -0.67485099               10.28627771               -2.44991718
               7.58152423                8.67026595               40.81892334                0.00010000               -0.29431611                0.44764075               -0.69269142               -1.32910005               20.86466314               -0.36578945
               8.57830914                8.40750275               40.84457005                0.00010000               -0.30804979                0.49583914               -0.97062681               -1.48868274               21.23619766                0.61380820
               9.57536323                8.14129093               40.87217008                0.00010000               -0.27264894                0.53944064               -1.28481600               -1.75900237               21.77704299                1.33839152
              10.57285616                7.87206713               40.90412364                0.00010000               -0.14037027                0.48884164               -1.60873295               -2.15319413               22.59080976                2.26035978
              11.57255583                7.60125552               40.94380986                0.00010000                0.07697678                0.20326599               -1.88466625               -2.68294407               23.88039869                3.64174555
              12.57439570                7.33040291               40.99770462                0.16841419                0.35012467                0.06276766               -2.08513397               -1.61207321               13.25628215                5.85796271
              13.57955832                7.09498913               40.81870605                0.38854759                0.50368367                0.29036157               -1.41231860                0.00218775                0.85695845                1.75832181
              14.58446937                6.85969428               40.62238790                0.84434462                0.49110492                0.55404917               -1.75990760                0.01027896                0.03120313               -0.51998345
               4.82594203               10.41759223               41.10076670                0.97950791                0.07852292                0.01119680               -0.10050879               -0.02704034               -0.01260673                0.69262870
               5.82672726               10.17493284               40.91149253                0.53450145                0.12038934                0.14096477               -0.42227434               -0.00255295                0.01973129               -0.64300971
               6.82834982                9.93172604               40.72272841                0.00010000                0.12644667                0.26365383               -0.75665394               -0.63767930               12.07483178               -1.56442452
               7.82925619                9.67512204               40.77428732                0.00010000                0.05223315                0.37730223               -0.92505961               -0.92896493               24.00903774               -0.31787008
               8.82939448                9.41287435               40.81902823                0.00010000               -0.08432543                0.52343096               -1.16865912               -0.95855130               23.96778184                0.27288180
               9.82756969                9.14752590               40.86367352                0.00010000               -0.30356215                0.67509703               -1.44830274               -1.10098484               24.55285240                0.75505166
              10.82332324                8.87860053               40.91418596                0.00010000               -0.56322593                0.79651446               -1.72577289               -1.57245647               25.74359478                1.34846311
              11.81630517                8.60451338               40.97661694                0.01985423               -0.70168138                0.82011117               -1.90397675               -2.27430053               27.75830347                2.24474196
              12.80928961                8.33246953               41.06120551                0.23395207               -0.13942708                0.31317999               -1.34284522               -1.87779745               14.78320813                3.13977698
              13.81351663                8.09852528               40.85877887                0.40064916                0.46312897                0.39146141               -1.45373417               -0.04586440                0.22023528                1.16609938
              14.81855219                7.86545474               40.65064560                0.83189549                0.50355645                0.58600669               -1.89479681                0.00786008               -0.01917928               -0.75542693
               5.06769444               11.41803548               41.04172487                0.99980693                0.13186625                0.04432506               -0.27223465                0.02568222                0.37634939                0.60245442
               6.06901310               11.17653990               40.84877381                0.81403804                0.17791177                0.16070598               -0.59302191                0.04615577                0.77126748               -0.51871154
               7.07125268               10.93438692               40.66353933                0.49005965                0.63917604                0.26608749               -0.92061291               -0.64610965               13.91248170               -0.92200825
               8.08179662               10.67781199               40.73309764                0.36933948                0.77407907                0.26899525               -1.11997431               -0.56673441               26.51319019               -0.25140052
               9.08673426               10.41797137               40.79123226                0.35913963                0.29103662                0.50970221               -1.35448874               -0.41697876               26.25162391                0.08352988
              10.08761736               10.15479287               40.84865101                0.37016901               -0.11573554                0.72669699               -1.62710262               -0.49393081               26.86715030                0.36286898
              11.08441955                9.88799742               40.91254688                0.40171279               -0.72082687                0.93968859               -1.89454348               -0.74712519               28.25823128                0.70349588
              12.07320082                9.61765775               40.99060420                0.53391569               -2.07958501                1.31443654               -2.05938515               -1.87698036               30.24503078                1.23551123
              13.04282785                9.33666651               41.08639829                0.64980736               -1.37724977                0.41969779               -1.37762333               -2.38814584               16.87839946                1.32574109
              14.04565582                9.10281836               40.89108117                0.71736531                0.39699084                0.42930768               -1.50144382               -0.04868485                1.49011958                0.81957768
              15.05076766                8.87141441               40.67879641                0.91430690                0.51118398                0.59596765               -1.99476284                0.08115266                0.68740224               -0.71090809
               2.68412701                1.50776275               42.59692135                1.00000000               -0.38108158               -0.42554281                1.46461477               -0.07571169               -1.12462554                1.08156521
               3.68031619                1.24016747               42.46796147                1.00000000               -0.32227730               -0.30554453                1.09266193               -0.04418680               -1.51227304                0.17733634
               4.67768146                0.97208040               42.33156238                1.00000000               -0.20333709               -0.18978873                0.69051985               -0.04708511               -1.53831953               -0.21187674
               5.67624945                0.70319586               42.20224242                0.65649980               -0.05024972               -0.08104257                0.29275601               -0.30427710               -0.96706689               -0.97596054
               6.67667647                0.42810255               42.07736490                0.70990493                0.25852915               -0.10665894               -0.24190043               -0.07308585               -0.55511971                0.24515150
               7.68142003                0.14890139               41.95735649                0.74935328                0.54904614                0.06028034               -0.61363018               -0.11468376               -0.22785485                0.08680832
               8.68765739               -0.12800073               41.83801633                0.72530447                0.67075950                0.13377675               -0.82689827               -0.05055930                0.05866233               -0.15059799
               9.69483522               -0.40112298               41.72155798                0.81626890                0.61005023                0.17017012               -0.84343199               -0.08705872               -0.04297741                0.07775170
              10.69985839               -0.67057321               41.59732651                1.00000000                0.43482413                0.24482171               -0.92126564               -0.07353477               -0.61645219                0.67637051
              11.70353170               -0.93848027               41.46794533                1.00000000                0.38053016                0.33259675               -1.13255158               -0.03893647               -0.83258580                0.05567460
              12.70746900               -1.20613081               41.33908124                1.00000000                0.39372923                0.42212080               -1.39640813               -0.03151618               -0.79822758               -0.77895753
               2.95096517                2.50350732               42.54006305                1.00000000               -0.32496715               -0.41409243                1.29395043               -0.01417901               -0.23121239                1.46323602
               3.94771550                2.23711202               42.41108141                1.00000000               -0.26343782               -0.28191937                0.92451086                0.01439746               -0.35568127                0.25584635
               4.94569641                1.97018251               42.27982951                1.00000000               -0.12599485               -0.16056645                0.53001953               -0.00905954               -0.28736295               -0.41590898
               5.94519560                1.70238544               42.15213492                0.31767950                0.36982149               -0.04361873                0.15496494               -0.38711115                1.20804855               -1.31341330
               6.95309284                1.42703597               42.05037459                0.42876937                0.65646191               -0.12576196               -0.34401386               -0.07762494                2.22660826                0.70346688
               7.95832484                1.14950420               41.94056255                0.49642479                0.45355693                0.09777979               -0.68606352               -0.11577270                1.88012188                0.31747588
               8.96216398                0.87333703               41.83027960                0.42063689                0.34630161                0.21919420               -0.87035343               -0.06753839                2.23525123               -0.41716970
               9.96525087                0.60057873               41.72643482                0.49950261                0.28188557                0.24497774               -0.84683121               -0.08806241                2.31298150                0.40848596
              10.96780169                0.33187501               41.61731249                1.00000000                0.28351348                0.25811193               -0.89732289               -0.05530156                1.15716641                0.86826316
              11.97092114                0.06484570               41.49047507                1.00000000                0.35013410                0.33271770               -1.14924699                0.00363354                0.17554579                0.21062410
              12.97480437               -0.20190960               41.36185813                1.00000000                0.38832339                0.42495578               -1.41379260                0.01267915                0.07995731               -0.90220733
               3.21663402                3.49948090               42.49125458                1.00000000               -0.27050708               -0.39494816                1.13734132               -0.00912270                0.01692087                1.84195748
               4.21392895                3.23452908               42.35592680                1.00000000               -0.22035816               -0.23572304                0.76862515                0.00952111                0.17603759                0.26952592
               5.21222686                2.96886907               42.22393539                0.75624376               -0.11375878               -0.08411972                0.38168085               -0.03762889                0.49130770               -1.07877923
               6.21165377                2.70232349               42.09479341                0.00010000                0.78891756                0.00712620               -0.02958552               -0.55893930                3.96975619               -1.82699197
               7.22800521                2.42558732               42.03203733                0.00010000                1.05748683               -0.15166314               -0.59147319               -1.26529465                5.50508054               -0.98315314
               8.23280351                2.15085699               41.92770199                0.00010000                0.36134429                0.04840573               -0.85526778               -1.17260892                3.20028159               -0.03874868
               9.23523209                1.87638315               41.81655563                0.00010000                0.08662433                0.16391333               -1.04061800               -1.03688366                4.51419759                0.63499328
              10.23453600                1.60377658               41.73763889                0.00010000               -0.03733523                0.14934556               -0.94142732               -0.67850500                5.16069796                0.94995037
              11.23448539                1.33458903               41.64108290                0.37759173                0.14264946                0.21091191               -0.89384991               -0.25539623                2.76245168                1.72088923
              12.23738899                1.06817408               41.51607175                1.00000000                0.33738942                0.32047567               -1.16543699               -0.04250177                0.87136918                0.78307347
              13.24123318                0.80236831               41.38216843                1.00000000                0.38441916                0.42982338               -1.40972921                0.00468186                0.40685396               -0.86161712
               3.48068635                4.49560836               42.44235215                1.00000000               -0.21686018               -0.37420572                0.97891220               -0.01793148                0.12621184                1.67108159
               4.47851775                4.23239756               42.29944077                1.00000000               -0.17684617               -0.18288955                0.61175947               -0.00149460                0.23611980                0.05857867
               5.47714943                3.96850012               42.15884109                0.36407007               -0.06095898               -0.00536013                0.26391712               -0.10610151                1.14029564               -1.58212809
               6.47729857                3.70252796               42.03389678                0.00010000                0.10520101                0.08440392               -0.13122050               -0.79632913                5.07442328               -2.42703156
               7.47925345                3.42400270               41.97165626                0.00010000                0.33891278                0.00379345               -0.54640558               -2.05895953                8.02005316               -2.07579723
               8.48407683                3.15047231               41.90290451                0.00010000                0.46266352               -0.03134613               -0.87609180               -2.01972019                7.53712633               -0.16677699
               9.48850672                2.87661530               41.82840173                0.00010000                0.46990316               -0.03783567               -1.09235569               -1.93887765                7.24133161                1.69559131
              10.49347489                2.60356564               41.75227462                0.00010000                0.48947712               -0.08969281               -1.20395952               -1.32540677                7.27859021                1.68534445
              11.49829626                2.33609325               41.67827603                0.09138157                0.44084703               -0.14126190               -0.92814288               -0.52981165                4.60242014                2.06071504
              12.50229183                2.07125521               41.55026095                0.51479110                0.41066530                0.14846474               -1.22900661               -0.13206793                1.07843839                1.90323464
              13.50650957                1.80668687               41.40604205                0.93945229                0.42177379                0.38003224               -1.43664312               -0.03687352                0.23731216                0.00191877
               3.74269698                5.49199679               42.39044769                1.00000000               -0.16896816               -0.33878127                0.80798229               -0.03625255                0.23478693                1.33602256
               4.74100730                5.23087129               42.24009726                0.73666599               -0.13612753               -0.10830651                0.44694620               -0.03767741                0.37469650               -0.36168391
               5.73997443                4.96876187               42.09261273                0.16559607               -0.03913454                0.09018056                0.09989278               -0.18455178                1.46583115               -1.87801642
               6.74022461                4.70401157               41.96394506                0.00010000               -0.05463807                0.15957667               -0.25584026               -1.04720558                7.17261543               -2.13163474
               7.73888167                4.42566318               41.93029994                0.00010000               -0.02140488                0.19482099               -0.57103548               -1.81504883               11.48536322               -0.49444413
               8.73979651                4.15023007               41.88523606                0.00010000                0.22397748                0.05398382               -0.92233026               -1.89533091               10.65553024                0.58451864
               9.74336122                3.87562644               41.83271519                0.00010000                0.43767018               -0.05699012               -1.22110834               -1.92151506               10.12915840                1.61890001
              10.74854991                3.60198272               41.77514695                0.00010000                0.64191821               -0.16964714               -1.45468859               -1.68580722                9.53865977                2.39582215
              11.75619958                3.33176379               41.70965510                0.07348081                0.78020480               -0.41965854               -1.81697799               -0.79069530                6.83100198                2.55453484
              12.76415401                3.07114338               41.59868682                0.39850716                0.67164079               -0.12753544               -1.23711761               -0.06821758                2.30162204                3.00989669
              13.76963240                2.80996895               41.44422489                0.85016853                0.54783880                0.25989658               -1.41086267               -0.01628262                0.12371819                1.03891858
               4.00221229                6.48883273               42.33509518                1.00000000               -0.12131703               -0.28222659                0.62704441               -0.03869089                0.10838793                1.01814457
               5.00099912                6.23023143               42.17513827                0.56467965               -0.09470867               -0.02760945                0.25377978               -0.05647272                0.41039232               -0.73017103
               6.00031812                5.97030373               42.02125585                0.08598022               -0.07729887                0.21486583               -0.08950371               -0.31591553                2.76493377               -2.35802482
               6.99945314                5.70571950               41.90827493                0.00010000               -0.17920723                0.05454954               -0.13292487               -1.36664668               10.08128903                0.48974739
               7.99673397                5.42789912               41.90021322                0.00010000               -0.16230933                0.24276643               -0.60709475               -2.01002992               14.57603923                0.50521719
               8.99620696                5.15155199               41.87402627                0.00010000                0.07948952                0.18047932               -1.00486814               -2.01934050               13.47957226                1.22000207
               9.99832376                4.87547550               41.84144173                0.00010000                0.37072156                0.04112472               -1.37331617               -2.08199630               12.96504074                2.12344191
              11.00362139                4.60017269               41.80268123                0.00010000                0.74989676               -0.14708526               -1.77399821               -1.93195651               12.25025326                3.06589319
              12.01332170                4.32770008               41.75410522                0.07746175                0.95504661               -0.43755755               -2.26123430               -0.98163744                9.28800941                4.05731398
              13.02272232                4.06870450               41.65634697                0.37337398                0.76055365               -0.18526089               -1.24169033               -0.11327001                3.39534729                3.23145589
              14.02853277                3.81188480               41.49107907                0.83945272                0.58104515                0.22342591               -1.42420968               -0.00529838                0.03575906                1.12347016
               4.25912576                7.48635226               42.27704421                1.00000000               -0.07189132               -0.20984061                0.44085779               -0.03282147                0.03607615                0.82316399
               5.25840685                7.23031910               42.10822726                0.47931634               -0.04788518                0.03272726                0.07136286               -0.04339365                0.31042439               -0.83580553
               6.25816806                6.97305918               41.94489076                0.05011211               -0.15552831                0.30328052               -0.28768738               -0.58620061                6.05590165               -2.67977521
               7.25529628                6.70510256               41.89086918                0.00010000               -0.26597403                0.05764608               -0.11444406               -1.54663537               13.68262156                1.56740315
               8.25284858                6.43051851               41.87798451                0.00010000               -0.17314782                0.29092067               -0.69454527               -1.96063232               16.03650588                1.05830370
               9.25183332                6.15383965               41.86805169                0.00010000                0.01260051                0.28091085               -1.11563362               -2.13432026               16.17029629                1.62038549
              10.25310059                5.87644893               41.85504460                0.00010000                0.29264392                0.15710632               -1.52878880               -2.25115746               15.95150283                2.54926446
              11.25768620                5.59904102               41.83817105                0.00010000                0.74672185               -0.04514031               -2.02604328               -2.28477040               15.47362716                3.82228444
              12.26803502                5.32301264               41.81340208                0.09024055                1.00088426               -0.42624198               -2.73765376               -1.22654062               11.25518794                5.61612302
              13.27770389                5.06743816               41.71085343                0.36614728                0.75654075               -0.02941312               -1.30750318               -0.10760217                3.69267251                2.76421572
              14.28316584                4.81443747               41.53468132                0.83783800                0.54619503                0.32496240               -1.53598170               -0.00281052                0.03484218                0.52015524
               4.51362216                8.48463592               42.21794897                1.00000000               -0.01978477               -0.13421014                0.25725999               -0.02975895                0.00877080                0.75636518
               5.51342432                8.23088598               42.04091215                0.45477426                0.00942423                0.07669157               -0.10767790               -0.01561552                0.13608761               -0.83400477
               6.51381065                7.97636934               41.86636999                0.03297877               -0.11816049                0.32456386               -0.47581622               -0.73554479                8.52792986               -2.73413647
               7.51106111                7.70687242               41.85700202                0.00010000               -0.25132095                0.30040288               -0.49515819               -1.55641461               17.47812334                0.20090237
               8.50878423                7.43371754               41.85832040                0.00010000               -0.17354870                0.38735034               -0.86055631               -1.83576204               18.41707894                0.99295924
               9.50759013                7.15717021               41.86412461                0.00010000               -0.03424903                0.39891440               -1.25410877               -2.08968228               18.90154438                1.67325799
              10.50809925                6.87861762               41.87167526                0.00010000                0.18860670                0.29198538               -1.66212298               -2.31737487               19.19468450                2.67945590
              11.51136227                6.59926989               41.88036797                0.00010000                0.61472455                0.08933247               -2.17315776               -2.55024132               19.33986718                4.23801487
              12.52039374                6.31917524               41.88825150                0.11244136                0.88915907               -0.24456773               -3.09276546               -1.40765058               12.66731199                6.92618444
              13.52914545                6.06811624               41.76002785                0.36594249                0.70421017                0.15747550               -1.41355688               -0.04998215                2.98383604                2.24053783
              14.53447794                5.81838405               41.57223625                0.83644664                0.53324958                0.46127545               -1.71494587                0.01072183                0.04168098               -0.12601388
               4.76603046                9.48366805               42.15867298                0.99270550                0.03306526               -0.05961585                0.07273918               -0.02785479                0.00045578                0.75979603
               5.76636112                9.23185293               41.97378200                0.48215249                0.07201288                0.11547223               -0.28318949                0.00049638               -0.03193858               -0.78958897
               6.76747072                8.97955046               41.78814357                0.02132305                0.02293375                0.30125163               -0.65443136               -0.76155924               10.39645288               -2.43905827
               7.76681979                8.71111062               41.81156920                0.00010000               -0.08175880                0.44438242               -0.78163965               -1.47189327               21.03107503               -0.43818048
               8.76583555                8.43826552               41.83433726                0.00010000               -0.08401011                0.47344999               -1.07401668               -1.59664193               21.30727157                0.59811721
               9.76513959                8.16181794               41.85864822                0.00010000               -0.05910698                0.53002402               -1.41376047               -1.81479817               21.82203744                1.36649018
              10.76465341                7.88228864               41.88714061                0.00010000                0.04920856                0.51079032               -1.78168100               -2.15702129               22.62531435                2.33109726
              11.76612376                7.60082767               41.92351164                0.00010000                0.31911258                0.26608693               -2.17080373               -2.67687634               23.88606627                3.85741723
              12.77103566                7.31812129               41.97392612                0.14899267                0.56858371                0.07035275               -2.73670683               -1.63026471               13.86683841                6.77382752
              13.77749544                7.07058767               41.80405754                0.37139518                0.59045020                0.31982557               -1.52332977               -0.02320227                1.49502590                1.78530816
              14.78284466                6.82366298               41.60415803                0.83318370                0.53492263                0.56978164               -1.90800078                0.01792709                0.04174745               -0.66733960
               5.01669530               10.48344360               42.09971440                0.97485463                0.08565302                0.01254250               -0.10933507               -0.02772064               -0.01220817                0.68272453
               6.01755183               10.23319542               41.90709005                0.52910491                0.13132393                0.15414225               -0.46097984               -0.00126392                0.01545022               -0.64216532
               7.01932178                9.98239437               41.71487198                0.00010000                0.26781749                0.28585021               -0.81969167               -0.75557430               12.14938436               -1.54596421
               8.02290818                9.71576007               41.76460858                0.00010000                0.34111415                0.31252424               -1.01169894               -1.06272362               24.14901217               -0.34708928
               9.02614407                9.44318654               41.80677827                0.00010000                0.21814335                0.46158184               -1.27733630               -1.03077342               24.06407609                0.26454462
              10.02727105                9.16777069               41.84844937                0.00010000               -0.00974836                0.62801401               -1.58915012               -1.10757522               24.62865457                0.76738961
              11.02594910                8.88883343               41.89599226                0.00010000               -0.26394804                0.77007256               -1.91089483               -1.50939406               25.85999576                1.39299524
              12.02199209                8.60459163               41.95661193                0.00079990               -0.39603288                0.81266874               -2.14381892               -2.19933102               28.25378854                2.41392155
              13.01802844                8.32058229               42.04604885                0.21063110                0.05738106                0.39435494               -1.78410192               -1.85688143               15.43134300                3.78867550
              14.02313971                8.07451275               41.84355896                0.38395982                0.53287150                0.43421836               -1.60132303               -0.06835476                0.43908120                1.21845262
              15.02868587                7.82977968               41.63088534                0.82031781                0.55461598                0.63190732               -2.08239911                0.01211262               -0.01301090               -0.86796063
               5.26597241               11.48391890               42.03891303                0.99770412                0.14126577                0.04752982               -0.28932350                0.02939854                0.36982993                0.59334299
               6.26738507               11.23493578               41.84263018                0.81221856                0.19110908                0.17403559               -0.63829077                0.05075178                0.76255724               -0.51613128
               7.26979459               10.98526747               41.65400818                0.48783411                0.86940432                0.28730942               -0.99129684               -0.83145283               13.96700076               -0.90266254
               8.28477316               10.71736110               41.72145450                0.36937034                1.17074315                0.16010352               -1.20872743               -0.70201829               26.63876000               -0.27031185
               9.29320946               10.44749716               41.77709369                0.35924622                0.62840171                0.43106212               -1.46866613               -0.44260486               26.34904193                0.07608098
              10.29734119               10.17437822               41.83159897                0.36994934                0.22175640                0.66075358               -1.77513023               -0.48333944               26.94118096                0.36786094
              11.29764459                9.89769009               41.89263251                0.40074102               -0.34764565                0.88566592               -2.08588362               -0.69531041               28.39782813                0.73505749
              12.29038828                9.61708104               41.96955494                0.52254694               -1.68338411                1.24894156               -2.22494203               -1.74446642               30.82715165                1.35278107
              13.26397690                9.32600839               42.07114539                0.63692540               -1.17286621                0.54260935               -1.74508199               -2.29560397               17.68610625                1.58967647
              14.26693095                9.07927204               41.87536057                0.70911704                0.42880779                0.47592871               -1.65704094               -0.10623887                1.74692805                0.88412265
              15.27255306                8.83630113               41.65795944                0.90820810                0.56221052                0.65214460               -2.19830900                0.08962737                0.72357212               -0.78641831
               2.80352265                1.57638206               43.61191817                1.00000000               -0.39949827               -0.44908762                1.54469648               -0.08290618               -1.15706357                1.09959250
               3.79952767                1.29969414               43.47903349                1.00000000               -0.33703289               -0.31414153                1.12638105               -0.04745170               -1.56561940                0.18386154
               4.79678199                1.02248214               43.33840325                1.00000000               -0.21328822               -0.18506090                0.67881460               -0.05171229               -1.61179912               -0.21208977
               5.79526190                0.74419163               43.20488300                0.66418887               -0.08888227               -0.05286005                0.23249736               -0.37887073               -1.11907282               -0.97707151
               6.79500435                0.45795656               43.07438249                0.71754178                0.24486412               -0.07295771               -0.35263513               -0.09542264               -0.72915192                0.22948575
               7.80015918                0.16675304               42.95044552                0.75077148                0.62422476                0.10114448               -0.77075352               -0.13189427               -0.25889082                0.05615882
               8.80748884               -0.12180775               42.82891947                0.71724662                0.80291286                0.17394836               -1.00515366               -0.04354453                0.22065470               -0.20530131
               9.81621744               -0.40535732               42.71258957                0.80018640                0.72814735                0.18835451               -0.96290107               -0.08862239                0.22794562                0.03923882
              10.82205179               -0.68381689               42.58790865                1.00000000                0.48301801                0.24691505               -0.95954012               -0.07705996               -0.43260058                0.69831875
              11.82587780               -0.96031130               42.45648340                1.00000000                0.39246453                0.33392055               -1.15964328               -0.03744424               -0.75778774                0.06590071
              12.82990108               -1.23637923               42.32500307                1.00000000                0.40232771                0.42241205               -1.42192986               -0.03798790               -0.75150488               -0.73406554
               3.07938151                2.57189119               43.55330681                1.00000000               -0.33783959               -0.43666227                1.36351387               -0.01369996               -0.24900266                1.48239556
               4.07600311                2.29655273               43.42042396                1.00000000               -0.26826892               -0.28969417                0.94754315                0.01741060               -0.38925461                0.26670153
               5.07401613                2.02063153               43.28503510                1.00000000               -0.11335616               -0.15519337                0.50876419               -0.00850556               -0.32443738               -0.41017630
               6.07373599                1.74366303               43.15340214                0.33425005                0.43766435               -0.01492833                0.08894553               -0.47766569                1.11354197               -1.33210757
               7.08276941                1.45722698               43.04632712                0.44188066                0.74932063               -0.11448774               -0.47506639               -0.13264222                2.11958438                0.62733166
               8.08872240                1.16776449               42.93288958                0.50243390                0.51695818                0.14569037               -0.86595484               -0.16184872                1.92628273                0.24558335
               9.09310858                0.87993173               42.82074472                0.41924561                0.38066938                0.28340345               -1.06478634               -0.08142292                2.48825261               -0.53064251
              10.09633579                0.59652623               42.71754265                0.48471548                0.28248008                0.28864659               -0.95165817               -0.10592877                2.64196674                0.32205725
              11.09875818                0.31865226               42.60839131                1.00000000                0.27243729                0.25462945               -0.88019573               -0.07097859                1.31108927                0.87763183
              12.10178453                0.04302791               42.47906972                1.00000000                0.34154773                0.32747046               -1.12793821                0.00384802                0.19382322                0.22003732
              13.10558913               -0.23215511               42.34782888                1.00000000                0.38046015                0.41776930               -1.39088687                0.00588791                0.08883541               -0.84506432
               3.35392556                3.56764882               43.50288040                1.00000000               -0.27900330               -0.41472589                1.19452298               -0.00987058                0.00893847                1.86173637
               4.35113553                3.29390026               43.36366069                1.00000000               -0.22119911               -0.24012953                0.77997207                0.00870263                0.15664666                0.28424800
               5.34950158                3.01937828               43.22758796                0.77227846               -0.10111959               -0.07345114                0.34657177               -0.04406898                0.45282903               -1.05067454
               6.34911314                2.74389306               43.09414664                0.00010000                0.93742314                0.03933626               -0.10542279               -0.69897758                3.83819121               -1.82438218
               7.36825004                2.45566681               43.02537216                0.00010000                1.25521622               -0.11922002               -0.75622335               -1.51163533                5.40761276               -0.96365708
               8.37421746                2.16966685               42.91814294                0.00010000                0.44243005                0.14490249               -1.08630337               -1.38589749                3.30754495               -0.04810807
               9.37709864                1.88386032               42.80504243                0.00010000                0.05804364                0.30528103               -1.30842798               -1.22585962                4.84725259                0.57195227
              10.37537834                1.60041561               42.72764894                0.00010000               -0.14840546                0.27818704               -1.10605468               -0.80960207                5.61683856                0.78105178
              11.37413054                1.32127570               42.63245547                0.36082437                0.06919006                0.18344310               -0.82052471               -0.32918632                2.93825684                1.69287968
              12.37676214                1.04623811               42.50472134                1.00000000                0.31271689                0.30281308               -1.09767030               -0.04404092                0.85091886                0.76499007
              13.38038487                0.77197615               42.36840772                1.00000000                0.36227366                0.40680910               -1.33773173               -0.00159146                0.39760242               -0.80956435
               3.62668120                4.56359667               43.45234049                1.00000000               -0.22335018               -0.38994529                1.02365420               -0.01958267                0.12492585                1.67993072
               4.62444770                4.29175014               43.30555848                1.00000000               -0.17696294               -0.18194405                0.61228884               -0.00360708                0.24224070                0.06853597
               5.62314195                4.01916251               43.16126903                0.35983976               -0.04898995                0.01194061                0.21694476               -0.11306598                1.13266698               -1.55629151
               6.62346790                3.74444975               43.03215770                0.00010000                0.18104874                0.12166565               -0.22546675               -0.92386293                5.03743169               -2.38384005
               7.62676292                3.45484258               42.96555986                0.00010000                0.46715172                0.08107780               -0.68610566               -2.35356061                8.01382716               -1.89825767
               8.63281094                3.17066254               42.89337897                0.00010000                0.55398510                0.08422614               -1.04818968               -2.30261571                7.62421678               -0.04466572
               9.63784262                2.88603735               42.81676748                0.00010000                0.49587115                0.11123732               -1.25864546               -2.21254922                7.43044773                1.75297917
              10.64272836                2.60208997               42.73986955                0.00010000                0.42546660                0.04809407               -1.29453874               -1.60372696                7.70843409                1.53753359
              11.64635195                2.32232112               42.66947749                0.07788047                0.37374500               -0.07868353               -0.82426729               -0.65927473                4.83349289                1.55378438
              12.65020326                2.04908417               42.53847143                0.48160139                0.38646312                0.10228313               -1.11997364               -0.11885957                1.02250584                1.87995592
              13.65408122                1.77598107               42.39222552                0.91412738                0.38779558                0.30338911               -1.31792275               -0.02120394                0.22346102                0.05769966
               3.89722697                5.55984991               43.39867694                1.00000000               -0.17294229               -0.35099890                0.84141791               -0.03875347                0.24149899                1.33202406
               4.89549755                5.29026138               43.24452475                0.72372790               -0.13431609               -0.10105565                0.43793485               -0.04161726                0.38703067               -0.36841127
               5.89454065                5.01961709               43.09337378                0.15762322               -0.02708690                0.11396244                0.04789410               -0.19210052                1.48186769               -1.88201931
               6.89495581                4.74632638               42.96095227                0.00010000                0.02127012                0.17567855               -0.35464655               -1.15624855                7.21373394               -1.95041406
               7.89496605                4.45728836               42.92406071                0.00010000                0.10072864                0.26072639               -0.68741580               -2.00879186               11.53986056               -0.33835700
               8.89697038                4.17135137               42.87540948                0.00010000                0.32270912                0.13184848               -1.05382960               -2.08469838               10.71351023                0.71290222
               9.90142023                3.88608506               42.81998123                0.00010000                0.50248222                0.02154907               -1.33419325               -2.11447034               10.24228418                1.66054767
              10.90702002                3.60137749               42.76040763                0.00010000                0.62653040               -0.09741792               -1.49249872               -1.88014722                9.60336572                2.24947935
              11.91395084                3.31970203               42.69176251                0.06215892                0.68524877               -0.26687651               -1.73534595               -0.93844351                7.23269862                1.93451672
              12.92072500                3.04828377               42.58693885                0.37191577                0.61080753               -0.19931784               -1.10476032               -0.14062060                2.68653673                2.99802231
              13.92616699                2.77804394               42.43078746                0.83111089                0.54419903                0.09805393               -1.27135531                0.02271128                0.11677173                1.05617826
               4.16508320                6.55657669               43.34147030                1.00000000               -0.12350157               -0.29163930                0.65072788               -0.03983640                0.10275397                1.00645309
               5.16384818                6.28972903               43.17760224                0.55040425               -0.09241280               -0.01578019                0.23755930               -0.06126961                0.41910748               -0.74333505
               6.16323494                6.02144176               43.02011532                0.07944170               -0.05882609                0.24827482               -0.14461551               -0.35358596                2.95230273               -2.37506760
               7.16267166                5.74796332               42.90675964                0.00010000               -0.08364268                0.05004768               -0.18923276               -1.44837284               10.22796097                0.71977143
               8.16156209                5.46005711               42.89364432                0.00010000               -0.01756946                0.28694462               -0.71058066               -2.15198717               14.53389886                0.64939381
               9.16232027                5.17329951               42.86345332                0.00010000                0.19825041                0.23236213               -1.11516210               -2.17644764               13.50456634                1.33362315
              10.16552709                4.88646833               42.82723577                0.00010000                0.45940904                0.08551130               -1.46644555               -2.25006423               12.99058206                2.16780243
              11.17150845                4.60014161               42.78470785                0.00010000                0.75748552               -0.10203128               -1.80534119               -2.06621337               12.21188290                2.93673409
              12.18067680                4.31698359               42.73195544                0.06635909                0.87702468               -0.33763069               -2.13490775               -1.16122218                9.86413719                3.68776074
              13.18904894                4.04509781               42.64438402                0.35113723                0.71691555               -0.23776243               -1.14924558               -0.23410385                3.99068786                3.19270918
              14.19501512                3.77794215               42.47726430                0.82403003                0.59661724                0.04997137               -1.34600099                0.01529364                0.02813472                1.01303115
               4.43012557                7.55401712               43.28151945                1.00000000               -0.07184855               -0.21662707                0.45641534               -0.03365297                0.03265415                0.81069688
               5.42940708                7.28994578               43.10883713                0.46657489               -0.04454702                0.04586470                0.04913322               -0.04516090                0.31186672               -0.84045217
               6.42923463                7.02458258               42.94174428                0.04367484               -0.10170419                0.34292976               -0.34730414               -0.64962389                6.32540919               -2.69311314
               7.42737300                6.74732733               42.88917833                0.00010000               -0.13222519                0.07619616               -0.22226246               -1.61939126               13.86688134                1.56377676
               8.42659012                6.46302725               42.87058801                0.00010000               -0.01713970                0.32034462               -0.79400003               -2.07393502               15.95575831                1.14158945
               9.42703020                6.17599861               42.85637170                0.00010000                0.14933607                0.31531067               -1.22088594               -2.27810506               16.17975597                1.71066976
              10.42957685                5.88779529               42.83921157                0.00010000                0.40751457                0.19242357               -1.63043983               -2.40933965               15.93078123                2.60550262
              11.43518050                5.59933687               42.81741410                0.00010000                0.80966734               -0.01369155               -2.09761697               -2.39166936               15.30861194                3.78297701
              12.44577019                5.31294942               42.78598631                0.07795596                0.99519360               -0.38848861               -2.67520387               -1.37670529               11.97610513                5.25649931
              13.45508437                5.04352852               42.69787348                0.34725486                0.75069974               -0.03865576               -1.29282638               -0.22493927                4.53380647                2.69838420
              14.46078419                4.77904336               42.51928853                0.82503880                0.56998188                0.22173082               -1.56223628                0.00941471                0.03510654                0.31100430
               4.69255283                8.55224415               43.22055352                1.00000000               -0.01733305               -0.13875402                0.26545896               -0.03068477                0.00694392                0.74466245
               5.69237950                8.29064632               43.03970124                0.44406988                0.01540381                0.09025698               -0.13614072               -0.01311340                0.13274455               -0.83424982
               6.69286091                8.02830036               42.86131880                0.02688410               -0.02701700                0.36240504               -0.53974267               -0.80281897                8.69892762               -2.73425458
               7.69183916                7.74948725               42.85157933                0.00010000               -0.07244045                0.32842249               -0.60028330               -1.66286530               17.68890932                0.07277005
               8.69141210                7.46646400               42.84921185                0.00010000                0.00754852                0.39899845               -0.96268862               -1.95480485               18.46377963                1.01241787
               9.69199013                7.17960572               42.85102281                0.00010000                0.12949741                0.41486797               -1.36375429               -2.20883890               18.93773484                1.73456887
              10.69400205                6.89031680               42.85436597                0.00010000                0.32654015                0.32883893               -1.78920358               -2.44078790               19.17108139                2.74561090
              11.69852094                6.59986778               42.85764685                0.00010000                0.74744971                0.14115201               -2.34311583               -2.63959152               19.03352111                4.31461861
              12.70895104                6.30921382               42.85560374                0.09754757                0.99676377               -0.24336559               -3.31543632               -1.50633550               13.47572176                6.95973036
              13.71845621                6.04432470               42.74560975                0.34903310                0.76113444                0.18178339               -1.47679790               -0.13472477                4.05905426                2.18273179
              14.72417373                5.78237677               42.55458967                0.82520590                0.57175203                0.43275176               -1.83960026                0.02116471                0.04948947               -0.35979927
               4.95270753                9.55124204               43.15939388                0.98758363                0.03810778               -0.06187378                0.07327041               -0.02942659                0.00303845                0.74864547
               5.95308861                9.29175092               42.97078406                0.47355563                0.08148950                0.12975200               -0.31850644                0.00439136               -0.03642773               -0.78873219
               6.95433732                9.03183068               42.78128565                0.01573709                0.14317182                0.33208954               -0.72258373               -0.84485310               10.50956160               -2.42463275
               7.95595204                8.75389578               42.80329055                0.00010000                0.15191176                0.44038550               -0.87767090               -1.61662395               21.21820608               -0.49254522
               8.95737556                8.47100722               42.82308972                0.00010000                0.15242908                0.44723999               -1.17485852               -1.70883453               21.41465209                0.59670662
               9.95900063                8.18429597               42.84389487                0.00010000                0.15617376                0.51586062               -1.53133450               -1.88482519               21.89978925                1.39997047
              10.96049903                7.89437207               42.86849002                0.00010000                0.22455114                0.53258668               -1.93923891               -2.18887633               22.66290330                2.39270872
              11.96349165                7.60215991               42.90039378                0.00010000                0.53437663                0.34403639               -2.43619096               -2.67432729               23.71680134                4.03334296
              12.97118656                7.30808210               42.94297048                0.12994586                0.78676405                0.09049702               -3.43901379               -1.64886557               14.64096836                7.60895700
              13.97922693                7.04716419               42.78823945                0.35525131                0.69583895                0.36333047               -1.64864867               -0.06890804                2.46363439                1.76782911
              14.98510334                6.78769840               42.58422788                0.82244795                0.58764123                0.59586709               -2.10592671                0.02669425                0.05721842               -0.87232345
               5.21094656               10.55100667               43.09858000                0.96988319                0.09321311                0.01315155               -0.11659003               -0.02907001               -0.01287628                0.67301688
               6.21187869               10.29324136               42.90227293                0.52220666                0.14362133                0.16930577               -0.50447185                0.00079815                0.01322932               -0.64058045
               7.21381898               10.03494215               42.70633458                0.00010000                0.42257280                0.31152825               -0.89415071               -0.87576767               12.23286176               -1.52589098
               8.22033014                9.75829496               42.75405334                0.00010000                0.65081149                0.24090662               -1.10059815               -1.19995370               24.31172064               -0.36407135
               9.22683521                9.47540880               42.79348150                0.00010000                0.52993198                0.39274576               -1.37879151               -1.10884811               24.19030119                0.26315546
              10.23092878                9.18992293               42.83189051                0.00010000                0.27626870                0.57774462               -1.71484213               -1.12693646               24.73042806                0.77963757
              11.23236059                8.90096854               42.87596806                0.00010000                0.01977845                0.75230018               -2.08953524               -1.46266592               25.97745364                1.42941588
              12.23132435                8.60674850               42.93374056                0.00010000               -0.06955704                0.83337175               -2.46096883               -2.11027287               28.64874975                2.60602367
              13.23096945                8.31102376               43.02552347                0.18622738                0.30687017                0.50924193               -2.44809123               -1.77997075               16.18773589                4.58980104
              14.23746176                8.05159131               42.82675241                0.36843829                0.63348781                0.48666977               -1.77000349               -0.10881262                0.88012570                1.25102393
              15.24363920                7.79429411               42.60899762                0.80937277                0.61774466                0.69197205               -2.32525890                0.01718077                0.00012812               -1.00629538
               5.46765676               11.55150508               43.03593840                0.99546415                0.15123418                0.04984026               -0.30489704                0.03421540                0.36330996                0.58368159
               6.46916910               11.29513703               42.83600800                0.80971917                0.20558063                0.18956717               -0.68943962                0.05684960                0.75540609               -0.51194067
               7.47176837               11.03806125               42.64371339                0.48533829                1.11586076                0.31191041               -1.07404543               -1.02621762               14.03276816               -0.88291958
               8.49148631               10.75871391               42.70892309                0.36941494                1.59011254                0.04189532               -1.29904689               -0.84433877               26.78982816               -0.28425027
               9.50357062               10.47886214               42.76185894                0.35935616                0.97079244                0.34533354               -1.57500603               -0.46961174               26.47531224                0.06993673
              10.51090216               10.19585087               42.81314841                0.36971114                0.54247603                0.59279345               -1.90668250               -0.47486564               27.04126936                0.36931255
              11.51442014                9.90941807               42.87082921                0.39978791                0.01644030                0.84495332               -2.27163304               -0.64522102               28.55846727                0.75777067
              12.51123097                9.61882734               42.94610536                0.50967282               -1.18378962                1.20788386               -2.53040330               -1.56689502               31.35626775                1.52510488
              13.49074435                9.31826694               43.05149665                0.62294122               -0.87253174                0.72431808               -2.28914148               -2.11899780               18.57934630                1.97613694
              14.49378033                9.05689759               42.85794035                0.70156960                0.46485032                0.53062821               -1.83949316               -0.20459762                2.16826494                0.94225133
              15.50004135                8.80153784               42.63483023                0.90245509                0.62610209                0.72437322               -2.45806280                0.10424023                0.76162949               -0.87214535
               2.92675511                1.64697733               44.62781528                1.00000000               -0.42363858               -0.47843221                1.64488056               -0.09178795               -1.18632995                1.11422852
               3.92251872                1.36106375               44.49048909                1.00000000               -0.35795700               -0.32448935                1.16925938               -0.05178182               -1.61436465                0.18936712
               4.91959597                1.07457491               44.34513868                1.00000000               -0.23149832               -0.17806289                0.66874095               -0.05902865               -1.68107304               -0.21126529
               5.91788876                0.78661614               44.20689237                0.67211224               -0.15325313               -0.01364922                0.16608889               -0.46002741               -1.26611503               -0.97247043
               6.91653091                0.48880302               44.07031220                0.72669116                0.19082411               -0.02100880               -0.45262280               -0.12736648               -0.90563161                0.21282288
               7.92170524                0.18513644               43.94194142                0.75379395                0.66977631                0.15820011               -0.92298613               -0.15524986               -0.30768890                0.02358949
               8.92992643               -0.11575727               43.81791326                0.70797703                0.93498543                0.23584906               -1.20534070               -0.03408582                0.39195467               -0.27902322
               9.94040495               -0.41024435               43.70229996                0.77710311                0.86930603                0.22048498               -1.11587517               -0.08687628                0.56047652               -0.02532046
              10.94731255               -0.69757214               43.57813571                1.00000000                0.54382916                0.24529787               -0.98815696               -0.08614151               -0.19734118                0.72999426
              11.95128153               -0.98233489               43.44475246                1.00000000                0.40434985                0.33433974               -1.18566540               -0.03672904               -0.68063648                0.07627631
              12.95539955               -1.26646373               43.31064264                1.00000000                0.41180194                0.42482022               -1.45583773               -0.04656338               -0.70637285               -0.68880481
               3.21175081                2.64219300               44.56733333                1.00000000               -0.35486948               -0.46476865                1.45091657               -0.01255976               -0.26620182                1.49672375
               4.20820211                2.35781885               44.43003227                1.00000000               -0.27606615               -0.29921110                0.97747502                0.02184375               -0.42157860                0.27576084
               5.20622949                2.07279428               44.29000479                1.00000000               -0.10138435               -0.14766262                0.48358740               -0.00688419               -0.36062301               -0.40342045
               6.20617443                1.78647965               44.15391383                0.35388651                0.48838024                0.02320745                0.00619267               -0.57283515                1.01064578               -1.34090560
               7.21599709                1.48859293               44.04087326                0.45953423                0.81292295               -0.08607967               -0.62083753               -0.20654768                1.98912063                0.54813786
               8.22243289                1.18671844               43.92324345                0.51209972                0.56394401                0.21344989               -1.07682768               -0.22064085                1.96165173                0.16049369
               9.22727597                0.88660122               43.80898387                0.41703433                0.40053668                0.37783585               -1.32180503               -0.10066163                2.80363521               -0.68532965
              10.23044362                0.59196050               43.70740165                0.46130159                0.26102181                0.36575333               -1.11400406               -0.13327967                3.11249638                0.17222665
              11.23249641                0.30488084               43.59970858                1.00000000                0.24582077                0.24662944               -0.84472954               -0.10432062                1.54112203                0.89389850
              12.23536003                0.02100851               43.46791631                1.00000000                0.32831749                0.32035345               -1.09799485                0.00386076                0.21058746                0.22792538
              13.23906276               -0.26221553               43.33404039                1.00000000                0.37027221                0.41220573               -1.36847674               -0.00175773                0.09526888               -0.78535489
               3.49525221                3.63768195               44.51514504                1.00000000               -0.28978923               -0.43912837                1.26555890               -0.01033950                0.00003154                1.87544252
               4.49235432                3.35507952               44.37152625                1.00000000               -0.22273625               -0.24573166                0.79507297                0.00858055                0.13594770                0.29707147
               5.49079749                3.07162165               44.23086682                0.78568290               -0.08604608               -0.06029038                0.30633035               -0.05125861                0.41597799               -1.02217113
               6.49063340                2.78708029               44.09268495                0.00010000                1.06818336                0.07829400               -0.19421503               -0.84791447                3.68532549               -1.81698253
               7.51216116                2.48708142               44.01691286                0.00010000                1.43253666               -0.06219670               -0.94537906               -1.76816105                5.26710160               -0.91484485
               8.51928413                2.18940544               43.90597593                0.00010000                0.52549933                0.27970087               -1.37033944               -1.61806576                3.39077025               -0.01913817
               9.52267114                1.89179944               43.79038707                0.00010000                0.00878004                0.50674333               -1.67383376               -1.44927973                5.24950270                0.54946814
              10.51945973                1.59707071               43.71551779                0.00010000               -0.32465065                0.47985640               -1.41822338               -0.99745304                6.32097188                0.63030840
              11.51617813                1.30736045               43.62467241                0.34056745               -0.05023120                0.14905259               -0.72008277               -0.45653513                3.25418158                1.65181913
              12.51845511                1.02407218               43.49411834                1.00000000                0.28171680                0.28141539               -1.01518210               -0.04730902                0.82080654                0.74051017
              13.52181247                0.74178038               43.35541379                1.00000000                0.33573559                0.38383243               -1.25914065               -0.00878712                0.38469455               -0.75300267
               3.77674888                4.63341044               44.46282524                1.00000000               -0.23148529               -0.40872497                1.07851517               -0.02166595                0.12245766                1.68359415
               4.77443402                4.35290422               44.31168654                1.00000000               -0.17726631               -0.18101093                0.61378028               -0.00626089                0.24503567                0.07795604
               5.77320355                4.07158847               44.16317998                0.35397587               -0.03388277                0.03267669                0.16047879               -0.12359590                1.12068945               -1.52638048
               6.77375637                3.78804553               44.02938745                0.00010000                0.25525850                0.16605296               -0.33749863               -1.05302611                4.99860221               -2.33844280
               7.77830872                3.48734900               43.95793415                0.00010000                0.57985921                0.18650811               -0.85140851               -2.63362788                8.00993576               -1.66654663
               8.78535355                3.19231246               43.88194072                0.00010000                0.61581907                0.25041663               -1.25736812               -2.58754274                7.73282435                0.16617094
               9.79062510                2.89673608               43.80322882                0.00010000                0.47900024                0.32848237               -1.47649031               -2.51086121                7.69186987                1.93356132
              10.79493356                2.60155762               43.72638384                0.00010000                0.28695698                0.25316480               -1.42638759               -1.97489934                8.30924671                1.50230437
              11.79636424                2.30786189               43.66179068                0.06410725                0.25301807                0.03078644               -0.70535207               -0.83883084                5.17221687                1.00621835
              12.79999392                2.02663681               43.52786148                0.44463468                0.35531821                0.05595260               -0.99231294               -0.09980411                0.96086435                1.83570644
              13.80347060                1.74546112               43.37968359                0.88573092                0.34766869                0.21366777               -1.18362308                0.00533820                0.20554831                0.10273454
               4.05583133                5.62950745               44.40727605                1.00000000               -0.17802592               -0.36455768                0.88209276               -0.04208432                0.24673520                1.32470023
               5.05405107                5.35145931               44.24885596                0.70933519               -0.13235325               -0.09259300                0.42763205               -0.04650189                0.39782417               -0.37378158
               6.05318426                5.07227519               44.09357061                0.15139659               -0.01193585                0.14217029               -0.01302896               -0.20273664                1.49282981               -1.87763033
               7.05381235                4.79040135               43.95685213                0.00010000                0.10187016                0.19216697               -0.47667752               -1.23683037                7.26935175               -1.74367404
               8.05522167                4.49081159               43.91655162                0.00010000                0.21669193                0.35053523               -0.82521448               -2.17890106               11.61987167               -0.12938417
               9.05814619                4.19441377               43.86415946                0.00010000                0.39935430                0.24748858               -1.20877963               -2.25446078               10.81307509                0.91028562
              10.06320875                3.89836909               43.80603133                0.00010000                0.53448764                0.14325617               -1.46603390               -2.30119951               10.44174912                1.78160821
              11.06883594                3.60213401               43.74529698                0.00010000                0.55567857                0.01716389               -1.53227174               -2.10935484                9.81318364                2.16311437
              12.07432233                3.30797617               43.67494818                0.05111538                0.50119266               -0.03151927               -1.60938691               -1.11893771                7.74817024                1.31289306
              13.07885980                3.02519123               43.57659162                0.34391267                0.49741481               -0.25063747               -0.95932727               -0.23445662                3.08246969                2.93479658
              14.08427062                2.74605374               43.41879779                0.81055145                0.54108236               -0.09083849               -1.12882388                0.07946644                0.10791565                0.99366950
               4.33200348                6.62611928               44.34810973                1.00000000               -0.12672349               -0.30122415                0.68002750               -0.04108422                0.09584512                0.99363549
               5.33073625                6.35105236               44.17988946                0.53515117               -0.08983548               -0.00241200                0.21829500               -0.06595623                0.42678510               -0.75297331
               6.33020677                6.07443188               44.01836354                0.07208576               -0.01264440                0.28591276               -0.21251912               -0.40063600                3.15306671               -2.38196712
               7.33048336                5.79188887               43.90449027                0.00010000                0.02557501                0.05785285               -0.26850534               -1.50471754               10.37435021                0.98101197
               8.33071827                5.49435970               43.88600161                0.00010000                0.11117352                0.34855947               -0.82819676               -2.25389679               14.51069521                0.82943134
               9.33270683                5.19726223               43.85172303                0.00010000                0.30812984                0.30348914               -1.23837698               -2.30499027               13.58220950                1.50002220
              10.33688087                4.89960121               43.81211282                0.00010000                0.52162721                0.15298494               -1.55974474               -2.39481347               13.10919608                2.25841421
              11.34313938                4.60190090               43.76657441                0.00010000                0.70236972               -0.01862254               -1.81275042               -2.20609716               12.33721101                2.82074963
              12.35092827                4.30723150               43.71140706                0.05599149                0.70439230               -0.17409194               -1.96374944               -1.37507079               10.53282752                3.31627873
              13.35722722                4.02162406               43.63336206                0.32893460                0.62033253               -0.25055528               -1.05944889               -0.36845813                4.56820360                3.07697779
              14.36333492                3.74364435               43.46415905                0.80807009                0.61076947               -0.13607756               -1.29629596                0.04039021                0.02309585                0.75987154
               4.60514349                7.62348297               44.28617252                1.00000000               -0.07241394               -0.22322712                0.47686447               -0.03408394                0.02903904                0.79884408
               5.60441935                7.35141107               44.10920993                0.45289459               -0.04042267                0.06008433                0.02355030               -0.04559220                0.31305190               -0.84123956
               6.60433504                7.07799344               43.93794468                0.03644886               -0.03145868                0.38555001               -0.41921746               -0.70741632                6.59539019               -2.69714062
               7.60379018                6.79155840               43.88642393                0.00010000                0.02176650                0.11633670               -0.34445220               -1.68738916               14.09621554                1.56426433
               8.60477037                6.49778278               43.86210451                0.00010000                0.15073510                0.35522403               -0.90786515               -2.15883918               15.92922464                1.25581682
               9.60680488                6.20048355               43.84363398                0.00010000                0.29517223                0.35380934               -1.33059718               -2.39350535               16.25261532                1.84106090
              10.61067381                5.90142879               43.82243581                0.00010000                0.51394132                0.23250910               -1.71980699               -2.53530122               16.00134494                2.68775882
              11.61708371                5.60176156               43.79621871                0.00010000                0.82119677                0.03408363               -2.11952316               -2.46394549               15.31232534                3.71166512
              12.62709775                5.30449434               43.75989800                0.06679060                0.89970410               -0.29229149               -2.50652169               -1.52822120               12.78457613                4.75969235
              13.63507779                5.02018012               43.68499690                0.32905103                0.69700547               -0.01095815               -1.29317345               -0.35243845                5.34822996                2.55537192
              14.64103786                4.74333219               43.50343659                0.81221802                0.59600684                0.13021816               -1.64066366                0.02385495                0.04249950               -0.03412617
               4.87546561                8.62165474               44.22325815                0.99975542               -0.01516828               -0.14342440                0.27675564               -0.03170053                0.00560239                0.73379864
               5.87531393                8.35225405               44.03818933                0.43233321                0.02227476                0.10477658               -0.16723835               -0.00952118                0.13036236               -0.83121900
               6.87591111                8.08214288               43.85557513                0.02005812                0.08161569                0.40242917               -0.61496068               -0.86090065                8.86798329               -2.72765620
               7.87694625                7.79421560               43.84499635                0.00010000                0.13526162                0.36136505               -0.72363481               -1.75445142               17.92691624               -0.02816285
               8.87861634                7.50146418               43.83906662                0.00010000                0.21222328                0.40736101               -1.07154620               -2.05616424               18.57371724                1.06602785
               9.88119071                7.20433842               43.83684952                0.00010000                0.31402499                0.42330481               -1.47094822               -2.31413009               19.03996315                1.82728614
              10.88489684                6.90425139               43.83589119                0.00010000                0.48021045                0.35559627               -1.89699593               -2.55085495               19.21783403                2.82452182
              11.89079492                6.60258257               43.83350565                0.00010000                0.85242175                0.18196250               -2.45128745               -2.69850452               18.83345661                4.33057483
              12.90194528                6.30138567               43.82194277                0.08397604                1.02728410               -0.20568200               -3.29760435               -1.61330324               14.42066827                6.58848067
              13.91134060                6.02140490               43.73049189                0.33326797                0.77813065                0.23107355               -1.55795912               -0.23520150                5.19585996                2.06312044
              14.91750789                5.74624871               43.53544425                0.81424184                0.61672879                0.42381876               -2.02196334                0.03309668                0.06418735               -0.68995607
               5.14331087                9.62061448               44.16013839                0.98261148                0.04299230               -0.06476559                0.07776309               -0.03147312                0.00558750                0.73743112
               6.14374079                9.35350660               43.96741187                0.46366458                0.09223010                0.14529166               -0.35806253                0.00877284               -0.03911449               -0.78521604
               7.14515547                9.08604203               43.77369190                0.00952864                0.28195267                0.36529679               -0.80228626               -0.92166943               10.63188353               -2.40671033
               8.14937985                8.79878571               43.79401578                0.00010000                0.41843976                0.43152489               -0.98133700               -1.75313014               21.44203652               -0.51556781
               9.15352427                8.50593000               43.81084009                0.00010000                0.41776129                0.41081233               -1.27721492               -1.81697421               21.58177825                0.62227230
              10.15773507                8.20894965               43.82802153                0.00010000                0.39441448                0.48857420               -1.64049209               -1.95934703               22.04119065                1.45635165
              11.16141256                7.90854071               43.84835583                0.00010000                0.41221312                0.54155861               -2.07626949               -2.23987814               22.74582964                2.45558034
              12.16597933                7.60540081               43.87478782                0.00010000                0.72984006                0.42089747               -2.65971248               -2.67716290               23.42965560                4.13346492
              13.17600936                7.30038070               43.90514584                0.11205431                0.97656928                0.12332337               -3.97886180               -1.68865864               15.61714441                8.10869464
              14.18551072                7.02480159               43.77108456                0.34055850                0.80014065                0.42137165               -1.79189673               -0.13223291                3.75966010                1.70592527
              15.19201217                6.75180856               43.56203949                0.81223603                0.65014509                0.64013549               -2.36002799                0.03520280                0.07689728               -1.13529421
               5.40905192               10.62035943               44.09738260                0.96474151                0.10099218                0.01306340               -0.12148066               -0.03052820               -0.01347594                0.66327442
               6.41006184               10.35515988               43.89700062                0.51382474                0.15733456                0.18601167               -0.55234716                0.00333933                0.01297419               -0.63791847
               7.41219861               10.08944881               43.69698896                0.00010000                0.59669149                0.34047118               -0.98090609               -0.99671915               12.33364468               -1.50437849
               8.42199567                9.80284610               43.74259661                0.00010000                0.99571504                0.15754443               -1.19422031               -1.33620273               24.51863383               -0.36354065
               9.43211291                9.50968043               43.77920244                0.00010000                0.86986892                0.31055143               -1.47743913               -1.18850394               24.37609400                0.27774378
              10.43939305                9.21410990               43.81415252                0.00010000                0.57676031                0.51495196               -1.82749048               -1.15683170               24.89372162                0.80429963
              11.44364812                8.91508256               43.85420156                0.00010000                0.30093148                0.72912476               -2.25350561               -1.43324786               26.10986839                1.46106465
              12.44541168                8.61100052               43.90739255                0.00010000                0.25615989                0.87263696               -2.79388207               -2.01817824               28.87643217                2.73656611
              13.44877132                8.30385214               43.99708702                0.16206262                0.59281982                0.66020303               -3.34600599               -1.67243538               17.13468114                5.41381161
              14.45726808                8.02983233               43.80815889                0.35464986                0.77133471                0.54697918               -1.95647944               -0.16743825                1.67990930                1.26065856
              15.46419801                7.75905142               43.58438016                0.79917606                0.69299342                0.76922113               -2.62541988                0.02159424                0.01674253               -1.17058477
               5.67309940               11.62087575               44.03281509                0.99281958                0.16187912                0.05163219               -0.31881306                0.03985616                0.35604606                0.57410654
               6.67471819               11.35722683               43.82884138                0.80616420                0.22177330                0.20669513               -0.74669279                0.06442008                0.75000438               -0.50739942
               7.67753487               11.09285145               43.63252728                0.48260933                1.38529904                0.34026383               -1.16960839               -1.23088624               14.11924537               -0.86221468
               8.70242418               10.80193659               43.69547356                0.36938347                2.04777576               -0.09095041               -1.39566803               -0.99267114               26.98830214               -0.29200715
               9.71849038               10.51214103               43.74559357                0.35948084                1.33860645                0.24605971               -1.67919196               -0.49664822               26.66295925                0.06883472
              10.72919630               10.21924869               43.79346532                0.36947244                0.86832954                0.51387876               -2.02508437               -0.47056554               27.20936147                0.37205600
              11.73585698                9.92312321               43.84719985                0.39879138                0.38249432                0.80406491               -2.44411772               -0.59887154               28.73442535                0.76660606
              12.73684619                9.62285355               43.91894688                0.49599154               -0.60640678                1.18530234               -2.91124817               -1.33347183               31.78350131                1.65524348
              13.72372884                9.31358476               44.02536256                0.60884871               -0.49417592                0.97326168               -3.05971518               -1.85986633               19.63611944                2.49335262
              14.72696267                9.03574118               43.83857071                0.69498604                0.51385203                0.59088440               -2.04315311               -0.35012920                2.86696621                0.98920013
              15.73400588                8.76719298               43.60879819                0.89717677                0.70432081                0.81415628               -2.77501271                0.12596740                0.80160079               -0.97017592
               3.05444842                1.71963053               45.64481578                1.00000000               -0.45314448               -0.51346306                1.76466680               -0.10242277               -1.20861007                1.12297615
               4.04991698                1.42439514               45.50241867                1.00000000               -0.38455817               -0.33643429                1.22048012               -0.05698604               -1.65249529                0.19329858
               5.04675726                1.12852461               45.35177807                1.00000000               -0.25754497               -0.16896308                0.65906401               -0.06830670               -1.73704107               -0.20976621
               6.04476608                0.83069930               45.20820477                0.68011046               -0.24573000                0.03530317                0.09375613               -0.54024967               -1.38038653               -0.96153883
               7.04184266                0.52109091               45.06533003                0.73679864                0.08191365                0.04981725               -0.53066282               -0.16597217               -1.04341217                0.19583444
               8.04640435                0.20462077               44.93198580                0.75823676                0.65633708                0.23190844               -1.05090997               -0.18697087               -0.35845097               -0.00444269
               9.05496940               -0.10952945               44.80481265                0.69701254                1.04000848                0.32807698               -1.41511709               -0.02902672                0.56640287               -0.36797242
              10.06720452               -0.41606712               44.69027207                0.74366313                1.03415318                0.28200458               -1.32439214               -0.07601570                0.96713148               -0.13067254
              11.07565246               -0.71236274               44.56814551                1.00000000                0.62768095                0.23562712               -0.99693000               -0.11096695                0.12083618                0.77397696
              12.07975814               -1.00511347               44.43277009                1.00000000                0.41703963                0.33339983               -1.20913382               -0.03877104               -0.60318681                0.08525455
              13.08399326               -1.29695082               44.29588632                1.00000000                0.42351168                0.43174631               -1.50469289               -0.05842641               -0.66481495               -0.64461385
               3.34865959                2.71449590               45.58232514                1.00000000               -0.37595124               -0.49823866                1.55619439               -0.01074292               -0.28137183                1.50328692
               4.34490008                2.42103079               45.43997347                1.00000000               -0.28687402               -0.31038603                1.01380216                0.02774015               -0.45010646                0.28244235
               5.34292211                2.12683498               45.29470685                1.00000000               -0.09098217               -0.13824758                0.45524652               -0.00366413               -0.39324870               -0.39536513
               6.34308043                1.83105233               45.15352600                0.37656701                0.51500457                0.06902436               -0.09028421               -0.66191872                0.90932261               -1.33767090
               7.35322220                1.52158908               45.03391037                0.48191744                0.83821922               -0.03909440               -0.77074078               -0.28270166                1.84499097                0.47368188
               8.35984482                1.20693986               44.91135303                0.52638097                0.59004396                0.29830221               -1.30498854               -0.28417235                1.97938232                0.07640188
               9.36502308                0.89375132               44.79430862                0.41462503                0.40080954                0.50670882               -1.64722619               -0.13047496                3.18452077               -0.87064679
              10.36786101                0.58675292               44.69526257                0.42728717                0.20214435                0.50533570               -1.38343962               -0.17249366                3.80403180               -0.08878924
              11.36906597                0.28999353               44.59149672                1.00000000                0.19017304                0.22963589               -0.77943014               -0.17856197                1.90158569                0.91769359
              12.37166447               -0.00177947               44.45710982                1.00000000                0.30901897                0.31083044               -1.05778443                0.00259287                0.22372243                0.23189258
              13.37524635               -0.29263336               44.32045935                1.00000000                0.35818764                0.41118580               -1.35308217               -0.01065843                0.09759378               -0.72439564
               3.64116378                3.70966576               45.52819158                1.00000000               -0.30310774               -0.46791794                1.35094375               -0.01042650               -0.00936679                1.87966833
               4.63813270                3.41818742               45.37956215                1.00000000               -0.22506711               -0.25256237                0.81391934                0.00937466                0.11504738                0.30726399
               5.63666244                3.12575966               45.23371457                0.79617389               -0.06795480               -0.04519357                0.26039321               -0.05874544                0.38284423               -0.99282307
               6.63677361                2.83207979               45.09026234                0.00010000                1.18193319                0.12306931               -0.29725997               -0.99226471                3.51547621               -1.80132973
               7.66030110                2.52030902               45.00646458                0.00010000                1.58925267                0.01419066               -1.14952198               -2.01534035                5.08259444               -0.82052742
               8.66855866                2.21058682               44.89073615                0.00010000                0.61228665                0.44312797               -1.68505151               -1.86881778                3.43293124                0.07852736
               9.67254683                1.90060473               44.77156576                0.00010000               -0.05231109                0.76565004               -2.12374003               -1.71667022                5.67878307                0.61034622
              10.66751244                1.59403959               44.69928448                0.00010000               -0.59666082                0.78019697               -2.00281515               -1.29421612                7.41255742                0.55832157
              11.66061362                1.29222998               44.61805381                0.31747058               -0.25377752                0.10880963               -0.58247199               -0.68418814                3.82572993                1.58426039
              12.66243689                1.00110314               44.48441770                1.00000000                0.24371246                0.25522449               -0.91620377               -0.05469587                0.77663789                0.70552937
              13.66548787                0.71127290               44.34322490                1.00000000                0.30509798                0.36425612               -1.18102507               -0.01794451                0.36591603               -0.69162663
               3.93140775                4.70513754               45.47391079                1.00000000               -0.24140755               -0.43031706                1.14395054               -0.02389624                0.11861605                1.67954398
               4.92899367                4.41597955               45.31783409                1.00000000               -0.17764587               -0.18022924                0.61626008               -0.00898371                0.24362092                0.08632931
               5.92785483                4.12593111               45.16447860                0.34780867               -0.01539442                0.05606306                0.09423962               -0.13635954                1.10373826               -1.49073191
               6.92868578                3.83351372               45.02540773                0.00010000                0.32767683                0.21351423               -0.46678568               -1.17349957                4.95641577               -2.28693296
               7.93440836                3.52187289               44.94853169                0.00010000                0.67434847                0.31621005               -1.04057625               -2.89781279                8.00670549               -1.36642270
               8.94217275                3.21580242               44.86823161                0.00010000                0.64142675                0.45939796               -1.49922064               -2.88075244                7.86316154                0.49348299
               9.94723690                2.90906432               44.78723767                0.00010000                0.40893428                0.61142523               -1.74863706               -2.84373442                8.04090722                2.29103222
              10.95035144                2.60235686               44.71134180                0.00010000                0.05408776                0.52048094               -1.59958068               -2.50200927                9.13247662                1.70225349
              11.94831865                2.29216973               44.65537045                0.05014944                0.05880998                0.20567675               -0.56832753               -1.10129260                5.66614996                0.41798770
              12.95152764                2.00332502               44.51862517                0.40387568                0.31146476                0.01879914               -0.84209184               -0.07150320                0.89617645                1.75677752
              13.95454795                1.71465176               44.36855306                0.85490573                0.30203139                0.10844862               -1.04234579                0.05392912                0.18279136                0.12689848
               4.21900185                5.70105942               45.41631880                1.00000000               -0.18423858               -0.37923085                0.93002283               -0.04601359                0.24994426                1.31319201
               5.21715946                5.41458283               45.25307740                0.69187537               -0.13003870               -0.08319770                0.41588059               -0.05210473                0.40717598               -0.37793098
               6.21640107                5.12688092               45.09311320                0.14415597                0.01011854                0.17486234               -0.08361739               -0.21960617                1.49689915               -1.86439894
               7.21736183                4.83635007               44.95141872                0.00010000                0.18275370                0.22490223               -0.61815025               -1.32064438                7.33752978               -1.49538870
               8.22005615                4.52663322               44.90755642                0.00010000                0.31951730                0.46099813               -0.98509686               -2.32202139               11.73137355                0.14407591
               9.22375218                4.21977478               44.85123389                0.00010000                0.45307756                0.40115110               -1.39154352               -2.40597422               10.96618979                1.19712933
              10.22911770                3.91283323               44.79066055                0.00010000                0.53073361                0.30839082               -1.61995642               -2.48514146               10.75180138                2.01757708
              11.23436685                3.60444921               44.72976219                0.00010000                0.42509549                0.16390011               -1.57917448               -2.39413640               10.21521344                2.17833901
              12.23761961                3.29634351               44.65957478                0.04051041                0.20789664                0.30948107               -1.46130897               -1.33715168                8.40441339                0.69883722
              13.23852478                3.00147913               44.56775231                0.31473321                0.31466774               -0.25464680               -0.80496770               -0.33841300                3.48847555                2.81185510
              14.24391296                2.71344187               44.40821098                0.78887223                0.53881798               -0.30754938               -1.00405528                0.16302882                0.09858517                0.81482075
               4.50344065                6.69755293               45.35507085                1.00000000               -0.13105739               -0.31069151                0.71539515               -0.04224883                0.08699561                0.98026707
               5.50213007                6.41431559               45.18196814                0.51858839               -0.08725918                0.01191409                0.19579985               -0.06940333                0.43212101               -0.75875919
               6.50169546                6.12942836               45.01586494                0.06401081                0.01952618                0.32736315               -0.29499623               -0.43882363                3.37428942               -2.38054987
               7.50252060                5.83801176               44.90138953                0.00010000                0.14238852                0.08782315               -0.34683946               -1.52799285               10.52887345                1.26789732
               8.50454323                5.53109285               44.87708039                0.00010000                0.26663276                0.42226792               -0.97132720               -2.31389507               14.51119126                1.06044616
               9.50785325                5.22382544               44.83868578                0.00010000                0.41582008                0.39592800               -1.37984350               -2.39308389               13.72992495                1.73498722
              10.51285963                4.91523214               44.79604088                0.00010000                0.55525883                0.24694315               -1.66161207               -2.51446322               13.34956315                2.41672661
              11.51895843                4.60563487               44.74845284                0.00010000                0.58430365                0.10948566               -1.81381845               -2.36374160               12.65996804                2.74839547
              12.52454571                4.29835935               44.69268045                0.04656638                0.43512973                0.06320203               -1.79152431               -1.61694287               11.31001393                2.97657496
              13.52766102                3.99823209               44.62319505                0.30713199                0.46686668               -0.19865000               -0.98533620               -0.49364875                5.13620409                2.88642932
              14.53388304                3.70850078               44.45133838                0.79180662                0.62220189               -0.31831100               -1.30849907                0.06896071                0.02576824                0.33514521
               4.78463154                7.69484559               45.29105674                1.00000000               -0.07355724               -0.22993374                0.50263110               -0.03435361                0.02437091                0.78732818
               5.78389596                7.41482111               45.10930813                0.43856948               -0.03515542                0.07521996               -0.00547935               -0.04388531                0.31305405               -0.83651105
               6.78392843                7.13342818               44.93335993                0.02866365                0.06207560                0.42858270               -0.50486900               -0.74982420                6.86093234               -2.69201584
               7.78513748                6.83810654               44.88228929                0.00010000                0.20180708                0.16601859               -0.49888436               -1.69921038               14.35857840                1.57071717
               8.78796457                6.53507858               44.85243071                0.00010000                0.33068685                0.39780648               -1.03559721               -2.19615807               15.97290668                1.41181879
               9.79175121                6.22769334               44.82975976                0.00010000                0.45272178                0.39692254               -1.45161089               -2.45974494               16.40594494                2.02554468
              10.79701901                5.91777210               44.80481543                0.00010000                0.61067988                0.28275368               -1.80457872               -2.61057238               16.19568796                2.81152848
              11.80396481                5.60663893               44.77502364                0.00010000                0.78322627                0.11376519               -2.11018494               -2.49922417               15.52744673                3.63503136
              12.81268353                5.29760755               44.73585587                0.05699264                0.72727828               -0.13118768               -2.30225101               -1.66501697               13.67240774                4.24472848
              13.81851038                4.99750613               44.67201001                0.31209794                0.60356312                0.06336761               -1.31891622               -0.46604977                6.11543776                2.34247666
              14.82475479                4.70707565               44.48647526                0.79954427                0.62444169                0.07369819               -1.79451407                0.04043902                0.05958553               -0.51354406
               5.06280252                8.69295425               45.22608864                0.99299595               -0.01327523               -0.14896832                0.29269319               -0.03138722                0.00791747                0.72519120
               6.06266977                8.41581999               45.03635647                0.41980481                0.03055166                0.12070981               -0.20221789               -0.00486979                0.12954652               -0.82532402
               7.06341356                8.13800001               44.84901959                0.01273387                0.21081123                0.44272326               -0.70179720               -0.90226019                9.03741705               -2.71405370
               8.06688600                7.84133214               44.83710663                0.00010000                0.38098577                0.39388122               -0.86065608               -1.82219588               18.20214817               -0.08726614
               9.07103327                7.53904898               44.82778092                0.00010000                0.45394187                0.41191391               -1.19403266               -2.12637199               18.76048622                1.16142090
              10.07596483                7.23176389               44.82160385                0.00010000                0.53346638                0.42133361               -1.58225291               -2.38021465               19.22824897                1.96557231
              11.08170260                6.92088721               44.81642605                0.00010000                0.65868270                0.37006042               -1.99062857               -2.61116952               19.37192924                2.93140558
              12.08913849                6.60791017               44.80862110                0.00010000                0.93377848                0.21516905               -2.49222011               -2.69108388               18.84183405                4.29614820
              13.10037817                6.29573559               44.78965165                0.07229047                0.98667238               -0.12479052               -3.10001242               -1.69307801               15.46006209                5.92423034
              14.10887193                5.99949944               44.71445056                0.31912508                0.75873042                0.30547904               -1.66091796               -0.33723737                6.28676761                1.89033245
              15.11555278                5.70997474               44.51415040                0.80362993                0.66808428                0.44904749               -2.26752518                0.04636224                0.08418452               -1.09908417
               5.33827231                9.69186622               45.16094914                0.97751802                0.04804985               -0.06793968                0.08663168               -0.03116727                0.00789050                0.72841097
               6.33875281                9.41723531               44.96362281                0.45261229                0.10493843                0.16167446               -0.40339605                0.01392331               -0.03978616               -0.78058066
               7.34037108                9.14228265               44.76523993                0.00285325                0.44458876                0.40095942               -0.89422136               -0.98844113               10.76950512               -2.38434122
               8.34764459                8.84598416               44.78366381                0.00010000                0.73171480                0.41171164               -1.09435967               -1.86812223               21.71432743               -0.50009697
               9.35500538                8.54331686               44.79754542                0.00010000                0.73320526                0.35806040               -1.38812901               -1.90481192               21.82487303                0.68560553
              10.36230869                8.23612001               44.81108503                0.00010000                0.68219793                0.44006190               -1.74825249               -2.01521420               22.27025712                1.55004849
              11.36864933                7.92517331               44.82696463                0.00010000                0.64930317                0.52293027               -2.19058639               -2.27811890               22.90855485                2.53379196
              12.37529475                7.61094231               44.84719954                0.00010000                0.92916844                0.47052973               -2.82245253               -2.66162579               23.16882712                4.15975434
              13.38723270                7.29511174               44.86339324                0.09628602                1.11158635                0.16738402               -4.14888030               -1.74040147               16.77855404                8.04641888
              14.39752648                7.00361571               44.75240152                0.32777863                0.87493643                0.49094488               -1.95172596               -0.20801389                5.24592998                1.60590281
              15.40473143                6.71605660               44.53702732                0.80254834                0.72049509                0.70744873               -2.66176755                0.04302538                0.09787147               -1.44266826
               5.61144100               10.69159546               45.09615039                0.95900530                0.10908083                0.01279977               -0.12352331               -0.03155842               -0.01335934                0.65369637
               6.61253181               10.41905348               44.89122599                0.50381825                0.17274407                0.20361011               -0.60500733                0.00639665                0.01560965               -0.63378069
               7.61489588               10.14601920               44.68671646                0.00010000                0.79787675                0.37288402               -1.07981649               -1.11685470               12.45844699               -1.48073155
               8.62848934                9.84956637               44.73016893                0.00010000                1.39526511                0.05678567               -1.29803548               -1.46337679               24.78441248               -0.34265652
               9.64280118                9.54621019               44.76393272                0.00010000                1.26573771                0.20698537               -1.58230346               -1.25842886               24.64249191                0.31562528
              10.65380410                9.24056513               44.79534070                0.00010000                0.92583697                0.42731868               -1.93428269               -1.18449728               25.14770230                0.85292482
              11.66131792                8.93134582               44.83089795                0.00010000                0.60817167                0.67901535               -2.39161468               -1.41333023               26.29461106                1.49814185
              12.66596753                8.61732077               44.87786292                0.00010000                0.57894077                0.89406298               -3.06137459               -1.94095107               28.87855353                2.77350239
              13.67289674                8.29908327               44.95860335                0.13979825                0.88996357                0.82355849               -4.29524162               -1.56961119               18.33206258                5.98670189
              14.68376680                8.00931834               44.78762282                0.34316802                0.93173810                0.61211225               -2.15531745               -0.24010034                2.95368069                1.24904826
              15.69153150                7.72412372               44.55648922                0.78979011                0.77646983                0.86208355               -2.96633419                0.02488657                0.02975951               -1.35655279
               5.88272510               11.69212222               45.02956213                0.99002998                0.17319058                0.05267592               -0.33081477                0.04693909                0.34850194                0.56491617
               6.88445700               11.42130751               44.82107414                0.80167409                0.23980008                0.22540309               -0.80995013                0.07342496                0.74682874               -0.50206459
               7.88752110               11.14974033               44.62032122                0.47974800                1.68645270                0.37211311               -1.27869206               -1.44686028               14.23222560               -0.84052052
               8.91818606               10.84711987               44.68100973                0.36935803                2.56584706               -0.24464948               -1.50572005               -1.14451711               27.24791603               -0.29285581
               9.93883804               10.54745656               44.72827510                0.35954911                1.76485306                0.12463711               -1.79160930               -0.51898905               26.93466636                0.07669009
              10.95348312               10.24466638               44.77264672                0.36925673                1.23945268                0.41012545               -2.13934411               -0.46724559               27.48003737                0.38220383
              11.96362709                9.93875361               44.82194686                0.39780229                0.76275803                0.74077933               -2.58962413               -0.56122390               28.95387234                0.76486850
              12.96873828                9.62882357               44.88788040                0.48234318                0.01079079                1.15028007               -3.25466512               -1.08146026               32.03962758                1.67544470
              13.96384291                9.31158291               44.99030235                0.59556522               -0.05271232                1.24996408               -3.99420869               -1.55366377               20.89623613                3.04167794
              14.96768403                9.01585795               44.81707729                0.68973457                0.58877470                0.65396153               -2.26087755               -0.52250941                3.97631372                1.02415642
              15.97561840                8.73329827               44.57932998                0.89243522                0.79343713                0.91745527               -3.13076251                0.15272192                0.84101168               -1.08286788
               3.18737713                1.79441813               46.66310862                1.00000000               -0.48705986               -0.55351881                1.90183636               -0.11483981               -1.22055827                1.12373297
               4.18250653                1.48982014               46.51489870                1.00000000               -0.41540402               -0.34959122                1.27825190               -0.06363062               -1.67449953                0.19488101
               5.17906905                1.18452203               46.35831996                1.00000000               -0.28887322               -0.15715482                0.64873063               -0.07956786               -1.77002980               -0.20863056
               6.17672906                0.87674292               46.20876749                0.68767324               -0.35937031                0.09257510                0.01663401               -0.60531918               -1.42946572               -0.94565782
               7.17188164                0.55555904               46.05969894                0.74674794               -0.08377322                0.13729802               -0.58501554               -0.20266630               -1.08854423                0.17665708
               8.17505360                0.22631312               45.92092322                0.76419009                0.55432891                0.31830040               -1.14058685               -0.22651788               -0.37444027               -0.02028029
               9.18296822               -0.10210866               45.78961092                0.68573081                1.06805574                0.45438383               -1.60828507               -0.04873281                0.74642360               -0.45358909
              10.19641471               -0.42283880               45.67581212                0.69793460                1.21315163                0.40111043               -1.61011815               -0.04217311                1.46585161               -0.29135194
              11.20723125               -0.72879501               45.55819711                1.00000000                0.75311376                0.21214246               -0.97009965               -0.17856147                0.58121854                0.82319678
              12.21147699               -1.02930926               45.42056978                1.00000000                0.43197713                0.33080118               -1.22805384               -0.04586584               -0.52511969                0.09051600
              13.21587079               -1.32850206               45.28054879                1.00000000                0.43938043                0.44600343               -1.57357414               -0.07480158               -0.62871565               -0.60293961
               3.49082673                2.78888295               46.59845722                1.00000000               -0.40084503               -0.53642315                1.67780897               -0.00854136               -0.29295226                1.49969717
               4.48681828                2.48632422               46.45030831                1.00000000               -0.30073738               -0.32279786                1.05547993                0.03466431               -0.47198625                0.28594056
               5.48481198                2.18295048               46.29910972                1.00000000               -0.08304560               -0.12642937                0.42301129                0.00147917               -0.41891719               -0.38661535
               6.48515736                1.87766867               46.15210814                0.40184440                0.51289491                0.12145227               -0.20001708               -0.72773007                0.82479017               -1.32185722
               7.49506988                1.55693202               46.02545844                0.50832501                0.82324550                0.02452512               -0.91343597               -0.33574785                1.70608455                0.40622153
               8.50162227                1.22949612               45.89714368                0.54646747                0.59934869                0.38921427               -1.52722056               -0.33544346                1.96802342                0.01465037
               9.50705685                0.90243518               45.77603935                0.41522759                0.38569423                0.65929920               -2.01916277               -0.17967778                3.59830890               -1.04350605
              10.50933616                0.58117230               45.67973286                0.38302310                0.08120074                0.74983581               -1.83560146               -0.21503239                4.83063638               -0.53816161
              11.50868087                0.27332641               45.58411998                1.00000000                0.07678489                0.19834684               -0.67796337               -0.34226461                2.48922329                0.94277872
              12.51087186               -0.02600125               45.44676062                1.00000000                0.28173580                0.29883383               -1.00499647               -0.00143278                0.23091244                0.23179603
              13.51431558               -0.32404203               45.30697875                1.00000000                0.34437249                0.41781004               -1.35374627               -0.02179922                0.09246273               -0.66477417
               3.79232374                3.78368967               46.54216391                1.00000000               -0.31914605               -0.50044221                1.45009950               -0.01015550               -0.01827685                1.87158096
               4.78913228                3.48336418               46.38780463                1.00000000               -0.22847772               -0.26043325                0.83626975                0.01120598                0.09553253                0.31407089
               5.78775419                3.18199344               46.23607469                0.80249766               -0.04696822               -0.02876389                0.20871769               -0.06497616                0.35518413               -0.96177542
               6.78819292                2.87917196               46.08673975                0.00010000                1.27925206                0.17409078               -0.41560263               -1.11348327                3.33637306               -1.77370380
               7.81333923                2.55604955               45.99392242                0.00010000                1.73243306                0.09983367               -1.35744673               -2.22627447                4.84758620               -0.67488965
               8.82284158                2.23409740               45.87227490                0.00010000                0.71796268                0.60941307               -1.99822473               -2.13418453                3.40703863                0.27228765
               9.82769848                1.91107732               45.74791227                0.00010000               -0.08093738                1.05133774               -2.58890635               -2.03316393                5.98583752                0.81093621
              10.82122283                1.59215791               45.67546149                0.00010000               -1.00694868                1.19763378               -2.98178620               -1.78956235                9.06990551                0.63873401
              11.80755951                1.27517192               45.61302297                0.29265951               -0.62030281                0.06871315               -0.40328036               -1.08837475                4.86129148                1.47512030
              12.80881677                0.97666742               45.47579427                1.00000000                0.19784309                0.22194992               -0.79117576               -0.07274025                0.71462046                0.65973403
              13.81151637                0.67985414               45.33179329                1.00000000                0.26995963                0.35275192               -1.11620143               -0.03357429                0.33543620               -0.62893665
               4.09127460                4.77887410               46.48570425                1.00000000               -0.25359718               -0.45392196                1.21965101               -0.02639061                0.11335730                1.66519495
               5.08873863                4.48111556               46.32401174                1.00000000               -0.17849624               -0.17987747                0.61979909               -0.01154990                0.23826836                0.09299722
               6.08770467                4.18237520               46.16506478                0.34134909                0.00464824                0.08037171                0.02066198               -0.14691715                1.08202173               -1.44703405
               7.08883159                3.88115048               46.02005174                0.00010000                0.39571361                0.26699033               -0.61209290               -1.27598465                4.90786473               -2.21926386
               8.09561895                3.55892870               45.93712262                0.00010000                0.75396081                0.45474328               -1.25459840               -3.13856790                8.00423736               -0.98837523
               9.10391081                3.24168438               45.85195631                0.00010000                0.63570576                0.69023951               -1.76687544               -3.19712450                8.01063298                0.95432493
              10.10833306                2.92346193               45.76825608                0.00010000                0.27697506                0.94200501               -2.07362245               -3.22707052                8.50308294                2.85479000
              11.10945031                2.60512498               45.69439223                0.00010000               -0.29645969                0.82159159               -1.78471727               -3.28790477               10.23082365                2.30091637
              12.10240387                2.27470067               45.65042413                0.03625822               -0.23577357                0.47354940               -0.41056643               -1.49131301                6.37461239               -0.22867437
              13.10473484                1.97843775               45.51101964                0.36036357                0.24333930                0.00955181               -0.66051584               -0.02556683                0.84088524                1.62955681
              14.10727065                1.68301301               45.35883668                0.82209647                0.25358158               -0.01446538               -0.91744483                0.14795637                0.15650516                0.10920610
               4.38731301                5.77461123               46.42587650                1.00000000               -0.19128298               -0.39437122                0.98536612               -0.05074952                0.25002108                1.29655723
               5.38540018                5.47976663               46.25717357                0.67080658               -0.12660461               -0.07345613                0.40070618               -0.05822016                0.41469413               -0.38064386
               6.38478092                5.18360087               46.09189827                0.13590619                0.03597717                0.20994733               -0.16555385               -0.23441817                1.49736057               -1.84397293
               7.38611973                4.88451177               45.94448912                0.00010000                0.26265245                0.26128827               -0.76824841               -1.37213356                7.40959995               -1.17293299
               8.39003397                4.56514441               45.89684969                0.00010000                0.41230636                0.58828210               -1.17027033               -2.42913313               11.87910131                0.48332882
               9.39436586                4.24790219               45.83632859                0.00010000                0.48412533                0.58758606               -1.60630779               -2.53964796               11.18655681                1.59134167
              10.39971648                3.92991742               45.77363220                0.00010000                0.49300683                0.51594653               -1.80350816               -2.67702188               11.20176508                2.39987149
              11.40422599                3.60858975               45.71371349                0.00010000                0.23519991                0.32411947               -1.64814630               -2.75128288               10.85617019                2.31922736
              12.40442048                3.28464291               45.64572200                0.03063779               -0.21164443                0.78906154               -1.33212950               -1.58744108                9.25102763                0.09075967
              13.39999310                2.97685845               45.56049226                0.28512873                0.04522517               -0.16713997               -0.64661733               -0.42597702                3.93986226                2.62217889
              14.40532498                2.67956483               45.39871668                0.76640864                0.53318764               -0.54650176               -0.92870076                0.28528584                0.09936467                0.47069990
               4.67994881                6.77098668               46.36241764                1.00000000               -0.13642294               -0.31997417                0.75751227               -0.04326844                0.07564221                0.96690254
               5.67858458                6.47964644               46.18380546                0.50155989               -0.08388190                0.02629435                0.17052526               -0.07177356                0.43337002               -0.75995611
               6.67827117                6.18657415               46.01246362                0.05544710                0.06304004                0.36988028               -0.39434168               -0.47392890                3.63282159               -2.37272443
               7.67984538                5.88637625               45.89755348                0.00010000                0.26873427                0.13719399               -0.42653641               -1.50542820               10.73901171                1.56702413
               8.68364586                5.57069434               45.86657507                0.00010000                0.42497283                0.50871013               -1.13997001               -2.31080437               14.53845182                1.35225204
               9.68834484                5.25343610               45.82412616                0.00010000                0.52296065                0.50870914               -1.54675974               -2.43701398               13.96645364                2.05375120
              10.69410507                4.93378086               45.77888058                0.00010000                0.56771611                0.36783838               -1.78599584               -2.61107606               13.73862675                2.66276440
              11.69969916                4.61160737               45.73029804                0.00010000                0.41406336                0.28520907               -1.83540851               -2.54663730               13.21024279                2.74678109
              12.70238634                4.29048191               45.67557657                0.03824396                0.07971090                0.38873989               -1.65829228               -1.86866804               12.23693300                2.68855965
              13.70129338                3.97509495               45.61365533                0.28652189                0.25886385               -0.05421572               -0.94167241               -0.58124393                5.73525320                2.62866983
              14.70756362                3.67208297               45.43798907                0.77568918                0.62702362               -0.46577739               -1.42249844                0.09750663                0.04418366               -0.26974934
               4.96912813                7.76821175               46.29622514                1.00000000               -0.07508827               -0.23602577                0.53407291               -0.03494891                0.01971125                0.77733822
               5.96837724                7.48029252               46.10910034                0.42420616               -0.02777962                0.08932242               -0.03767099               -0.04119692                0.31167292               -0.82631454
               6.96857253                7.19099848               45.92784730                0.02059458                0.17568646                0.47038296               -0.60305360               -0.76993773                7.11661868               -2.67599725
               7.97189097                6.88725565               45.87644624                0.00010000                0.40927472                0.23597536               -0.68219500               -1.66486879               14.65264409                1.57183577
               8.97675803                6.57531861               45.84139256                0.00010000                0.53240406                0.44417718               -1.18340019               -2.17481383               16.09909875                1.62156124
               9.98253905                6.25807638               45.81460176                0.00010000                0.62828331                0.44442457               -1.59131643               -2.46393488               16.65395244                2.27353785
              10.98932369                5.93727419               45.78634423                0.00010000                0.70265742                0.34747180               -1.89767131               -2.62846721               16.54042068                2.99061585
              11.99659220                5.61429393               45.75401502                0.00010000                0.71179188                0.23611367               -2.09876515               -2.50748201               15.97940119                3.59068969
              13.00355953                5.29241771               45.71385298                0.04889863                0.50874769                0.09255008               -2.12446142               -1.77945368               14.65846371                3.80146508
              14.00676716                4.97577414               45.65861857                0.29698219                0.48697670                0.18625444               -1.37405388               -0.54423021                6.85302623                2.07542246
              15.01329907                4.67024928               45.46754631                0.78727595                0.65319096                0.08159950               -2.03352579                0.05892889                0.08603389               -1.08745092
               5.25508829                8.76626616               46.22911202                0.98625523               -0.01143826               -0.15454002                0.31438645               -0.03366693                0.01081434                0.71902692
               6.25497391                8.48143289               46.03414497                0.40692971                0.04104966                0.13664747               -0.24239970               -0.00036562                0.13067274               -0.81677840
               7.25590929                8.19598181               45.84153919                0.00513502                0.36269797                0.48299255               -0.80061677               -0.92025418                9.21199074               -2.69044930
               8.26222787                7.89109576               45.82778323                0.00010000                0.67097829                0.42329107               -1.01002504               -1.84669985               18.51736846               -0.09510220
               9.26932885                7.57957788               45.81518597                0.00010000                0.74413476                0.40858476               -1.33620541               -2.14643402               19.02810034                1.30150385
              10.27711057                7.26232460               45.80520447                0.00010000                0.79946611                0.40686934               -1.70607764               -2.38328188               19.51562256                2.15599653
              11.28531818                6.94073030               45.79607862                0.00010000                0.86477170                0.37352302               -2.07780890               -2.59247524               19.66621988                3.07609120
              12.29440600                6.61632964               45.78366125                0.00010000                0.99994387                0.25300714               -2.47991219               -2.60311623               19.11130414                4.22986761
              13.30531705                6.29233291               45.75994252                0.06286895                0.90856011               -0.00301684               -2.83840852               -1.73453385               16.56722162                5.19348767
              14.31257720                5.97882004               45.69727354                0.30717439                0.72374262                0.39866293               -1.77862764               -0.42949299                7.28113816                1.67891873
              15.31979191                5.67371496               45.49009374                0.79348143                0.72147030                0.51835478               -2.55989611                0.06043870                0.10451970               -1.53947378
               5.53812134                9.76512095               46.16187102                0.97200815                0.05329459               -0.07228981                0.09895345               -0.03228593                0.00727515                0.72087633
               6.53865429                9.48302547               45.95934395                0.44109622                0.11916202                0.18000249               -0.45358872                0.01857192               -0.03803643               -0.77326037
               7.54050458                9.20065833               45.75580747                0.00010000                0.63533068                0.43855384               -0.99692618               -1.03943373               10.92872773               -2.35473295
               8.55136090                8.89572147               45.77212859                0.00010000                1.10479636                0.37756462               -1.22106965               -1.94641157               22.04063656               -0.44533221
               9.56260051                8.58349031               45.78307751                0.00010000                1.11800511                0.28426873               -1.51602548               -1.95227904               22.14913339                0.79081849
              10.57372100                8.26621376               45.79305648                0.00010000                1.04343186                0.36410555               -1.86362634               -2.02371799               22.60053050                1.68792573
              11.58346914                7.94474465               45.80454411                0.00010000                0.96031332                0.46664391               -2.28501658               -2.25798735               23.17609091                2.64036179
              12.59292727                7.61935407               45.81833877                0.00010000                1.14546553                0.47300350               -2.89996010               -2.57579606               23.10829471                4.13333414
              13.60637845                7.29235737               45.82216824                0.08346180                1.19339855                0.21720814               -3.94054353               -1.76355249               18.05233195                7.41855355
              14.61679524                6.98374740               45.73205005                0.31742040                0.91697676                0.56587450               -2.11602705               -0.29311880                6.70452813                1.47730592
              15.62471799                6.68061638               45.50880414                0.79348155                0.79227514                0.79513722               -2.98062919                0.05032271                0.11418799               -1.76118628
               5.81863354               10.76482037               46.09491213                0.95306185                0.11744294                0.01148191               -0.12255169               -0.03253886               -0.01194704                0.64389091
               6.81980797               10.48503294               45.88490047                0.49250387                0.18955360                0.22318810               -0.66263787                0.00869555                0.02168301               -0.62674258
               7.82242461               10.20475288               45.67539263                0.00010000                1.03298462                0.40865889               -1.18944480               -1.23233349               12.61084629               -1.45308380
               8.84046766                9.89864705               45.71663590                0.00010000                1.86831842               -0.06617921               -1.41898537               -1.57109512               25.11419597               -0.30181173
               9.85979098                9.58526326               45.74755637                0.00010000                1.74571031                0.07498820               -1.70397023               -1.30470636               24.99684150                0.37980221
              10.87538187                9.26960671               45.77546687                0.00010000                1.36135712                0.30334870               -2.04559642               -1.18978951               25.50926425                0.93156015
              11.88701812                8.95006318               45.80636926                0.00010000                0.99477445                0.57890611               -2.49860984               -1.37926987               26.57520570                1.55635354
              12.89527736                8.62578971               45.84616506                0.00010000                0.93172771                0.84867120               -3.21356855               -1.85150623               28.70500807                2.74210864
              13.90565268                8.29667707               45.91118219                0.12094110                1.15892330                0.93314697               -4.89294001               -1.47869818               19.75657780                6.03730512
              14.91845582                7.99013753               45.76505254                0.33449796                1.07038611                0.67839838               -2.35554105               -0.31966412                4.64705248                1.21967995
              15.92706040                7.68961771               45.52505348                0.78145115                0.86045763                0.96188635               -3.30932205                0.02815490                0.03090494               -1.54870984
               6.09704542               11.76535059               46.02619880                0.98676769                0.18502554                0.05302205               -0.34064073                0.05505267                0.34014080                0.55591808
               7.09889568               11.48748923               45.81264238                0.79616224                0.25991874                0.24562935               -0.87840361                0.08281711                0.74554402               -0.49637876
               8.10224380               11.20883151               45.60695343                0.47671591                2.02664722                0.40786246               -1.40090154               -1.67264851               14.37359418               -0.81757585
               9.13942862               10.89439789               45.66535916                0.36934011                3.16514617               -0.42491627               -1.63615218               -1.29597552               27.57183657               -0.28614525
              10.16554672               10.58499007               45.70976139                0.35966156                2.28483351               -0.02731838               -1.92339687               -0.53028325               27.29719819                0.09621360
              11.18512529               10.27228074               45.75067844                0.36899941                1.70770109                0.26740301               -2.26052375               -0.45902250               27.87204937                0.40465522
              12.19970074                9.95632277               45.79540737                0.39682588                1.20789780                0.62595963               -2.70422203               -0.52940003               29.26631507                0.76544963
              13.20928325                9.63632749               45.85385358                0.46945625                0.63779644                1.05377835               -3.46553474               -0.86453368               32.11585082                1.58660042
              14.21245667                9.31102031               45.94547839                0.58422016                0.40890341                1.43432428               -4.78990882               -1.27020689               22.35159577                3.37104664
              15.21746132                8.99731536               45.79335315                0.68616098                0.69320291                0.71778348               -2.48458290               -0.65776087                5.53840636                1.04616620
              16.22632073                8.69985411               45.54618294                0.88829449                0.88594129                1.02363962               -3.48640129                0.17990721                0.87339219               -1.20627385
               3.32645709                1.87140799               47.68285251                1.00000000               -0.52414495               -0.59734411                2.05257784               -0.12932030               -1.21923299                1.11460079
               4.32121564                1.55747353               47.52798371                1.00000000               -0.44846126               -0.36298567                1.34029133               -0.07255533               -1.67513796                0.19348115
               5.31748787                1.24277247               47.36475269                1.00000000               -0.32089348               -0.14245288                0.63661424               -0.09282769               -1.77038574               -0.20966274
               6.31479778                0.92510484               47.20853745                0.69388086               -0.47859149                0.15380876               -0.06511650               -0.64039707               -1.38540331               -0.92929088
               7.30791604                0.59310505               47.05362972                0.75420535               -0.28971005                0.23849761               -0.62663518               -0.22729811               -0.99335931                0.14988933
               8.30900357                0.25177425               46.90917406                0.77068936                0.35464702                0.41069412               -1.19838965               -0.26607687               -0.30555215               -0.02209076
               9.31500898               -0.09145810               46.77264695                0.67789754                0.94658919                0.60379400               -1.75812782               -0.13638542                0.94386323               -0.50019980
              10.32793536               -0.42973565               46.65806970                0.64103282                1.37550932                0.60759718               -1.96160523                0.03145337                2.11228191               -0.49832979
              11.34251917               -0.74774453               46.54874352                1.00000000                0.94843559                0.17677801               -0.87477434               -0.36710720                1.28053538                0.86071845
              12.34690407               -1.05568482               46.40820901                1.00000000                0.44708866                0.33167854               -1.22468375               -0.05426222               -0.44816979                0.10238751
              13.35146094               -1.36186953               46.26441484                1.00000000                0.45568696                0.46961884               -1.67404273               -0.09863119               -0.60070795               -0.56752155
               3.63909835                2.86543455               47.61588132                1.00000000               -0.42905052               -0.57788203                1.81265127               -0.00610243               -0.29949111                1.48414442
               4.63480785                2.55384367               47.46108306                1.00000000               -0.31772095               -0.33540620                1.10047568                0.04151661               -0.48502647                0.28554887
               5.63274394                2.24134794               47.30316708                1.00000000               -0.07901670               -0.11016889                0.38625048                0.00711951               -0.43472957               -0.37870707
               6.63322751                1.92664293               47.14952566                0.42670374                0.47822085                0.17786394               -0.32115790               -0.75011821                0.77746200               -1.29716196
               7.64230835                1.59549003               47.01564165                0.53573774                0.76984322                0.10209949               -1.04148048               -0.34800471                1.60089580                0.34146011
               8.64862438                1.25588119               46.88080862                0.57146243                0.60458626                0.47228461               -1.72257419               -0.36020876                1.91410714               -0.00931487
               9.65440008                0.91457984               46.75392537                0.42449505                0.38843655                0.80324078               -2.37891338               -0.27364309                3.92841206               -1.11903780
              10.65639311                0.57634032               46.65855054                0.33495395               -0.12887007                1.09452799               -2.51076517               -0.23460527                6.28724555               -1.21981572
              11.65182268                0.25402325               46.57793745                1.00000000               -0.14845814                0.15863809               -0.56887773               -0.68604238                3.44861457                0.94097504
              12.65342395               -0.05236803               46.43700989                1.00000000                0.24183348                0.28618080               -0.92751477               -0.00708429                0.23707008                0.23215557
              13.65665935               -0.35717335               46.29338442                1.00000000                0.32353979                0.43528817               -1.39324013               -0.04365129                0.08083735               -0.60052607
               3.94951680                3.85985035               47.55719357                1.00000000               -0.33842230               -0.53528473                1.56052523               -0.01041748               -0.02517264                1.84872160
               4.94613258                3.55076540               47.39628754                1.00000000               -0.23429009               -0.26865578                0.86187949                0.01547038                0.07973664                0.31722448
               5.94483100                3.24056910               47.23788892                0.80002108               -0.02396262               -0.00905486                0.14880679               -0.06959737                0.33437226               -0.92921906
               6.94565333                2.92866212               47.08195028                0.00010000                1.34433392                0.23680711               -0.55614702               -1.19321708                3.16301740               -1.73830147
               7.97171768                2.59514704               46.97931564                0.00010000                1.85281279                0.18440478               -1.55255050               -2.35809933                4.55695512               -0.48743320
               8.98270958                2.26121994               46.85077166                0.00010000                0.86796558                0.74770123               -2.28413877               -2.39563746                3.27808174                0.57793586
               9.98907699                1.92460672               46.71978763                0.00010000                0.05451335                1.29301759               -2.98361656               -2.43012374                5.87970945                1.22347295
              10.98379985                1.59215491               46.63964875                0.00010000               -1.57851612                1.68914349               -4.15088567               -2.63858711               11.27586544                0.98220524
              11.95750667                1.25542823               46.60998820                0.26696363               -1.29204370                0.04369822               -0.20534013               -1.73776475                6.57338680                1.26597565
              12.95795898                0.95003880               46.46859418                1.00000000                0.13459376                0.17930960               -0.61385144               -0.10415761                0.63007833                0.61283769
              13.96019854                0.64683623               46.32090088                1.00000000                0.22395677                0.35429202               -1.09827725               -0.05102543                0.28873751               -0.57171042
               4.25705990                4.85472885               47.49830381                1.00000000               -0.26613882               -0.47865875                1.30622721               -0.03126347                0.11021937                1.63773731
               5.25439851                4.54847055               47.33023007                0.99976640               -0.18023133               -0.17945799                0.62142880               -0.01315023                0.23296544                0.09662812
               6.25345527                4.24116685               47.16489184                0.33254129                0.01933590                0.10167615               -0.04875612               -0.14448768                1.05937666               -1.39241502
               7.25478523                3.93137907               47.01316587                0.00010000                0.45666346                0.33637745               -0.78621888               -1.35198207                4.87425755               -2.15221717
               8.26258854                3.59917812               46.92343973                0.00010000                0.82333627                0.58501558               -1.48516144               -3.32314143                8.00487209               -0.53083025
               9.27125195                3.27083522               46.83289410                0.00010000                0.61370495                0.91059077               -2.05223068               -3.53733551                8.15245560                1.56231122
              10.27486264                2.94044020               46.74576522                0.00010000                0.07739537                1.27997248               -2.44343020               -3.70104582                9.09870239                3.63793908
              11.27279986                2.61012319               46.67564745                0.00010000               -0.78395751                1.13865189               -1.98564879               -4.49711891               11.65700395                3.47928235
              12.25918349                2.25489721               46.64715912                0.02286470               -0.64335329                0.87890187               -0.29677666               -2.02751543                7.39918150               -0.93375693
              13.25993279                1.95121816               46.50541485                0.31531080                0.14302448                0.06241055               -0.45093612                0.06918255                0.85258674                1.45789828
              14.26204398                1.64991249               46.35020416                0.78734524                0.21111841               -0.15663783               -0.83207856                0.33207707                0.13024362                0.01229384
               4.56140813                5.85027717               47.43602612                1.00000000               -0.19765520               -0.40932574                1.05186119               -0.05419545                0.24637662                1.27339351
               5.55943158                5.54717624               47.26109152                0.64938657               -0.11877006               -0.06404254                0.37717784               -0.06607861                0.41753186               -0.38104632
               6.55903273                5.24260262               47.08980212                0.12707950                0.05854146                0.24289949               -0.25995353               -0.23189876                1.49142138               -1.80036920
               7.56060241                4.93538967               46.93605375                0.00010000                0.33829857                0.30080297               -0.93044472               -1.36755544                7.49795499               -0.80245316
               8.56579870                4.60684735               46.88415102                0.00010000                0.50491957                0.72084465               -1.37984942               -2.49034275               12.05268978                0.90731506
               9.57070080                4.27943176               46.81910773                0.00010000                0.49847000                0.78960409               -1.85256366               -2.65081615               11.47683495                2.11146892
              10.57576810                3.95020617               46.75459039                0.00010000                0.43498281                0.76675999               -2.03248096               -2.89530824               11.80731414                2.96773457
              11.57940046                3.61492795               46.69679927                0.00010000                0.00466427                0.50728872               -1.78195529               -3.17662385               11.76708346                2.59615178
              12.57586139                3.27300627               46.63293219                0.02173793               -0.75365570                1.45511734               -1.28603211               -1.84486737               10.36705595               -0.50233872
              13.56432734                2.95128701               46.55481996                0.25686276               -0.32049849                0.07305052               -0.49572006               -0.46409989                4.52993947                2.36591972
              14.56945142                2.64370347               46.38963697                0.74447363                0.51240754               -0.78181655               -0.94718021                0.44440917                0.13930954               -0.07877303
               4.86217785                6.84654234               47.37022110                1.00000000               -0.14263593               -0.32896000                0.80638828               -0.04190176                0.06273526                0.95322140
               5.86075149                6.54718970               47.18537865                0.48544565               -0.07869904                0.03895320                0.14434396               -0.07209061                0.42889843               -0.75457375
               6.86060387                6.24602484               47.00797811                0.04675611                0.12189460                0.41150255               -0.50272191               -0.49562027                3.93515673               -2.35037668
               7.86318938                5.93739513               46.89285881                0.00010000                0.40678617                0.19619185               -0.52305581               -1.41935700               10.98310910                1.88023936
               8.86873959                5.61359502               46.85428099                0.00010000                0.58437151                0.60257716               -1.32974952               -2.23877515               14.58560076                1.70850356
               9.87487681                5.28662730               46.80775058                0.00010000                0.63603473                0.63270132               -1.74429531               -2.43209134               14.29490798                2.46995333
              10.88146029                4.95577540               46.76032096                0.00010000                0.57952365                0.50901025               -1.94935151               -2.68561379               14.28911787                3.02068838
              11.88646729                4.62026896               46.71174467                0.00010000                0.22333940                0.50807807               -1.91117413               -2.75661031               14.00740007                2.85309744
              12.88592708                4.28399956               46.65951461                0.03143437               -0.32568488                0.81323219               -1.60438820               -2.11009665               13.37388973                2.48600407
              13.87995359                3.95267917               46.60436160                0.26835815                0.00860811                0.20546804               -0.94176629               -0.60865824                6.42836687                2.31472708
              14.88609924                3.63427616               46.42288841                0.76039847                0.61456490               -0.52407569               -1.65825665                0.11812838                0.08038318               -1.01417508
               5.15927537                7.84369797               47.30173820                1.00000000               -0.07680993               -0.24267148                0.57147127               -0.03551451                0.01579992                0.76801242
               6.15850727                7.54795531               47.10855471                0.41014199               -0.01802344                0.10255536               -0.07321704               -0.03803704                0.31031826               -0.81034767
               7.15891490                7.25083267               46.92129886                0.01245676                0.30689104                0.51030062               -0.71047111               -0.76152778                7.35887055               -2.64019240
               8.16464509                6.93931350               46.86864539                0.00010000                0.64380649                0.31763071               -0.88391547               -1.57682875               14.97960112                1.56690095
               9.17179103                6.61889890               46.82876270                0.00010000                0.76167528                0.48995510               -1.35524274               -2.08966353               16.31201593                1.88084291
              10.17987859                6.29208579               46.79793343                0.00010000                0.83115665                0.49009004               -1.75645213               -2.40023485               17.00235034                2.58861777
              11.18841416                5.96038637               46.76686201                0.00010000                0.80827469                0.42168835               -2.01453809               -2.59431781               17.04883399                3.24074069
              12.19604409                5.62508951               46.73304833                0.00010000                0.64175425                0.39574039               -2.11681212               -2.50410432               16.67636807                3.62262101
              13.20124925                5.28927091               46.69336664                0.04276871                0.29167415                0.36452658               -2.01360989               -1.87549462               15.77831362                3.48294762
              14.20187757                4.95539637               46.64452893                0.28451078                0.36853774                0.34835844               -1.45009865               -0.58295317                7.59965704                1.77940591
              15.20862000                4.63322196               46.44580474                0.77566692                0.67424301                0.18256342               -2.33214578                0.07773470                0.11517846               -1.66464831
               5.45295289                8.84168891               47.23237637                0.97944306               -0.00968407               -0.16071702                0.34044769               -0.03498052                0.01401555                0.71320190
               6.45285605                8.54924081               47.03150848                0.39401281                0.05311105                0.15296499               -0.28663443                0.00451536                0.13408939               -0.80265318
               7.45401512                8.25623085               46.83300725                0.00010000                0.53652637                0.52509382               -0.91084374               -0.91234843                9.39653980               -2.65270780
               8.46358658                7.94374774               46.81690613                0.00010000                1.00794627                0.44556688               -1.17226778               -1.81472698               18.87256231               -0.04980066
               9.47417404                7.62339412               46.80105682                0.00010000                1.08990288                0.39319648               -1.50252186               -2.10247578               19.37323173                1.48217025
              10.48538464                7.29642910               46.78748229                0.00010000                1.11980847                0.37651675               -1.85026446               -2.31054256               19.90783047                2.39590557
              11.49657021                6.96420916               46.77486987                0.00010000                1.10580131                0.36517595               -2.16869331               -2.48853127               20.12084869                3.26286950
              12.50750066                6.62818377               46.75902285                0.00010000                1.07700540                0.30078357               -2.44755141               -2.45633211               19.65023855                4.17306843
              13.51811032                6.29129009               46.73288348                0.05614727                0.84214056                0.14861182               -2.60023417               -1.76093073               17.74000159                4.58313544
              14.52434348                5.95964634               46.67887801                0.29794147                0.69462199                0.49932254               -1.89159982               -0.51295454                8.18098248                1.45292303
              15.53200276                5.63792743               46.46295248                0.78394557                0.76592821                0.63255880               -2.85392012                0.07245905                0.11718989               -1.93299213
               5.74347196                9.84048363               47.16292821                0.96687425                0.05836794               -0.07717035                0.11420562               -0.03327829                0.00641802                0.71362309
               6.74405563                9.55101461               46.95455104                0.42863077                0.13445210                0.19896961               -0.50635873                0.02399145               -0.03217313               -0.76094344
               7.74616100                9.26133455               46.74530140                0.00010000                0.85658229                0.47903544               -1.11008833               -1.07137518               11.11054916               -2.31528351
               8.76118728                8.94822484               46.75924241                0.00010000                1.54495796                0.32759112               -1.36663855               -1.97743875               22.41748907               -0.35641849
               9.77706016                8.62676283               46.76722491                0.00010000                1.58327098                0.18641174               -1.66808513               -1.94378567               22.55030424                0.93400868
              10.79285270                8.29961612               46.77381250                0.00010000                1.49143544                0.25726333               -1.99522528               -1.96405411               23.03373631                1.86593027
              11.80688886                7.96768989               46.78126430                0.00010000                1.34919100                0.37002344               -2.36627090               -2.14786544               23.57289049                2.77802226
              12.81983652                7.63110518               46.78920033                0.00010000                1.38395992                0.42321782               -2.87917366               -2.38463227               23.34762186                4.07679017
              13.83456806                7.29224315               46.78458237                0.07421597                1.25723090                0.26145662               -3.53120725               -1.73459262               19.36204083                6.51054568
              14.84498114                6.96538282               46.71008098                0.31000907                0.94694681                0.63812426               -2.25942473               -0.39384613                7.98077409                1.33409113
              15.85350700                6.64587314               46.47741474                0.78511071                0.85258618                0.89216448               -3.26394450                0.05627917                0.11919868               -2.03796465
               6.03122538               10.84014550               47.09369936                0.94641501                0.12595869                0.00918075               -0.11839824               -0.03409039               -0.01018936                0.63444593
               7.03248497               10.55322020               46.87797323                0.47991590                0.20759964                0.24407558               -0.72450057                0.01118343                0.03234442               -0.61637975
               8.03537738               10.26581156               46.66292756                0.00010000                1.30622782                0.44663310               -1.30942966               -1.34027150               12.79046704               -1.42144794
               9.05860953                9.95029957               46.70178922                0.00010000                2.42648367               -0.21371923               -1.56253396               -1.65308256               25.50118734               -0.24340121
              10.08390705                9.62712235               46.72985332                0.00010000                2.32834819               -0.08960143               -1.85120796               -1.31613174               25.43291534                0.46752322
              11.10517649                9.30157437               46.75442878                0.00010000                1.91083976                0.13601096               -2.17155929               -1.15436468               25.97830307                1.03758591
              12.12212384                8.97160963               46.78092576                0.00010000                1.50391387                0.41482544               -2.57816511               -1.30184212               26.97532249                1.64024827
              13.13525477                8.63664813               46.81359155                0.00010000                1.35084888                0.70366849               -3.23078069               -1.69713298               28.55391514                2.68551752
              14.14914082                8.29651922               46.86074455                0.10674208                1.37908987                0.90841509               -4.82383027               -1.37160597               21.26567874                5.57818657
              15.16283656                7.97240883               46.74051200                0.32934829                1.15034477                0.73986086               -2.53165214               -0.39910137                6.45744857                1.17419452
              16.17214772                7.65577072               46.49030278                0.77407694                0.93111527                1.05203682               -3.59415684                0.03217358                0.01426519               -1.71728856
               6.31664075               11.84066725               47.02274932                0.98326702                0.19724995                0.05217463               -0.34806057                0.06442338                0.33177776                0.54715511
               7.31861325               11.55589612               46.80350607                0.78971239                0.28177283                0.26759156               -0.95159523                0.09282570                0.74616183               -0.48844966
               8.32227620               11.27026721               46.59230319                0.47368684                2.41007938                0.44556497               -1.53373237               -1.90740018               14.54041145               -0.79475925
               9.36681483               10.94395046               46.64828668                0.36929157                3.85932584               -0.63491078               -1.79144940               -1.44428972               27.95247948               -0.27078604
              10.39946272               10.62497080               46.68980716                0.35973787                2.92316473               -0.21515561               -2.08214234               -0.52513874               27.74225166                0.12792978
              11.42527813               10.30233634               46.72743624                0.36878346                2.31577706                0.07619733               -2.39729069               -0.43905590               28.37939879                0.44133745
              12.44577826                9.97598640               46.76786242                0.39581590                1.78530710                0.43767704               -2.79365859               -0.49244786               29.70653451                0.77815464
              13.46098427                9.64517855               46.81856970                0.45811331                1.27984926                0.85304202               -3.50177174               -0.70579739               32.11929562                1.45989980
              14.47137525                9.31041145               46.89450417                0.57565302                0.83816700                1.38922260               -5.01761099               -1.02648295               23.90447070                3.28771439
              15.47774761                8.98018004               46.76738563                0.68454830                0.80257162                0.77712142               -2.69306560               -0.68377422                7.35272011                1.04776640
              16.48742668                8.66691387               46.50960195                0.88484290                0.96790686                1.11431495               -3.78233004                0.20127933                0.88758802               -1.32393975
               3.47273007                1.95065253               48.70416017                1.00000000               -0.56264701               -0.64277555                2.21160614               -0.14581185               -1.20144213                1.09419207
               4.46710360                1.62749106               48.54170452                1.00000000               -0.48112382               -0.37596878                1.40361742               -0.08478748               -1.64929422                0.18842212
               5.46310759                1.30349999               48.37105224                1.00000000               -0.34798178               -0.12598905                0.62097570               -0.10879761               -1.72990153               -0.21245657
               6.46014396                0.97618070               48.20746516                0.69652500               -0.58648698                0.21319030               -0.15409647               -0.63954284               -1.23246888               -0.91472924
               7.45137785                0.63453298               48.04716624                0.75625902               -0.51093161                0.35423220               -0.67650904               -0.23622775               -0.73125950                0.10989758
               8.44992533                0.28260218               47.89695543                0.77376169                0.07859944                0.51100426               -1.25343065               -0.29058703               -0.09989876               -0.02084176
               9.45294984               -0.07466949               47.75444836                0.67401088                0.63192271                0.75832308               -1.87500695               -0.32512869                1.17985041               -0.48086100
              10.46256378               -0.43376706               47.63658001                0.58555469                1.48764047                0.89640026               -2.32190169                0.08556964                3.01610139               -0.67644935
              11.48270265               -0.76996850               47.54070162                1.00000000                1.21392487                0.08697352               -0.70046389               -0.90569458                2.19393826                0.83544668
              12.48684228               -1.08486326               47.39607611                1.00000000                0.43711712                0.31199596               -1.16052627               -0.05875688               -0.40099277                0.14341041
              13.49144499               -1.39779166               47.24706793                1.00000000                0.46027109                0.52530720               -1.86922918               -0.11901192               -0.56959327               -0.52937513
               3.79443342                2.94422478               48.63471024                1.00000000               -0.46014285               -0.62054582                1.95575430               -0.00422663               -0.30046905                1.45455333
               4.78983199                2.62373137               48.47231783                1.00000000               -0.33793127               -0.34646980                1.14657689                0.04716953               -0.48642239                0.28119116
               5.78767479                2.30224010               48.30683473                1.00000000               -0.07999785               -0.09078494                0.34516194                0.01262664               -0.43436809               -0.37354077
               6.78823203                1.97831260               48.14568498                0.44720186                0.40650175                0.22925103               -0.45065255               -0.71411036                0.79136501               -1.27069343
               7.79580483                1.63807531               48.00462883                0.55936652                0.66943303                0.19849083               -1.15664259               -0.31606340                1.56846314                0.27283814
               8.80162070                1.28771222               47.86269220                0.59518444                0.60391726                0.54842269               -1.88557278               -0.35778346                1.83318543                0.00001975
               9.80788317                0.93291374               47.72846108                0.44146042                0.47241450                0.91882092               -2.68198674               -0.45247730                4.00658459               -1.02223617
              10.81106899                0.57519694               47.62951756                0.30025276               -0.43446863                1.42360838               -3.28185507               -0.40183617                8.03529094               -1.84293802
              11.79919380                0.23090123               47.57274242                0.85463079               -0.54513477                0.06191364               -0.57130295               -1.47805373                4.95589957                1.00592829
              12.80016629               -0.08174330               47.42821032                1.00000000                0.19947338                0.26912366               -0.83616833                0.01117838                0.27715602                0.29118894
              13.80318327               -0.39253859               47.27911394                1.00000000                0.30169799                0.46959253               -1.50103571               -0.01789156                0.05763753               -0.54200952
               4.11363234                3.93824161               48.57337442                1.00000000               -0.36006806               -0.57142368                1.67897274               -0.00834295               -0.02800842                1.81119355
               5.11003166                3.62056166               48.40504222                1.00000000               -0.24267245               -0.27436115                0.88818522                0.02102938                0.06579375                0.31148692
               6.10877889                3.30168429               48.23905082                0.80244888               -0.00025583                0.01868004                0.08117347               -0.07571670                0.31498700               -0.88926735
               7.11002655                2.98076572               48.07561681                0.00010000                1.34390313                0.28450355               -0.72023376               -1.18223323                3.01840130               -1.70210981
               8.13565696                2.63850280               47.96287141                0.00010000                1.89523395                0.27007066               -1.71875335               -2.35058774                4.23438803               -0.27870254
               9.14793122                2.29357064               47.82659212                0.00010000                1.03793109                0.84411542               -2.52126011               -2.58910706                3.03133355                0.98690262
              10.15641558                1.94370693               47.68823994                0.00010000                0.43041714                1.42521057               -3.29973227               -2.95974724                5.23659185                1.90967835
              11.15653957                1.59470510               47.59244378                0.00010000               -2.31668811                2.11815855               -4.85028437               -4.11548280               13.43313807                2.00117123
              12.11008182                1.23126977               47.60891617                0.23967523               -2.30169496                0.10901604               -0.11552086               -2.63797995                9.07826481                1.09046195
              13.11050567                0.92051921               47.46351724                1.00000000                0.12979577                0.15566186               -0.42912750               -0.05471691                0.60320857                0.59336708
              14.11267773                0.61160019               47.30982774                1.00000000                0.21720629                0.35306925               -1.13030088               -0.03622024                0.18868383               -0.51437158
               4.42962647                4.93279630               48.51182879                1.00000000               -0.28165630               -0.50398995                1.39934608               -0.03134538                0.10326226                1.60165125
               5.42680990                4.61824415               48.33644032                0.96168383               -0.18350295               -0.17822685                0.62756734               -0.01197241                0.23942596                0.08566725
               6.42595641                4.30261370               48.16408965                0.32236665                0.04794786                0.14114683               -0.11332724               -0.16866278                1.03293896               -1.34881383
               7.42776886                3.98400267               48.00432736                0.00010000                0.50158746                0.40020267               -0.98113738               -1.37167951                4.85077618               -2.06895193
               8.43598816                3.64347672               47.90741940                0.00010000                0.84327837                0.69733258               -1.71104416               -3.35156537                8.01617812               -0.01314585
               9.44463443                3.30459453               47.81091169                0.00010000                0.57828031                1.08522288               -2.34066722               -3.82634075                8.24831262                2.31264117
              10.44755376                2.96141795               47.71938748                0.00010000               -0.17189694                1.55047211               -2.82174867               -4.26393871                9.75875072                4.69991403
              11.44119649                2.61756011               47.65467925                0.00010000               -1.34668324                1.48552292               -2.30097031               -6.18250507               13.44064205                5.30516792
              12.42062010                2.23308155               47.64448860                0.01044570               -1.12274782                1.54854397               -0.38733395               -2.62655469                8.87149687               -1.60148640
              13.41874153                1.92136993               47.50200092                0.27238425               -0.01615949                0.23554452               -0.22104361                0.24113432                1.06275899                1.21945925
              14.42029691                1.61452280               47.34219511                0.75402888                0.15553755               -0.31475344               -0.77632902                0.60525772                0.14083578               -0.18477006
               4.74210974                5.92816182               48.44691373                1.00000000               -0.21349281               -0.42286394                1.12609815               -0.05337171                0.22891382                1.24149260
               5.73997482                5.61699713               48.26471713                0.62836353               -0.12313139               -0.05761902                0.35550160               -0.05294744                0.42467023               -0.38147386
               6.73964712                5.30450723               48.08669920                0.11774557                0.08775603                0.27280888               -0.37022444               -0.23448056                1.50654507               -1.77680078
               7.74172994                4.98876977               47.92588023                0.00010000                0.41933352                0.36933662               -1.11287041               -1.33109756                7.61827171               -0.37207577
               8.74803379                4.65244945               47.86925270                0.00010000                0.58666208                0.83880019               -1.60197091               -2.45083669               12.25157742                1.41058070
               9.75346318                4.31527509               47.79927732                0.00010000                0.50687204                0.97074699               -2.11826425               -2.70822430               11.81379777                2.76923842
              10.75817123                3.97471637               47.73298258                0.00010000                0.38813440                1.02525313               -2.31363750               -3.12599762               12.54615198                3.76434449
              11.76122587                3.62441556               47.67807439                0.00010000               -0.22151643                0.74300689               -2.02576529               -3.65093470               12.93345212                3.07952465
              12.75374090                3.26224065               47.62000135                0.01396749               -1.36693768                2.33429888               -1.41905762               -2.12791770               11.85703339               -0.95429086
              13.73388711                2.92523010               47.55057786                0.23261985               -0.76318680                0.51552953               -0.38891373               -0.45950722                5.38250855                2.05425011
              14.73847716                2.60530512               47.37977308                0.72478225                0.45900504               -0.94455499               -1.08441048                0.59853933                0.21540097               -0.84282905
               5.05088841                6.92433902               48.37854540                1.00000000               -0.14828701               -0.33725438                0.86132344               -0.03965796                0.05394213                0.93290781
               6.04940554                6.61709177               48.18669234                0.46951169               -0.06971303                0.04793054                0.11642265               -0.06105060                0.42595853               -0.73948694
               7.04949415                6.30806988               48.00240918                0.03800717                0.18995710                0.43291291               -0.61005155               -0.48451038                4.27204409               -2.31232980
               8.05320468                5.99138940               47.88709237                0.00010000                0.54859738                0.28882848               -0.64119495               -1.27639693               11.24763959                2.20948595
               9.06046610                5.66025272               47.83998008                0.00010000                0.74991702                0.68550954               -1.53986200               -2.08517076               14.64769926                2.12465219
              10.06820302                5.32400947               47.78924025                0.00010000                0.77136211                0.74209624               -1.97012454               -2.36530651               14.70629623                2.98440674
              11.07589334                4.98192301               47.73989355                0.00010000                0.62252464                0.64118621               -2.15901219               -2.72874912               14.98525822                3.51545088
              12.08065352                4.63242025               47.69207456                0.00010000                0.06769321                0.75263000               -2.06671762               -2.98832123               15.03949169                3.12869300
              13.07724720                4.27976753               47.64348881                0.02601596               -0.70833002                1.32335718               -1.66224839               -2.34177075               14.77016593                2.43932464
              14.06648692                3.93168052               47.59482001                0.25355785               -0.25647751                0.58078714               -0.99202996               -0.58503757                7.27663909                1.96121389
              15.07211765                3.59563170               47.40482394                0.74642148                0.56307389               -0.42064366               -1.97552129                0.12380940                0.13063032               -1.78077508
               5.35581110                7.92141673               48.30765457                1.00000000               -0.07881475               -0.24994181                0.61321986               -0.03530061                0.01182643                0.75767110
               6.35502295                7.61795574               48.10763600                0.39651466               -0.00759116                0.11458647               -0.11145012               -0.03159843                0.31090809               -0.78953900
               7.35565927                7.31316549               47.91363787                0.00426760                0.44981017                0.54276145               -0.82476597               -0.72305596                7.59165906               -2.58387929
               8.36401915                6.99454634               47.85876793                0.00010000                0.90255140                0.40566552               -1.09479763               -1.42904863               15.33567869                1.55365297
               9.37371030                6.66615964               47.81428771                0.00010000                1.02338024                0.52531769               -1.55190437               -1.93390460               16.60535361                2.17864572
              10.38448676                6.33011702               47.77947272                0.00010000                1.07375846                0.51770823               -1.94986551               -2.26842254               17.44735640                2.96416482
              11.39518547                5.98754009               47.74605347                0.00010000                0.95640846                0.48311877               -2.16628356               -2.51738034               17.71411115                3.57357149
              12.40361493                5.63946816               47.71167877                0.00010000                0.62298685                0.56093809               -2.18694115               -2.50443277               17.60149238                3.77077648
              13.40764521                5.28870779               47.67358078                0.03870161                0.13536348                0.65061782               -1.98844211               -1.98037976               17.06422885                3.32576111
              14.40632220                4.93684584               47.62961660                0.27494959                0.27029007                0.53229647               -1.52994257               -0.60873045                8.39530096                1.49603111
              15.41305101                4.59689225               47.42090339                0.76480936                0.67288129                0.39067155               -2.62739259                0.09809598                0.14077404               -2.11740014
               5.65710438                8.91934019               48.23592097                0.97241084               -0.00795682               -0.16731544                0.37006125               -0.03602145                0.01741122                0.70763736
               6.65702481                8.61938350               48.02841229                0.38144861                0.06690226                0.16930540               -0.33404613                0.00998021                0.14008306               -0.78281585
               7.65844243                8.31892511               47.82332231                0.00010000                0.73023692                0.56334313               -1.02772077               -0.87579342                9.59315870               -2.59714638
               8.67162955                7.99950271               47.80433787                0.00010000                1.38874499                0.45818349               -1.34976247               -1.71990050               19.26380717                0.03946126
               9.68621733                7.67075908               47.78513553                0.00010000                1.49122844                0.36071695               -1.69475430               -1.99064351               19.78764883                1.69129970
              10.70145412                7.33436364               47.76819918                0.00010000                1.49886311                0.32344344               -2.02013310               -2.16520535               20.40319931                2.67294859
              11.71619459                6.99158539               47.75270475                0.00010000                1.39715208                0.33545575               -2.27534267               -2.31854886               20.73712356                3.49205746
              12.72939716                6.64363901               47.73471022                0.00010000                1.20336693                0.34265065               -2.42973481               -2.29293968               20.43559420                4.17826273
              13.74026193                6.29277989               47.70793784                0.05229120                0.83653444                0.29997123               -2.42635470               -1.81095675               18.98498770                4.18316106
              14.74612785                5.94232645               47.65944154                0.29156432                0.68624195                0.59746956               -1.97495594               -0.60393011                9.01191010                1.24617830
              15.75398677                5.60344513               47.43301534                0.77485942                0.78589152                0.78072695               -3.08706005                0.08103885                0.11949704               -2.19412637
               5.95500405                9.91807042               48.16415514                0.96136188                0.06335849               -0.08260045                0.13294679               -0.03397653                0.00582241                0.70718096
               6.95563763                9.62134184               47.94921678                0.41603888                0.15100703                0.21834058               -0.56214297                0.02818826               -0.02283939               -0.74351171
               7.95802419                9.32443235               47.73360570                0.00010000                1.10747695                0.51985137               -1.23186568               -1.08281515               11.31336905               -2.26337469
               8.97778717                9.00371001               47.74479582                0.00010000                2.05061591                0.26160206               -1.53434454               -1.95611327               22.83659271               -0.24301477
               9.99903651                8.67337398               47.74971580                0.00010000                2.12845829                0.06361982               -1.84850788               -1.87658577               23.01775894                1.10316530
              11.02035634                8.33658589               47.75315197                0.00010000                2.02513072                0.11855223               -2.14951687               -1.83517026               23.56435069                2.06949010
              12.03953912                7.99424921               47.75721869                0.00010000                1.81026493                0.23423188               -2.44343543               -1.95487536               24.12090291                2.93970330
              13.05656164                7.64632118               47.76075529                0.00010000                1.65997535                0.32458414               -2.78370937               -2.12011451               23.89451817                4.02663938
              14.07273863                7.29470722               47.75154409                0.06880993                1.35083589                0.27695566               -3.08798099               -1.68710310               20.66037177                5.70312377
              15.08357835                6.94879523               47.68686155                0.30579183                0.98479061                0.69951571               -2.35075002               -0.51408595                9.02846271                1.19772055
              16.09243444                6.61250679               47.44352525                0.77729644                0.88560865                0.98197983               -3.45168864                0.06002364                0.11088735               -2.21390448
               6.24988200               10.91768818               48.09254417                0.93958450                0.13446481                0.00616717               -0.11077083               -0.03561561               -0.00780150                0.62544636
               7.25122665               10.62375031               47.87041046                0.46618353                0.22679788                0.26563556               -0.78974663                0.01306823                0.04701737               -0.60324381
               8.25441796               10.32932213               47.64920404                0.00010000                1.61695015                0.48763562               -1.43824156               -1.43841636               12.99375382               -1.38406801
               9.28356565               10.00473475               47.68538522                0.00010000                3.06958873               -0.38613828               -1.73118829               -1.70517928               25.93366975               -0.17214085
              10.31580973                9.67203147               47.71053221                0.00010000                3.01549180               -0.28665002               -2.02863682               -1.28971916               25.93562451                0.57078302
              11.34387549                9.33673468               47.73203568                0.00010000                2.57760301               -0.07466684               -2.31873013               -1.07298850               26.54343745                1.15999247
              12.36736179                8.99627003               47.75480596                0.00010000                2.13306882                0.18816673               -2.63870934               -1.17225683               27.50862913                1.74060483
              13.38653687                8.65013069               47.78154945                0.00010000                1.83420063                0.46240074               -3.11226753               -1.47426298               28.67021304                2.63504580
              14.40404581                8.29831900               47.81470558                0.09801917                1.57548491                0.72740669               -4.16280182               -1.24111968               22.69526791                4.94489635
              15.41804656                7.95631677               47.71441949                0.32798277                1.18591654                0.78640952               -2.64676609               -0.46973454                8.01016204                1.11814435
              16.42776414                7.62308472               47.45317034                0.76765310                0.97175736                1.11350863               -3.75758659                0.03706562               -0.01720319               -1.82225343
               6.54216747               11.91819376               48.01923759                0.97909091                0.20975660                0.05055849               -0.35243954                0.07462649                0.32273568                0.53852212
               7.54426504               11.62665456               47.79361048                0.78254683                0.30519703                0.29042473               -1.02870122                0.10340391                0.74976861               -0.47977331
               8.54827141               11.33418506               47.57627879                0.47066608                2.83546028                0.48629266               -1.67566330               -2.14802008               14.72911727               -0.76893333
               9.60097425               10.99598724               47.62953017                0.36924038                4.64853901               -0.87475104               -1.97214204               -1.58634469               28.37665366               -0.24693808
              10.64124220               10.66764098               47.66811854                0.35981515                3.68418837               -0.43904917               -2.26976673               -0.50148859               28.25387373                0.17036053
              11.67465801               10.33509255               47.70273263                0.36852394                3.07278893               -0.16421315               -2.55257476               -0.40316954               28.98256434                0.49016278
              12.70269797                9.99801254               47.73953419                0.39481610                2.51846954                0.17425163               -2.86093294               -0.44255011               30.28518623                0.80594891
              13.72502740                9.65556919               47.78381814                0.44857627                1.95160922                0.54384978               -3.37150999               -0.58880588               32.27867302                1.36012048
              14.74173016                9.30925535               47.84512617                0.57039032                1.21952676                1.09363508               -4.51293105               -0.78385314               25.38874640                2.94047699
              15.74941794                8.96452343               47.73949184                0.68513963                0.89548419                0.82066571               -2.84830749               -0.58678212                9.00881292                1.02382035
              16.75963984                8.63477696               47.47053634                0.88204349                1.02219028                1.16922353               -3.95637868                0.21292375                0.87707543               -1.40579552
               3.62733955                2.03219169               49.72708463                1.00000000               -0.60018590               -0.68803210                2.37181063               -0.16420698               -1.16570196                1.06205808
               4.62133769                1.70001536               49.55605606                1.00000000               -0.51051741               -0.38855701                1.46425169               -0.09994388               -1.59406143                0.18080058
               5.61712920                1.36695837               49.37717220                1.00000000               -0.36516466               -0.10798160                0.59853467               -0.12621657               -1.64498148               -0.21509350
               6.61403440                1.03037061               49.20545553                0.69578376               -0.66643119                0.27068019               -0.25630021               -0.60639578               -0.97104753               -0.90059446
               7.60380058                0.68037782               49.04009954                0.75120307               -0.71554587                0.48637965               -0.76330461               -0.23735390               -0.28854091                0.05951869
               8.59972348                0.31988388               48.88410545                0.76737113               -0.24095856                0.63610161               -1.35630323               -0.30069323                0.30542184               -0.03119731
               9.59898141               -0.04910076               48.73514681                0.66223176                0.11403205                0.94442987               -2.02208149               -0.57868066                1.57621644               -0.41559066
              10.60200412               -0.42913973               48.61163167                0.53609642                1.39602132                1.27575289               -2.66728407               -0.21947485                4.34837963               -0.65210662
              11.62690183               -0.79511719               48.53473424                0.74116646                1.52568923                0.10444624               -0.96364676               -1.86265818                2.88710355                0.95301923
              12.63251791               -1.11708504               48.38499849                1.00000000                0.55917980                0.30996554               -1.28766694               -0.06382949               -0.38729306                0.13290280
              13.63808543               -1.43654906               48.22703025                1.00000000                0.55675231                0.57757114               -2.11714689               -0.15445998               -0.67015806               -0.43358143
               3.95787381                3.02531137               49.65499641                1.00000000               -0.49188929               -0.66180098                2.10059248               -0.00408383               -0.29387234                1.41128174
               4.95295491                2.69612979               49.48401460                1.00000000               -0.35921962               -0.35713589                1.19096352                0.05007708               -0.47294744                0.27269004
               5.95068941                2.36587855               49.31007032                1.00000000               -0.08471008               -0.07147703                0.29923448                0.01872830               -0.41187607               -0.36928950
               6.95126071                2.03307741               49.14051261                0.46329274                0.29904932                0.28034710               -0.58850749               -0.62352852                0.88599452               -1.24565032
               7.95667040                1.68524162               48.99250879                0.57412482                0.50975633                0.32023034               -1.27464572               -0.26014789                1.66503034                0.19767598
               8.96145584                1.32624490               48.84309716                0.60718575                0.55180036                0.64273090               -2.04127936               -0.33269165                1.80722604                0.02334000
               9.96770641                0.96034354               48.70028563                0.44675454                0.56808756                1.04873252               -2.95607247               -0.68256683                3.87029690               -0.77860320
              10.97281759                0.58361780               48.59291343                0.26955197               -0.77292528                1.80781865               -3.99470323               -1.23170033                9.74040013               -1.72623509
              11.95224790                0.20592727               48.56651139                0.56390285               -1.01110226                0.03042418               -1.19321910               -2.82532534                7.23401286                1.57165024
              12.95259554               -0.11398538               48.42028652                1.00000000                0.18784762                0.26002908               -0.80190407               -0.00534772                0.52315930                0.34743570
              13.95600486               -0.43077335               48.26336371                1.00000000                0.34093102                0.50083475               -1.64745887               -0.01550813                0.02980380               -0.45274787
               4.28562102                4.01895567               49.59077303                1.00000000               -0.38489736               -0.60443994                1.80060060               -0.00688857               -0.02868230                1.75613060
               5.28177205                3.69287264               49.41405125                1.00000000               -0.25324361               -0.28103997                0.91344241                0.02722041                0.05576226                0.30294679
               6.28055615                3.36552882               49.23951239                0.81021190                0.02143542                0.03318235                0.01230956               -0.06787498                0.29619604               -0.83789668
               7.28220076                3.03597755               49.06754561                0.00010000                1.24369887                0.33296023               -0.89376489               -1.07680508                2.92730186               -1.65194388
               8.30543013                2.68678243               48.94494058                0.00010000                1.78834836                0.36461526               -1.85042494               -2.17908411                3.96177938               -0.07893783
               9.31796773                2.33273850               48.80034646                0.00010000                1.12635216                0.90789713               -2.71191313               -2.60571274                2.73442737                1.44655928
              10.32795717                1.97187389               48.65379299                0.00010000                0.69093293                1.46761496               -3.58689505               -3.35790864                4.50171405                2.84265141
              11.33178639                1.60701664               48.54264306                0.00010000               -2.99793355                2.34890715               -5.02956261               -6.13443053               15.25115305                3.95150958
              12.26799850                1.20549129               48.60767779                0.20905315               -3.13374078                0.29275140               -0.13445634               -4.09286188               12.06183679                1.33765376
              13.26911157                0.88811555               48.46001163                1.00000000                0.16763518                0.12660515               -0.30515356               -0.05688677                0.81550058                0.59398921
              14.27135121                0.57346763               48.29829486                1.00000000                0.22396361                0.35225555               -1.15667867               -0.04141815                0.10700188               -0.42918251
               4.60990209                5.01322257               49.52629073                1.00000000               -0.29759182               -0.52826277                1.49522943               -0.03342856                0.10748398                1.55329441
               5.60692617                4.69050899               49.34278142                0.93145764               -0.18375365               -0.17889479                0.63617021               -0.01564542                0.25858216                0.06839579
               6.60622701                4.36654220               49.16262530                0.31125104                0.07724207                0.16091252               -0.19127861               -0.16640016                0.99617035               -1.31085229
               7.60847101                4.03973661               48.99354312                0.00010000                0.50503774                0.46027986               -1.16613755               -1.28973469                4.82903037               -1.94214217
               8.61632777                3.69253392               48.88921884                0.00010000                0.78895570                0.78579299               -1.91644785               -3.16653712                8.04937233                0.51936181
               9.62425012                3.34440284               48.78608076                0.00010000                0.49711646                1.18747349               -2.60738915               -3.87794691                8.31501966                3.14220052
              10.62627010                2.98969584               48.68933025                0.00010000               -0.38692708                1.65565508               -3.16615885               -4.69349989               10.37771925                6.03938213
              11.61651158                2.63059594               48.62962804                0.00010000               -1.84891686                1.60532463               -2.72612927               -7.93246006               15.49403330                7.54249744
              12.58929176                2.21178230               48.63941244                0.00010000               -1.65150578                2.47144742               -1.02071961               -3.47745695               11.03627817               -1.76408914
              13.58348146                1.88854672               48.50099398                0.23592623               -0.24097212                0.57186897               -0.00323804                0.37918429                1.60717376                0.86374808
              14.58447232                1.57627176               48.33467758                0.72573191                0.09908514               -0.46247863               -0.69662922                0.97339383                0.16276164               -0.52712658
               4.93037961                6.00839041               49.45854808                1.00000000               -0.22400905               -0.43814580                1.20095867               -0.05652948                0.21344804                1.20379408
               5.92813952                5.68929475               49.26820155                0.60381719               -0.11895378               -0.05139500                0.34128451               -0.05813109                0.42985217               -0.38964790
               6.92800053                5.36874708               49.08239763                0.10741901                0.11374122                0.31486831               -0.48146067               -0.23469470                1.53581382               -1.76877812
               7.93041434                5.04518314               48.91379634                0.00010000                0.47163143                0.44802663               -1.30250542               -1.20742577                7.77536054                0.13144655
               8.93743316                4.70249829               48.85211160                0.00010000                0.64162671                0.92595635               -1.82101470               -2.27386251               12.48595884                1.95254030
               9.94324687                4.35648797               48.77674245                0.00010000                0.52304593                1.08585995               -2.38145447               -2.63360756               12.17824308                3.52836709
              10.94789408                4.00498699               48.70831764                0.00010000                0.39019259                1.16588433               -2.61811281               -3.26518937               13.35925584                4.76395827
              11.95105073                3.63912313               48.65628396                0.00010000               -0.36977494                0.93212490               -2.37831752               -4.14582388               14.24640289                3.89936568
              12.94049858                3.25492024               48.60455103                0.00701055               -1.94224675                3.37121642               -1.75982765               -2.51385100               13.75705283               -0.98289292
              13.91220579                2.89955293               48.54704169                0.21247365               -1.25647867                1.21589943               -0.41175179               -0.50161995                6.60614329                1.68346625
              14.91536901                2.56421806               48.36794876                0.70675316                0.31632150               -0.93707068               -1.30489539                0.67809689                0.30291701               -1.77803148
               5.24696283                7.00445965               49.38744757                1.00000000               -0.15559422               -0.34572933                0.92033953               -0.03938456                0.04524766                0.90812198
               6.24540688                6.68948109               49.18770710                0.45218273               -0.06590519                0.05749140                0.08642025               -0.05087411                0.42870911               -0.72228202
               7.24564472                6.37283956               48.99577708                0.02874864                0.25821984                0.47474381               -0.72598502               -0.45841667                4.64576419               -2.26139967
               8.25057128                6.04869714               48.88003491                0.00010000                0.69504849                0.39789555               -0.78213887               -1.07460131               11.54129503                2.56025926
               9.25954569                5.71105305               48.82348375                0.00010000                0.92589934                0.74090325               -1.76465338               -1.84084731               14.73423481                2.57235548
              10.26908927                5.36612004               48.76834809                0.00010000                0.93927274                0.79610939               -2.21228045               -2.21132188               15.18910625                3.56422835
              11.27833115                5.01301352               48.71714072                0.00010000                0.72862948                0.70298047               -2.40399823               -2.71426769               15.78880349                4.13837707
              12.28366186                4.64923844               48.67041032                0.00010000                0.01268995                0.93731193               -2.29346368               -3.21554996               16.25320723                3.61699152
              13.27858495                4.27920662               48.62626964                0.02180584               -0.97553074                1.82084334               -1.82937440               -2.61381540               16.43060965                2.64636847
              14.26415124                3.91286471               48.58452100                0.24147909               -0.49404817                1.05712688               -1.10581818               -0.57105442                8.31032499                1.62632248
              15.26870398                3.55753035               48.38337798                0.73300073                0.45527399               -0.07677528               -2.30744480                0.14120826                0.21643329               -2.41038524
               5.55954904                8.00147583               49.31400260                1.00000000               -0.08069112               -0.25592830                0.65567191               -0.03534192                0.00906022                0.74514895
               6.55874212                7.69044458               49.10632571                0.38247003                0.00335553                0.12613096               -0.15048216               -0.01921937                0.31483407               -0.76305837
               7.55961615                7.37824195               48.90480354                0.00010000                0.59833515                0.57402646               -0.94500826               -0.64977709                7.81962760               -2.51503355
               8.57070883                7.05314106               48.84674943                0.00010000                1.17885861                0.49059681               -1.31276989               -1.22236877               15.71955891                1.52724052
               9.58319332                6.71731635               48.79772461                0.00010000                1.31755677                0.53694849               -1.77058379               -1.71054379               16.97262739                2.49408606
              10.59705996                6.37241016               48.75893612                0.00010000                1.36485047                0.50443875               -2.16918742               -2.07398049               17.97960546                3.37412200
              11.61049033                6.01904660               48.72353633                0.00010000                1.17433319                0.49357849               -2.35387980               -2.40351497               18.51161911                3.97662288
              12.62054663                5.65786937               48.68930951                0.00010000                0.70528345                0.67170350               -2.31482107               -2.51959460               18.71153234                4.04720503
              13.62459600                5.29133710               48.65359780                0.03638033                0.09571766                0.88916883               -2.04990173               -2.13400477               18.51711088                3.34704593
              14.62246098                4.92069546               48.61393008                0.26767082                0.21329509                0.72301227               -1.60494051               -0.66508073                9.26120934                1.28139061
              15.62886190                4.56268256               48.39325689                0.75412964                0.64009191                0.69463496               -2.85598843                0.12576510                0.17089226               -2.33851788
               5.86831849                8.99934109               49.23977759                0.96541196               -0.00621164               -0.17358863                0.40223528               -0.03793332                0.02072136                0.70178763
               6.86825637                8.69200371               49.02482755                0.36820600                0.08171062                0.18508105               -0.38363654                0.01925799                0.15115196               -0.75700138
               7.86995270                8.38432009               48.81245284                0.00010000                0.93965659                0.59716875               -1.15175241               -0.81307204                9.80172422               -2.52758393
               8.88704950                8.05850908               48.78991088                0.00010000                1.80565066                0.45880703               -1.54332790               -1.57139324               19.68170746                0.15554549
               9.90606571                7.72179202               48.76716173                0.00010000                1.94149527                0.30565514               -1.91251549               -1.82172012               20.26196748                1.90858664
              10.92587941                7.37620881               48.74707963                0.00010000                1.93679599                0.23796297               -2.21843724               -1.96650298               20.99336505                2.96349993
              11.94480163                7.02288509               48.72936302                0.00010000                1.75500261                0.26680734               -2.40938303               -2.11615164               21.49900562                3.75362762
              12.96097946                6.66267251               48.71042816                0.00010000                1.41385619                0.34646855               -2.45036085               -2.15201185               21.42046098                4.27787833
              13.97307876                6.29699000               48.68435638                0.05101386                0.92623574                0.41003850               -2.32689400               -1.91371524               20.29988991                4.01821400
              14.97950418                5.92732496               48.63937889                0.28758952                0.70831703                0.68319080               -2.01337297               -0.72293511                9.80034623                1.09561293
              15.98724510                5.57142305               48.40121128                0.76587886                0.77409222                0.93787438               -3.20997947                0.08658136                0.11820216               -2.26443451
               6.17346512                9.99800405               49.16558715                0.95551153                0.06831604               -0.08845546                0.15535644               -0.03487171                0.00525600                0.70198179
               7.17414828                9.69414620               48.94330818                0.40306522                0.16921091                0.23789577               -0.62105744                0.03451724               -0.00811361               -0.72137910
               8.17684934                9.39018533               48.72066409                0.00010000                1.38303779                0.55685114               -1.36027028               -1.07520080               11.53345040               -2.20109521
               9.20180903                9.06231720               48.72855552                0.00010000                2.61049228                0.18066579               -1.72471398               -1.89253130               23.28433221               -0.11828678
              10.22905918                8.72342946               48.73025476                0.00010000                2.74138969               -0.08283715               -2.05867199               -1.76222070               23.53927336                1.27941048
              11.25663683                8.37716942               48.73082216                0.00010000                2.63222104               -0.05076272               -2.33141732               -1.65773148               24.18453369                2.27676837
              12.28170360                8.02438275               48.73239559                0.00010000                2.33823268                0.06105652               -2.53057907               -1.71948245               24.82954164                3.11445829
              13.30340148                7.66479874               48.73352615                0.00010000                1.99828192                0.18068450               -2.66547754               -1.85324650               24.71400060                4.03511252
              14.32166924                7.29953787               48.72282275                0.06726472                1.50838748                0.24225344               -2.68367832               -1.66710427               21.92181673                5.24540429
              15.33356923                6.93435928               48.66306598                0.30449455                1.03640521                0.74082326               -2.36907385               -0.65134797                9.85977719                1.09130483
              16.34239735                6.58144004               48.40838097                0.76979742                0.88281141                1.04457605               -3.50312375                0.06091942                0.09511675               -2.25023928
               6.47533677               10.99757198               49.09148394                0.93252578                0.14286768                0.00233988               -0.09945301               -0.03680690               -0.00506160                0.61717645
               7.47676545               10.69676163               48.86217830                0.45118924                0.24704590                0.28772100               -0.85796615                0.01521380                0.06772002               -0.58714765
               8.48027769               10.39545711               48.63416273                0.00010000                1.95946518                0.52768596               -1.57423415               -1.52748572               13.21631819               -1.34172415
               9.51595475               10.06212240               48.66716546                0.00010000                3.78456967               -0.57976971               -1.92451381               -1.73113605               26.39603231               -0.09461117
              10.55596908                9.72013528               48.68928058                0.00010000                3.79083694               -0.51120544               -2.23712157               -1.23251408               26.48927253                0.67780319
              11.59177149                9.37519356               48.70805417                0.00010000                3.34067904               -0.32118560               -2.49100517               -0.95760588               27.19341831                1.28340842
              12.62278266                9.02410622               48.72815157                0.00010000                2.84939585               -0.08669155               -2.69333357               -1.01072467               28.19847530                1.84500429
              13.64875940                8.66628620               48.75134620                0.00010000                2.36967372                0.15224165               -2.89559010               -1.23534408               29.20561904                2.62152479
              14.67017614                8.30183507               48.77748851                0.09495750                1.79078216                0.44209714               -3.23310313               -1.11687712               23.96644091                4.50459989
              15.68457505                7.94214142               48.68757667                0.33025422                1.20629114                0.80762361               -2.67200260               -0.52880165                9.09070114                1.06022622
              16.69430196                7.59231457               48.41515105                0.76201701                0.97269101                1.13129632               -3.76343833                0.04140713               -0.05298429               -1.83678928
               6.77434968               11.99805085               49.01570053                0.97470564                0.22177370                0.04788744               -0.35267690                0.08626777                0.31356254                0.52983491
               7.77656742               11.69990062               48.78293205                0.77410762                0.32945861                0.31389902               -1.10777968                0.11460691                0.75677274               -0.46915091
               8.78093885               11.40073905               48.55878993                0.46772930                3.29703672                0.52819308               -1.82681396               -2.39282414               14.93591743               -0.74316157
               9.84250815               11.05072180               48.60884384                0.36912050                5.51994420               -1.14005946               -2.17517624               -1.72134464               28.83242057               -0.21468200
              10.89133774               10.71320535               48.64441183                0.35988031                4.55028055               -0.69299296               -2.48400257               -0.46193915               28.81790305                0.21994076
              11.93351376               10.37074570               48.67638475                0.36830360                3.95293682               -0.44478552               -2.72552874               -0.35359398               29.66769269                0.54629599
              12.97039647               10.02264892               48.71064376                0.39383946                3.37259956               -0.14573075               -2.91037338               -0.38372525               31.01833733                0.84766374
              14.00096575                9.66784357               48.75113950                0.44104917                2.65400000                0.15573782               -3.11661552               -0.49282002               32.81518689                1.31382548
              15.02347647                9.30837982               48.80424555                0.56861720                1.57739732                0.65447473               -3.52234235               -0.53655735               26.67924581                2.65700545
              16.03251370                8.95051175               48.71041948                0.68791494                0.97013616                0.83703292               -2.91160570               -0.42182710               10.15629239                0.97683464
              17.04287920                8.60406597               48.43047438                0.87978874                1.03654959                1.17514020               -3.97005846                0.21314571                0.84274928               -1.42849989
               3.79147317                2.11607015               50.75159639                1.00000000               -0.63383717               -0.73081278                2.52442989               -0.18337461               -1.11332217                1.02035905
               4.78513480                1.77518999               50.57098956                1.00000000               -0.53323394               -0.40000056                1.51742037               -0.11697968               -1.51172110                0.17140478
               5.78080850                1.43340189               50.38302294                1.00000000               -0.36695680               -0.08877721                0.56474752               -0.14368971               -1.52091041               -0.21627007
               6.77779567                1.08805465               50.20233916                0.69203194               -0.69256922                0.32548621               -0.37883091               -0.55307375               -0.62246807               -0.88463928
               7.76695711                0.73090485               50.03190015                0.73935247               -0.84045862                0.62829381               -0.92556847               -0.24661572                0.31660276                0.01334548
               8.76098649                0.36399480               49.86982937                0.74794450               -0.50045837                0.79432136               -1.58395767               -0.30800161                0.95661383               -0.05601345
               9.75694794               -0.01325894               49.71400673                0.62988977               -0.55212758                1.19544473               -2.34184354               -0.81588660                2.35701118               -0.35284577
              10.74994394               -0.40937273               49.58323433                0.45493511                0.50649780                1.90335687               -3.18809758               -1.08944517                6.38997160               -0.28535013
              11.76707790               -0.81446242               49.52142869                0.39952652                1.84282334                0.38531112               -2.23452748               -2.22812060                2.96045250                2.05277702
              12.78680041               -1.15278128               49.37032277                1.00000000                1.34502006                0.29735466               -1.54789824               -0.53571372                0.24767378                0.26134136
              13.79397830               -1.47913020               49.20472499                1.00000000                0.71778913                0.62720439               -2.31883593               -0.27022370               -0.43102255               -0.34314960
               4.13051959                3.10876202               50.67672209                1.00000000               -0.52204507               -0.70001224                2.23935827               -0.00574968               -0.27893844                1.35683734
               5.12529914                2.77118998               50.49613710                1.00000000               -0.37901582               -0.36681038                1.22984450                0.05124176               -0.44361487                0.26227350
               6.12293927                2.43251412               50.31281942                1.00000000               -0.08928446               -0.05152573                0.24733024                0.02597426               -0.36670908               -0.36274706
               7.12351345                2.09130951               50.13391483                0.47364244                0.17908041                0.33208363               -0.73607108               -0.49887951                1.06401208               -1.22109608
               8.12652088                1.73718779               49.97913592                0.57795485                0.32374657                0.46545703               -1.43026757               -0.21184554                1.93593221                0.12472205
               9.12998838                1.37193801               49.82186661                0.59979715                0.44759819                0.77617127               -2.25745999               -0.28557105                1.94886323                0.03074177
              10.13547284                0.99869550               49.66933963                0.42187091                0.48314250                1.23871431               -3.29618464               -0.75359324                3.78119026               -0.51473351
              11.13965123                0.60966084               49.54962349                0.18599788               -0.94859358                2.31967063               -4.74935759               -2.57854616               11.34912763               -0.92076018
              12.11650097                0.18939070               49.54887804                0.25470186               -1.29370324               -0.02078936               -4.05003673               -4.62982441               11.05838719                4.77674642
              13.11377716               -0.14980773               49.41217224                1.00000000                0.05620063                0.22364089               -0.84379849               -0.64253249                1.46689819                0.44240880
              14.11762498               -0.47285815               49.24616477                1.00000000                0.38478196                0.54164306               -1.76119972               -0.09139144                0.03449471               -0.34643848
               4.46650225                4.10206990               50.60938643                1.00000000               -0.40947107               -0.63374417                1.91907452               -0.00785264               -0.02294770                1.68657959
               5.46240754                3.76785378               50.42331107                1.00000000               -0.26468982               -0.28641113                0.93553950                0.03246575                0.05651556                0.29098365
               6.46120846                3.43237137               50.23929701                0.81889126                0.03684297                0.04986482               -0.05670998               -0.04893119                0.28440969               -0.78271333
               7.46314440                3.09469632               50.05774151                0.00010000                1.04416206                0.37997904               -1.06124753               -0.89574512                2.91674631               -1.58789596
               8.48209170                2.74021400               49.92586292                0.00010000                1.53114813                0.47525710               -1.97037190               -1.86305025                3.86155780                0.08516331
               9.49376736                2.37951823               49.77235386                0.00010000                1.10307775                0.95522688               -2.91160736               -2.39318062                2.55580772                1.87914079
              10.50415325                2.01151534               49.61650204                0.00010000                0.69552329                1.44927176               -3.93004344               -3.32047600                4.04703101                3.83780334
              11.50767783                1.63702069               49.49185252                0.00010000               -3.51016328                2.25541602               -5.36912891               -8.25249069               17.79601489                6.33986078
              12.43394999                1.18512180               49.60622704                0.17565989               -3.57396103                0.57679132               -0.59025658               -6.59251951               15.37954738                3.51408101
              13.43619861                0.85169154               49.45741417                1.00000000                0.21506644                0.07112847               -0.27149431               -0.57882135                1.13584052                0.53880759
              14.43825131                0.53170266               49.28669417                1.00000000                0.20527067                0.35922587               -1.12744672               -0.07088973                0.03699075               -0.31507322
               4.79879477                5.09608714               50.54173338                1.00000000               -0.31477953               -0.54945193                1.59229227               -0.03406187                0.11212280                1.49078361
               5.79564698                4.76546176               50.34916373                0.90399009               -0.18383333               -0.17876496                0.63824377               -0.01304797                0.27840540                0.04911372
               6.79511811                4.43351141               50.16026408                0.29927825                0.10544718                0.18042577               -0.28379429               -0.14962635                0.96009631               -1.25315857
               7.79775592                4.09890909               49.98100461                0.00010000                0.46599299                0.51052986               -1.33667253               -1.12198464                4.84600834               -1.79365063
               8.80443797                3.74669294               49.86909044                0.00010000                0.65337477                0.85106801               -2.10083493               -2.75756876                8.14995598                1.00393302
               9.81082342                3.39104255               49.75876391                0.00010000                0.35614473                1.20284388               -2.84195807               -3.59786819                8.44274291                3.95136551
              10.81156086                3.02768094               49.65606430                0.00010000               -0.49142289                1.53348605               -3.46097267               -4.73059045               11.04198758                7.42712771
              11.80099496                2.65476916               49.60015667                0.00010000               -2.07905677                1.22999586               -3.15119129               -9.22558575               17.28590521                9.96683423
              12.76997973                2.20092652               49.62407421                0.00010000               -2.26875461                3.53018965               -2.20070658               -4.94900414               13.99037108               -0.75998347
              13.75561987                1.85161484               49.50193616                0.20051019               -0.68973941                1.18404331                0.15009637               -0.00932547                2.78698771                0.26869744
              14.75618494                1.53432637               49.32826252                0.69392004                0.05650701               -0.53292891               -0.56408550                1.49465524                0.17245116               -1.08358016
               5.12707176                6.09108086               50.47093290                1.00000000               -0.23494586               -0.45200949                1.27683316               -0.05626222                0.19652211                1.15893352
               6.12472230                5.76427848               50.27154282                0.57716200               -0.11515822               -0.04698975                0.32594330               -0.05488693                0.43107534               -0.39704706
               7.12476860                5.43597989               50.07706998                0.09594321                0.14004403                0.34622833               -0.58488645               -0.22040214                1.55782382               -1.73670538
               8.12752319                5.10490692               49.89983012                0.00010000                0.50191305                0.53662046               -1.48564194               -1.00882721                7.96414086                0.67527799
               9.13480686                4.75723536               49.83283241                0.00010000                0.66494050                0.96969402               -2.02990406               -1.94660848               12.77887411                2.47203510
              10.14082200                4.40357510               49.75164823                0.00010000                0.55039858                1.10289078               -2.62480147               -2.37727663               12.59698850                4.28451720
              11.14581483                4.04218506               49.68062032                0.00010000                0.45492680                1.08954620               -2.90408941               -3.19540889               14.19680773                5.83274531
              12.14992053                3.66162060               49.63050803                0.00010000               -0.38453019                0.84826825               -2.76301021               -4.54328477               15.60170091                4.97978144
              13.13812423                3.25572559               49.58480480                0.00010000               -2.36541380                4.13608057               -2.12486061               -3.22396034               15.96823447               -0.28778066
              14.10261225                2.87537241               49.54234283                0.19260521               -1.77014312                2.28518725               -0.71016724               -0.73581490                8.24123878                1.33300460
              15.10272137                2.52104409               49.35367517                0.68788966                0.01091104               -0.61052547               -1.64549522                0.69453864                0.51790655               -2.80662950
               5.45127429                7.08704695               50.39695219                1.00000000               -0.16240770               -0.35455908                0.98093277               -0.03878253                0.03444134                0.88044818
               6.44965021                6.76452197               50.18842074                0.43270487               -0.05963307                0.06478168                0.05627365               -0.04072920                0.42821051               -0.70223198
               7.45008163                6.44043598               49.98788948                0.01873242                0.33368488                0.51045823               -0.85129827               -0.40104808                5.05464236               -2.20541309
               8.45632391                6.10964150               49.87144959                0.00010000                0.83779908                0.51541280               -0.96136150               -0.81915467               11.88447094                2.91780040
               9.46683761                5.76608682               49.80468701                0.00010000                1.10021327                0.75640131               -1.99537108               -1.51859156               14.86545275                2.99995343
              10.47832818                5.41310037               49.74499464                0.00010000                1.13847864                0.76464067               -2.45827795               -1.95849007               15.74194281                4.13486042
              11.48960718                5.04947186               49.69181358                0.00010000                0.91302807                0.63325950               -2.66154959               -2.60681050               16.67436142                4.80258721
              12.49658874                4.67173453               49.64620528                0.00010000                0.10707664                0.93869094               -2.54951746               -3.39800775               17.58913785                4.25658327
              13.49174872                4.28364813               49.60690132                0.01772904               -1.05018328                2.09181886               -2.08153132               -2.95866580               18.28698676                3.09052315
              14.47558507                3.89731858               49.57270364                0.22970370               -0.65081836                1.61216780               -1.31893978               -0.61286205                9.49946416                1.41738859
              15.47873235                3.52211586               49.35867504                0.71906469                0.31472766                0.56222543               -2.64185564                0.23442042                0.39566391               -2.77759659
               5.77134607                8.08398968               50.32076801                0.99237840               -0.08273847               -0.26277790                0.70083059               -0.03432701                0.01281267                0.73210246
               6.77051869                7.76557412               50.10462635                0.36766045                0.01410160                0.13695172               -0.19051704               -0.00391167                0.32344305               -0.73344316
               7.77162810                7.44618905               49.89473771                0.00010000                0.74852843                0.60384496               -1.07444998               -0.55234946                8.04552951               -2.43900728
               8.78548926                7.11521517               49.83251253                0.00010000                1.46740286                0.55830162               -1.53610843               -0.97973880               16.12982958                1.47997150
               9.80097616                6.77236338               49.77887603                0.00010000                1.63889453                0.51569274               -2.00844328               -1.44484692               17.40938986                2.79135280
              10.81826715                6.41886792               49.73608897                0.00010000                1.70341502                0.43236132               -2.41034355               -1.83605847               18.58986539                3.76523932
              11.83504446                6.05485025               49.69897587                0.00010000                1.47584801                0.41634099               -2.57269807               -2.26272512               19.41175170                4.39273298
              12.84778411                5.68039442               49.66538235                0.00010000                0.91611975                0.66227069               -2.49450450               -2.55320050               19.94699254                4.39796097
              13.85336686                5.29756197               49.63258275                0.03488404                0.20515925                1.01355411               -2.18603727               -2.36091920               20.10002846                3.50845582
              14.85188729                4.90761576               49.59751779                0.26104193                0.22241859                0.88921161               -1.68672019               -0.77892803               10.19306344                1.18152917
              15.85781523                4.53228860               49.36378362                0.74287674                0.59279370                1.04582532               -2.99363751                0.16496778                0.22273229               -2.28210725
               6.08741888                9.08179139               50.24396568                0.95837410               -0.00462735               -0.17929879                0.43877942               -0.03698703                0.02615965                0.69918350
               7.08737261                8.76726100               50.02073955                0.35511830                0.09873506                0.19947011               -0.43634641                0.03006114                0.16634882               -0.72838060
               8.08939358                8.45251288               49.80028726                0.00010000                1.15910997                0.62557475               -1.28321575               -0.73178599               10.02051394               -2.45071138
               9.11055481                8.12080753               49.77347132                0.00010000                2.24471730                0.44372635               -1.75272791               -1.38591567               20.12003755                0.27701888
              10.13428793                7.77640067               49.74688522                0.00010000                2.42826640                0.22399801               -2.15474129               -1.62403824               20.78561554                2.10456222
              11.15912014                7.42174759               49.72383043                0.00010000                2.42691236                0.11393986               -2.44812434               -1.74814809               21.66477145                3.23019740
              12.18282618                7.05779868               49.70451709                0.00010000                2.18464397                0.14497849               -2.58182885               -1.91930718               22.37857038                4.01535724
              13.20281302                6.68497994               49.68570301                0.00010000                1.72414082                0.28554800               -2.52558040               -2.06245422               22.54718347                4.45904043
              14.21730899                6.30391922               49.66139996                0.05158274                1.12334343                0.44606041               -2.30261790               -2.08044258               21.66922329                4.06997370
              15.22527988                5.91510282               49.61917408                0.28498789                0.76885229                0.74038935               -2.01165629               -0.87792304               10.56462185                1.01867772
              16.23268604                5.54303236               49.36881575                0.75661750                0.74061547                1.06368184               -3.21114134                0.08753310                0.12437010               -2.14343672
               6.39966711               10.08040371               50.16726226                0.94986294                0.07313139               -0.09365305                0.18073760               -0.03536021                0.00431714                0.69860552
               7.40039842                9.76956352               49.93679563                0.38931019                0.18893736                0.25612437               -0.68168476                0.04132467                0.01260386               -0.69547714
               8.40344585                9.45870055               49.70640030                0.00010000                1.67423657                0.59244673               -1.49553731               -1.05551183               11.76670960               -2.13168359
               9.43388315                9.12408970               49.71030154                0.00010000                3.20547410                0.08733398               -1.93667369               -1.80217820               23.74864670                0.00144359
              10.46755533                8.77684334               49.70854236                0.00010000                3.40115105               -0.24851016               -2.29915420               -1.62622227               24.10229491                1.43905748
              11.50190617                8.42114671               49.70652363                0.00010000                3.29353178               -0.24536641               -2.54710092               -1.46703935               24.88391331                2.46089489
              12.53342597                8.05774982               49.70660711                0.00010000                2.92541590               -0.14383661               -2.64870918               -1.49141185               25.68910764                3.28641906
              13.56041449                7.68610538               49.70744574                0.00010000                2.41045806               -0.00160546               -2.57954808               -1.63836801               25.75995548                4.13479323
              14.58163513                7.30648318               49.69787052                0.06882991                1.74005969                0.15344914               -2.34896641               -1.69233364               23.13340280                5.21147955
              15.59521568                6.92242355               49.63948007                0.30537595                1.10358325                0.75324874               -2.31650618               -0.80013870               10.50414555                1.02332232
              16.60370680                6.55356223               49.37346278                0.76222333                0.84911128                1.06115809               -3.41630398                0.05735174                0.08197782               -2.15178583
               6.70839205               11.07991833               50.09055511                0.92475903                0.15102060               -0.00232114               -0.08446956               -0.03805471               -0.00181054                0.60979140
               7.70990226               10.77238349               49.85325114                0.43533577                0.26825558                0.31002610               -0.92818101                0.01780814                0.09478228               -0.56802574
               8.71375716               10.46436181               49.61771936                0.00010000                2.32330959                0.56834440               -1.71838342               -1.60985803               13.45387288               -1.29773437
               9.75636845               10.12255421               49.64689495                0.00010000                4.54746527               -0.78764333               -2.14040235               -1.74068686               26.87504130               -0.01883804
              10.80470647                9.77143047               49.66578978                0.00010000                4.62522082               -0.75330176               -2.47675338               -1.16049645               27.08071187                0.77487534
              11.84887287                9.41684027               49.68221558                0.00010000                4.16664007               -0.58946967               -2.69397334               -0.83173761               27.92121410                1.39163173
              12.88803927                9.05492195               49.70093929                0.00010000                3.62197180               -0.38841908               -2.76472138               -0.85042190               29.06326542                1.94393359
              13.92131230                8.68494783               49.72363765                0.00010000                2.95524407               -0.19231418               -2.66128782               -1.03094477               30.19418383                2.67422640
              14.94714415                8.30698820               49.75004352                0.09680329                2.04428749                0.11991021               -2.30154579               -1.01900384               25.08101574                4.43089996
              15.96219805                7.93016779               49.66097944                0.33561756                1.22057775                0.79754788               -2.60379381               -0.58166989                9.66847304                1.00490845
              16.97155571                7.56425552               49.37790157                0.75672500                0.93576547                1.09990305               -3.61780295                0.04268494               -0.08098438               -1.76199171
               7.01397569               12.08035728               50.01218405                0.97005293                0.23354071                0.04389564               -0.34867292                0.09903927                0.30488717                0.52215069
               8.01631110               11.77576404               49.77145488                0.76548692                0.35511398                0.33805524               -1.18881216                0.12639134                0.76729890               -0.45647887
               9.02107797               11.47006744               49.53974251                0.46489920                3.78448319                0.57056238               -1.98302228               -2.63928000               15.15832661               -0.72022156
              10.09200076               11.10833683               49.58602665                0.36899583                6.44906917               -1.42173779               -2.39716094               -1.85127565               29.31174728               -0.17551429
              11.15005935               10.76177731               49.61843849                0.35997847                5.48895881               -0.96531600               -2.72239967               -0.41368753               29.42593242                0.27167487
              12.20177994               10.40935732               49.64822205                0.36805597                4.91253071               -0.74829449               -2.91816999               -0.29908642               30.43195517                0.60383275
              13.24830997               10.04998144               49.68132673                0.39279357                4.29747056               -0.49405086               -2.95946510               -0.32784171               31.92999749                0.90024635
              14.28772935                9.68225910               49.72148583                0.43549862                3.38625656               -0.26887337               -2.81600820               -0.41329880               33.83257563                1.33346553
              15.31603510                9.30888138               49.77467932                0.57001995                1.92928063                0.18931816               -2.41072645               -0.30513521               27.75520875                2.61750417
              16.32631496                8.93837451               49.68125973                0.69251803                1.01749650                0.82067168               -2.86374978               -0.25436371               10.67534079                0.91436478
              17.33638503                8.57556029               49.39113517                0.87789286                1.00700674                1.13047690               -3.82036981                0.20151051                0.79302821               -1.38575245
               3.96628676                2.20234746               51.77757323                1.00000000               -0.66100438               -0.76893857                2.66081487               -0.20208081               -1.04916015                0.97256418
               4.95967672                1.85314838               51.58640447                1.00000000               -0.54626838               -0.40946312                1.55867632               -0.13451597               -1.41077941                0.16134272
               5.95536140                1.50304000               51.38846715                1.00000000               -0.34844482               -0.06904643                0.51659939               -0.15948594               -1.37393360               -0.21448348
               6.95270782                1.14952646               51.19787891                0.68617984               -0.63594862                0.37266665               -0.52467265               -0.49167688               -0.24244461               -0.86512940
               7.94264242                0.78617319               51.02158817                0.72331639               -0.79793230                0.76000994               -1.19598803               -0.26238233                0.98037142               -0.01096866
               8.93674918                0.41468912               50.85242629                0.71837617               -0.49628779                0.96461179               -2.00321123               -0.30181237                1.71552482               -0.08762925
               9.93271667                0.03317652               50.68830994                0.57674710               -0.71837907                1.43770378               -2.97871697               -0.83004306                3.36383023               -0.30525906
              10.92238160               -0.36762506               50.54786972                0.33587660               -1.68471119                2.42094628               -4.31244906               -2.31882956                8.97005710                0.12539695
              11.89902244               -0.80896036               50.49004369                0.12922770                1.58967408                2.56241984               -3.72076701               -0.21215879                6.16713179                2.50126334
              12.95417508               -1.19555715               50.35404052                1.00000000                3.08190446                0.33285505               -1.62244085               -2.81939179                1.73910543                0.30632008
              13.96066053               -1.52629160               50.18065353                1.00000000                0.64854554                0.66203012               -2.41802948               -0.26852797               -0.18786276               -0.24947590
               4.31346503                3.19465807               51.69978357                1.00000000               -0.54797411               -0.73357413                2.36406009               -0.00913081               -0.25666454                1.29560751
               5.30798529                2.84905375               51.50861149                1.00000000               -0.39437680               -0.37413454                1.25954690                0.05032609               -0.40073179                0.25031775
               6.30557749                2.50234953               51.31501692                1.00000000               -0.08804170               -0.03050493                0.18817090                0.03259447               -0.30457249               -0.35452340
               7.30622446                2.15325313               51.12579118                0.47926175                0.09298871                0.38016965               -0.89189876               -0.36571398                1.29464457               -1.19313258
               8.30743727                1.79377329               50.96390344                0.57297828                0.20024672                0.61789907               -1.66349050               -0.17556846                2.34086150                0.07136418
               9.31022939                1.42433524               50.79794796                0.57575550                0.40680308                0.93674458               -2.59889404               -0.22620776                2.25380256                0.00281081
              10.31557333                1.04755356               50.63436194                0.36880205                0.50161734                1.43643843               -3.78761552               -0.55341909                3.80842963               -0.37314522
              11.32026174                0.65658440               50.49792628                0.06184127               -0.23532158                2.54528736               -5.65826538               -2.76448125               11.61106928               -0.22253609
              12.31086690                0.21666384               50.48551066                0.00010000               -1.78074777                0.47685480               -7.89333120               -6.89038182               15.58899927               10.21168827
              13.28464678               -0.19222860               50.40341055                1.00000000               -1.10785993                0.23424664               -0.92585017               -3.95744844                4.65437532                0.43575762
              14.28870970               -0.51967130               50.22813971                1.00000000                0.40629191                0.56800057               -1.80664034               -0.10074574                0.01425685               -0.23294501
               4.65731279                4.18767597               51.62915452                1.00000000               -0.43210094               -0.65831491                2.02847141               -0.01008733               -0.01155089                1.60795358
               5.65299178                3.84566569               51.43276204                1.00000000               -0.27494424               -0.28971140                0.95087426                0.03661042                0.06803998                0.27526225
               6.65181390                3.50242990               51.23837819                0.82400439                0.04890013                0.06782625               -0.12812935               -0.02626365                0.28820293               -0.73150913
               7.65396978                3.15712986               51.04632066                0.00010000                0.81175182                0.42609314               -1.21789572               -0.67791807                2.99000306               -1.51771417
               8.66804894                2.79853117               50.90553314                0.00010000                1.22374870                0.59349013               -2.13393920               -1.47877631                3.98103266                0.21040519
               9.67844476                2.43342402               50.74211431                0.00010000                1.06750938                0.99002679               -3.17754897               -2.03620791                2.57050643                2.23696712
              10.68939913                2.06190529               50.57519212                0.00010000                0.97684634                1.32832755               -4.40186602               -2.99997851                3.81719252                4.71150325
              11.69798168                1.68328068               50.43526049                0.00010000               -3.96856610                1.73463564               -5.64054149               -9.36852516               20.52268176                8.66706911
              12.61002781                1.20057674               50.59587265                0.14365821               -4.33102168                0.06705111               -3.23245625              -10.88500561               18.94722155                7.32669874
              13.61136125                0.80912778               50.45458174                0.92414342                0.17516024                0.06103065               -0.32501412               -3.25611038                1.91137039                0.45575015
              14.61353101                0.48506841               50.27574592                1.00000000                0.21697616                0.36452287               -1.12369382               -0.07799145                0.05265406               -0.20819563
               4.99728385                5.18149177               51.55813658                1.00000000               -0.33202778               -0.56628507                1.68493696               -0.03435397                0.11911641                1.41909649
               5.99396357                4.84325952               51.35554629                0.87585907               -0.18478984               -0.17844489                0.63666289               -0.00767778                0.30202304                0.02553557
               6.99358806                4.50370606               51.15694941                0.28632372                0.13006215                0.19788358               -0.37926509               -0.12143649                0.93913426               -1.19788048
               7.99656482                4.16177499               50.96680967                0.00010000                0.39897636                0.55569345               -1.50045231               -0.90490051                4.92100970               -1.63800808
               9.00156758                3.80564309               50.84720215                0.00010000                0.47831502                0.89056235               -2.27990576               -2.22478121                8.35720110                1.39416501
              10.00613112                3.44413578               50.72924160                0.00010000                0.20747551                1.12617833               -3.06765645               -3.12845095                8.71383305                4.65836998
              11.00571709                3.07412011               50.62011079                0.00010000               -0.59556690                1.19936649               -3.69241988               -4.46436827               11.84470822                8.70984211
              11.99421978                2.69127711               50.56660422                0.00010000               -1.91987022                0.46947298               -3.61784746               -9.75983290               18.74631092               12.26080506
              12.96731969                2.21800487               50.59539831                0.00010000               -2.95934386                3.28803840               -3.12564356               -7.21422142               17.39373180                0.62498324
              13.93503290                1.80899201               50.50399591                0.15846516               -1.60255396                2.31588753                0.23982148               -1.67933789                4.71701859               -0.65820868
              14.93526861                1.48761916               50.32339587                0.65797089                0.02357068               -0.36977300               -0.48534816                2.33928663                0.23698443               -1.99082394
               5.33309021                6.17635027               51.48408474                1.00000000               -0.24662721               -0.46291302                1.35267196               -0.05381282                0.18014359                1.10744559
               6.33062394                5.84209679               51.27472042                0.55083518               -0.11102542               -0.04533019                0.30805314               -0.04462355                0.43589877               -0.40654863
               7.33086970                5.50638757               51.07069991                0.08376058                0.16553969                0.36787592               -0.69165599               -0.18662002                1.59313473               -1.70406976
               8.33393473                5.16824372               50.88408351                0.00010000                0.51614135                0.62978738               -1.65594244               -0.75733967                8.19334324                1.21988379
               9.34119253                4.81634242               50.81151352                0.00010000                0.67319950                0.96826974               -2.23718813               -1.52770166               13.15521996                2.90868251
              10.34739872                4.45594758               50.72424642                0.00010000                0.58889492                1.01203676               -2.85027101               -1.98896856               13.11416109                4.92916602
              11.35297043                4.08589262               50.65023585                0.00010000                0.57507715                0.82948054               -3.16653170               -2.91933994               15.11144987                6.76441491
              12.35890027                3.69267014               50.60102376                0.00010000               -0.24709760                0.41093367               -3.09233782               -4.67090070               17.08192514                5.98006718
              13.34802848                3.26633751               50.56205382                0.00010000               -2.53700345                3.76171385               -2.43039222               -4.33589885               18.28818955                0.79870701
              14.30816020                2.85544553               50.53283834                0.16944209               -2.24830142                3.85227533               -1.44981890               -1.06653274               10.16948909                0.98724977
              15.30306245                2.47767295               50.33503885                0.66754188               -0.50977494                0.21254011               -2.29908190                0.69303471                1.12959172               -3.87243832
               5.66471456                7.17223351               51.40706622                1.00000000               -0.16807499               -0.36229389                1.04133910               -0.03814058                0.02414004                0.85043259
               6.66303381                6.84235292               51.18883258                0.41298754               -0.05029172                0.06800546                0.02584829               -0.02762978                0.42681801               -0.68162112
               7.66370872                6.51106357               50.97875111                0.00834367                0.42146826                0.53382266               -0.97683255               -0.31056628                5.46813930               -2.14910510
               8.67146317                6.17437074               50.86080768                0.00010000                0.98004848                0.62375173               -1.19877680               -0.54113635               12.26477192                3.24870033
               9.68330969                5.82500849               50.78357633                0.00010000                1.26691889                0.73013860               -2.22930773               -1.16910373               15.07085037                3.35200310
              10.69680155                5.46437651               50.71918253                0.00010000                1.36490209                0.64657867               -2.70882649               -1.64700325               16.37589324                4.60069477
              11.71060773                5.09070972               50.66390973                0.00010000                1.17776622                0.41525679               -2.92255078               -2.42095901               17.64866446                5.35844671
              12.72035687                4.69949578               50.61941997                0.00010000                0.36092943                0.68303624               -2.81431275               -3.52456187               19.00264320                4.83379324
              13.71782632                4.29323914               50.58463901                0.01282826               -0.89950347                2.03350381               -2.39484021               -3.35128082               20.21477316                3.48101125
              14.70236680                3.88603752               50.55814220                0.21560775               -0.65759297                2.12050392               -1.68786542               -0.72040046               10.76684274                1.39723600
              15.70467446                3.49186996               50.33054087                0.70388064                0.23076581                1.46133755               -2.99599376                0.46936568                0.68692398               -2.81144350
               5.99208859                8.16910439               51.32801921                0.98244176               -0.08473081               -0.27015066                0.74977087               -0.03578096                0.01749911                0.72098105
               6.99124128                7.84345690               51.10251537                0.35235658                0.02759832                0.14569545               -0.23257988                0.00937904                0.33117486               -0.70366936
               7.99264056                7.51706402               50.88331454                0.00010000                0.89629055                0.62898503               -1.21120126               -0.44078225                8.27293364               -2.36001341
               9.00916709                7.18071876               50.81602726                0.00010000                1.75820634                0.59448569               -1.76124587               -0.73648526               16.56494181                1.40877987
              10.02780468                6.83094519               50.75755575                0.00010000                1.97951686                0.46042228               -2.26641765               -1.18651932               17.90510584                3.02290199
              11.04875743                6.46887916               50.71072925                0.00010000                2.08136470                0.30007954               -2.67525592               -1.60030078               19.26945772                4.06766059
              12.06943198                6.09419775               50.67208237                0.00010000                1.85610877                0.24256436               -2.82645034               -2.13277775               20.38887454                4.72491972
              13.08587961                5.70633087               50.63941942                0.00010000                1.25145750                0.51470697               -2.72781626               -2.62533894               21.25441949                4.69934906
              14.09446113                5.30700759               50.60987706                0.03325257                0.46208825                0.99312771               -2.39659005               -2.66547137               21.75848119                3.70903774
              15.09512137                4.89785561               50.58019568                0.25315711                0.31618747                0.98493544               -1.80734272               -0.95469331               11.16402915                1.19819781
              16.10078488                4.50689970               50.33338414                0.73072479                0.56635062                1.35025991               -3.05839659                0.19314416                0.30143921               -1.98192013
               6.31529392                9.16683050               51.24855318                0.95124704               -0.00321645               -0.18588298                0.47839645               -0.03656016                0.02701536                0.69850949
               7.31526176                8.84526683               51.01610063                0.34144170                0.11686473                0.21340866               -0.49061303                0.04169086                0.18558207               -0.69768794
               8.31763122                8.52364327               50.78678852                0.00010000                1.37952679                0.65277712               -1.42149008               -0.64846556               10.24716623               -2.36757953
               9.34285230                8.18626045               50.75485633                0.00010000                2.68938449                0.41018387               -1.97705931               -1.19767651               20.56821244                0.37804145
              10.37141891                7.83421693               50.72406690                0.00010000                2.93453389                0.11804287               -2.42238330               -1.44020192               21.34589776                2.24487132
              11.40154297                7.47037810               50.69811715                0.00010000                2.95407790               -0.04384940               -2.71600852               -1.55815041               22.39800791                3.42547123
              12.43050047                7.09556101               50.67772644                0.00010000                2.67486448               -0.02544126               -2.80700631               -1.77282582               23.34205805                4.22262401
              13.45504026                6.70978992               50.65991655                0.00010000                2.12458426                0.16145496               -2.67357909               -2.05008694               23.75982950                4.66456387
              14.47299215                6.31310170               50.63830403                0.05284384                1.41702788                0.40581577               -2.36601226               -2.31059289               23.07464612                4.27368954
              15.48338082                5.90573623               50.59914577                0.28216167                0.87285042                0.75823763               -1.99530780               -1.06440084               11.32095159                1.00284540
              16.49044916                5.51887516               50.33698845                0.74658627                0.70683394                1.12093992               -3.12031533                0.07822429                0.14501347               -1.89015026
               6.63448473               10.16538673               51.16920190                0.94392797                0.07775910               -0.09922379                0.20823603               -0.03543733                0.00501214                0.69567006
               7.63526232                9.84772507               50.92967448                0.37513492                0.20964432                0.27375172               -0.74270611                0.04839560                0.03988395               -0.66513336
               8.63867762                9.53011956               50.69075334                0.00010000                1.96887903                0.62584717               -1.63883174               -1.03612622               12.00708143               -2.06006216
               9.67463990                9.18892244               50.68982205                0.00010000                3.81026883               -0.01199616               -2.16891202               -1.71403290               24.21636157                0.09962889
              10.71488299                8.83330605               50.68427167                0.00010000                4.08052239               -0.42401387               -2.57232630               -1.50382459               24.69287829                1.55599263
              11.75625035                8.46800217               50.67988014                0.00010000                3.98403228               -0.45251682               -2.80655175               -1.30569183               25.64575741                2.59221483
              12.79456364                8.09368893               50.67942141                0.00010000                3.55434121               -0.36478638               -2.82313676               -1.31583830               26.67197831                3.42970863
              13.82733717                7.70955997               50.68193518                0.00010000                2.88696631               -0.20296441               -2.57328137               -1.50332203               26.97803852                4.31217209
              14.85230297                7.31512390               50.67584342                0.07229599                2.03613579                0.02712868               -2.12145575               -1.75385500               24.29920359                5.56592572
              15.86805989                6.91302036               50.61673585                0.30696992                1.18842657                0.73618547               -2.22170962               -0.95498821               11.00574740                0.98115638
              16.87607150                6.52931850               50.34005489                0.75419139                0.80116068                1.02635907               -3.23135429                0.04925609                0.08039344               -1.96568561
               6.94990850               11.16484602               51.08979455                0.91662795                0.15883431               -0.00753750               -0.06608053               -0.03936498                0.00183614                0.60404259
               7.95149684               10.85074186               50.84361468                0.41856973                0.29014165                0.33192375               -0.99917458                0.02034051                0.12738655               -0.54758529
               8.95571133               10.53616022               50.59979506                0.00010000                2.69441546                0.60843737               -1.86832935               -1.69326636               13.70084099               -1.25312701
              10.00538515               10.18602053               50.62435741                0.00010000                5.32756767               -0.99871581               -2.37799147               -1.75081745               27.35845346                0.04632388
              11.06226269                9.82573666               50.63974551                0.00010000                5.48305537               -0.99823136               -2.74985233               -1.09573895               27.69786249                0.84781556
              12.11504626                9.46132777               50.65417471                0.00010000                5.01816080               -0.85963779               -2.93842698               -0.72285494               28.71754458                1.46915347
              13.16262590                9.08826528               50.67285714                0.00010000                4.42462954               -0.69049778               -2.88390150               -0.72140620               30.09387508                2.02765179
              14.20353885                8.70573064               50.69812044                0.00010000                3.59143768               -0.53717239               -2.49629619               -0.88467560               31.58944647                2.79535661
              15.23445466                8.31364427               50.73145760                0.10247380                2.32738030               -0.18328009               -1.51207488               -0.93834570               26.05757024                4.72389430
              16.25008646                7.92045994               50.63550080                0.34281249                1.21916746                0.76090559               -2.47159242               -0.63685744                9.80817302                0.94742206
              17.25883800                7.53940234               50.34279499                0.75127441                0.87515488                1.02826162               -3.36917488                0.04010962               -0.09174574               -1.62789808
               7.26190576               12.16523598               51.00872707                0.96500958                0.24491806                0.03899620               -0.34052639                0.11248208                0.29672886                0.51567491
               8.26435494               11.85436355               50.75915580                0.75581071                0.38139325                0.36216884               -1.27056472                0.13842575                0.78478179               -0.44382712
               9.26953362               11.54228831               50.51912948                0.46223863                4.28460893                0.61280930               -2.14101599               -2.88854256               15.39406572               -0.69578337
              10.35004711               11.16894812               50.56090062                0.36893726                7.40636784               -1.70724098               -2.63643536               -1.98114807               29.80614894               -0.13314803
              11.41766098               10.81334142               50.58996383                0.36004320                6.46087579               -1.23952343               -2.98627849               -0.36710621               30.07302486                0.32000160
              12.47926463               10.45080941               50.61802135                0.36783439                5.90358345               -1.05183555               -3.14025194               -0.25128534               31.27405155                0.65650996
              13.53573265               10.07987897               50.65145446                0.39177994                5.25000196               -0.83863057               -3.03900484               -0.28897015               33.02270277                0.96029124
              14.58426467                9.69881652               50.69481934                0.43160614                4.15370521               -0.69141175               -2.56307668               -0.34845165               35.31050136                1.42058993
              15.61880675                9.31145830               50.75603102                0.57385791                2.26500005               -0.21859718               -1.43273541               -0.09369263               28.62806103                2.82212401
              16.62956467                8.92823847               50.65314448                0.69826872                1.00910647                0.77785377               -2.72280024               -0.13090672               10.62417199                0.84380551
              17.63898888                8.54988373               50.35406698                0.87596406                0.94242094                1.04813925               -3.54804453                0.17961355                0.74334788               -1.29057351
               4.15282750                2.29110075               52.80481268                1.00000000               -0.68022027               -0.80078641                2.77456090               -0.21949935               -0.98010995                0.92292405
               5.14602530                1.93400280               52.60216308                1.00000000               -0.54860575               -0.41640293                1.58556896               -0.15181807               -1.30347511                0.15127444
               6.14185539                1.57601268               52.39335492                1.00000000               -0.30997728               -0.05000732                0.45525897               -0.17249026               -1.22726778               -0.20950283
               7.13982575                1.21492751               52.19184570                0.68015464               -0.49191153                0.40776002               -0.68675528               -0.42848049                0.08913138               -0.84141518
               8.13201715                0.84605494               52.00798039                0.70562950               -0.56252649                0.86151698               -1.56303343               -0.27001445                1.52113807               -0.01029646
               9.12857522                0.47119887               51.82976514                0.68407489               -0.16180156                1.11073409               -2.58161750               -0.27308214                2.25140687               -0.10975054
              10.12878112                0.08853188               51.65443239                0.51589163               -0.04819448                1.58185451               -3.85161931               -0.62064034                3.76365076               -0.28772544
              11.12761133               -0.30697792               51.49698535                0.21317323               -2.22656966                2.47972696               -5.64971423               -2.88389157               10.93193137                0.30390421
              12.08424973               -0.75537108               51.44701335                0.00010000                0.16806733                4.31665775               -5.17755889               -3.06615562               11.35332803               -0.65429125
              13.13097268               -1.24539494               51.33787395                1.00000000                2.63726476                0.37611379               -1.67108498               -7.85975588                3.48144418                0.29059417
              14.13699503               -1.57909207               51.15636440                1.00000000                0.60223463                0.64826266               -2.40841596               -0.22403507               -0.11983699               -0.24787335
               4.50773046                3.28309289               52.72400329                1.00000000               -0.56793060               -0.76123903                2.46867197               -0.01397725               -0.23000723                1.23273915
               5.50205115                2.92983877               52.52132803                1.00000000               -0.40311653               -0.37892864                1.27774949                0.04695429               -0.35030629                0.23752698
               6.49966813                2.57551261               52.31658284                1.00000000               -0.07656686               -0.01019900                0.12192910                0.03624243               -0.23620259               -0.34503206
               7.50051982                2.21900511               52.11607686                0.48380257                0.07565997                0.41980199               -1.04980320               -0.24393643                1.51634025               -1.15810790
               8.50118133                1.85467011               51.94586611                0.56280491                0.20430583                0.75342275               -1.97412628               -0.13986752                2.74177084                0.04529055
               9.50460593                1.48230621               51.76988873                0.54358307                0.52408939                1.08825309               -3.04754709               -0.16881983                2.54594353               -0.04328704
              10.51166312                1.10435042               51.59358732                0.30822960                0.80589814                1.57323375               -4.37688571               -0.29585302                3.69707218               -0.38720882
              11.52072389                0.71781935               51.43645819                0.00010000                0.55667844                2.43310251               -6.26686760               -2.33576650               10.62059760                0.38887192
              12.52279668                0.28779550               51.39101141                0.00010000               -2.82441392               -1.14304012               -6.62032020              -12.50648618               18.39834569                9.77035472
              13.46423562               -0.24163380               51.39365524                1.00000000               -2.71724391                0.28080643               -1.02146614               -9.84124379                9.30303791                0.41869182
              14.46845181               -0.57260944               51.21003196                1.00000000                0.42161894                0.56873312               -1.81714336               -0.09851362                0.01400336               -0.21533827
               4.85905619                4.27587597               52.64995586                1.00000000               -0.45115254               -0.67770237                2.12336744               -0.01381379                0.00426725                1.52645113
               5.85454466                3.92642423               52.44232856                1.00000000               -0.28211471               -0.29123371                0.95846000                0.03780901                0.08903901                0.25623131
               6.85341389                3.57580870               52.23673443                0.82353763                0.06224266                0.08597426               -0.20128335               -0.00656966                0.30883355               -0.68853308
               7.85578952                3.22332355               52.03338360                0.00010000                0.62524016                0.46904866               -1.36669748               -0.46408663                3.10178366               -1.44820181
               8.86591870                2.86112340               51.88318413                0.00010000                0.98644978                0.69628729               -2.36408160               -1.11954376                4.22504427                0.32096951
               9.87551851                2.49296393               51.70880288                0.00010000                1.07161133                0.98858141               -3.50979033               -1.67706715                2.67285793                2.52558705
              10.88735092                2.11999655               51.52846472                0.00010000                1.09662068                1.12418100               -4.87359481               -2.59252560                4.00327010                5.45064871
              11.89745093                1.74168413               51.37904169                0.00010000               -4.68888831                0.82013207               -5.42176054              -10.91593329               21.10821764               10.52421336
              12.79357316                1.22176812               51.54157792                0.11534141               -5.14490899               -2.02752411               -5.45669685              -16.18984756               23.60062046               10.30518383
              13.79455275                0.76022119               51.45091388                0.81043631                0.17014396                0.09139326               -0.40662727               -6.58792326                4.87264067                0.45916607
              14.79697604                0.43228259               51.26422030                1.00000000                0.24232913                0.39131996               -1.20318386               -0.11021506                0.09035149               -0.17562157
               5.20635767                5.26953884               52.57543212                1.00000000               -0.34830670               -0.57879188                1.76828881               -0.03511944                0.13005989                1.34349556
               6.20287460                4.92401409               52.36189698                0.84590226               -0.18601291               -0.17814987                0.63196391               -0.00131470                0.33112097               -0.00348730
               7.20263741                4.57723209               52.15267878                0.27205638                0.15243902                0.21440498               -0.47502068               -0.08868518                0.93720692               -1.15371599
               8.20592338                4.22838608               51.95099556                0.00010000                0.32563260                0.59915210               -1.66205757               -0.69246550                5.05304364               -1.48664411
               9.20915006                3.86859586               51.82349232                0.00010000                0.31340234                0.89557144               -2.47563338               -1.72392955                8.66308399                1.69469464
              10.21219143                3.50207784               51.69741078                0.00010000                0.09711702                0.96267775               -3.30832950               -2.64487228                9.15848577                5.23547964
              11.21109241                3.12683404               51.58221590                0.00010000               -0.57788843                0.68389368               -3.89500973               -4.19701411               12.72949732                9.85732145
              12.20063366                2.73422199               51.52779972                0.00010000               -1.53148653               -0.66389675               -4.02119736               -9.86494435               20.42374843               13.67778244
              13.18046267                2.24724502               51.56156134                0.00010000               -3.93354919                3.03454517               -4.21274824               -9.77638275               20.73143030                2.31319138
              14.12196268                1.76019407               51.50673259                0.11757872               -2.91689877                4.03749570                0.29724431               -3.67819010                6.97674425               -2.07262400
              15.12212470                1.43521696               51.31855556                0.62913815                0.01620205                0.20838627               -0.52598733                3.69909635                0.31048925               -3.40284865
               5.54940329                6.26430013               52.49798634                1.00000000               -0.25781705               -0.47088530                1.42333283               -0.05055476                0.16528007                1.05094059
               6.54682512                5.92286123               52.27770388                0.52730036               -0.10675417               -0.04597522                0.28870895               -0.02881258                0.44636776               -0.41987676
               7.54726820                5.58009680               52.06323686                0.07138557                0.18756612                0.38035760               -0.80215435               -0.13613686                1.65506089               -1.68048359
               8.55057644                5.23530659               51.86671127                0.00010000                0.52400707                0.71428335               -1.81283094               -0.50956111                8.46866311                1.71332113
               9.55774835                4.87903483               51.78808864                0.00010000                0.69032197                0.92443933               -2.45526271               -1.11797000               13.61425052                3.23195295
              10.56438288                4.51221749               51.69464281                0.00010000                0.67590724                0.82767950               -3.08163956               -1.60195939               13.74344081                5.40221337
              11.57126649                4.13367443               51.61728969                0.00010000                0.76790928                0.39801162               -3.42603905               -2.62803299               16.17267251                7.37443315
              12.57974107                3.72840620               51.56866128                0.00010000                0.04034703               -0.21036330               -3.41752456               -4.79683757               18.69530742                6.63088290
              13.57207343                3.28245902               51.53619696                0.00010000               -2.33620296                2.91000528               -2.71689777               -5.52879111               20.41774153                1.36473161
              14.53301701                2.84097110               51.51334645                0.14449980               -2.55806251                5.88559527               -2.72429648               -1.14756564               12.08526877                0.03226451
              15.52091218                2.43645032               51.30769353                0.64909714               -1.21048246                1.61623697               -3.20546680                0.82536109                2.15936025               -5.07054416
               5.88822438                7.26012113               52.41777898                1.00000000               -0.17226973               -0.36888935                1.09811755               -0.03763211                0.01657587                0.81704378
               6.88650169                6.92309459               52.18893771                0.39498430               -0.03775346                0.06857251               -0.00497314               -0.01300775                0.42618148               -0.66134904
               7.88746931                6.58483924               51.96835283                0.00010000                0.51462241                0.54272882               -1.09946079               -0.20580819                5.85422301               -2.09790018
               8.89679413                6.24267175               51.84747405                0.00010000                1.12052250                0.70177665               -1.48657537               -0.28920778               12.66170397                3.51189682
               9.90987976                5.88708464               51.76010085                0.00010000                1.43592532                0.66480086               -2.47259222               -0.87061849               15.36766082                3.59064939
              10.92551264                5.51863143               51.69081811                0.00010000                1.62316366                0.45345128               -2.97712418               -1.37717848               17.08965922                4.88623321
              11.94234304                5.13479428               51.63336257                0.00010000                1.51998370                0.09287533               -3.21124196               -2.28757075               18.70793611                5.67603817
              12.95591231                4.73001473               51.58991903                0.00010000                0.74894539                0.27393118               -3.11962809               -3.70062022               20.46246089                5.11063003
              13.95732195                4.30544512               51.55900452                0.00613551               -0.54461217                1.78093425               -2.81684132               -3.82109812               22.07852768                3.54498843
              14.94502007                3.87790597               51.53894634                0.19836129               -0.48242263                2.48025250               -2.30095873               -0.96298230               11.99331812                1.55835304
              15.94767349                3.46754170               51.29875517                0.68858346                0.26534213                2.48761468               -3.36925276                0.79131747                1.04471045               -2.54809509
               6.22270373                8.25692234               52.33576342                0.97307444               -0.08568779               -0.27711234                0.79592872               -0.03697109                0.02125450                0.70963088
               7.22184685                7.92423268               52.09997476                0.33795869                0.04355764                0.15267688               -0.27493059                0.01881260                0.33734685               -0.67241946
               8.22357488                7.59095137               51.87051368                0.00010000                1.03500154                0.64416210               -1.34617245               -0.33893306                8.49882304               -2.27971667
               9.24254688                7.24934212               51.79728762                0.00010000                2.04007047                0.59509138               -1.98781702               -0.53869962               17.01220721                1.31542579
              10.26437629                6.89233084               51.73354768                0.00010000                2.32913968                0.37487654               -2.54725497               -0.99951529               18.43826078                3.14633868
              11.28912968                6.52128652               51.68258385                0.00010000                2.48777440                0.12373458               -2.97493234               -1.44453951               19.99962587                4.21998977
              12.31413178                6.13553193               51.64244687                0.00010000                2.29740684                0.00589242               -3.13469306               -2.09383992               21.41256450                4.87973532
              13.33507781                5.73388482               51.61082603                0.00010000                1.68142228                0.28703640               -3.04248160               -2.79672607               22.58404149                4.82425699
              14.34776023                5.31807771               51.58465095                0.03010748                0.82914871                0.89907564               -2.71069890               -3.05289563               23.43767878                3.81114820
              15.35166079                4.89057615               51.56137094                0.24240055                0.48534267                1.03567872               -2.01593709               -1.19403382               12.15263755                1.32266306
              16.35746708                4.48620261               51.30261569                0.71747017                0.58062917                1.55084578               -3.10005417                0.17401806                0.40921914               -1.55019322
               6.55286429                9.25457889               52.25353361                0.94423764               -0.00153865               -0.19233032                0.51570536               -0.03715328                0.02527924                0.69863112
               7.55284891                8.92614813               52.01092729                0.32822041                0.13584570                0.22570608               -0.54199287                0.04707008                0.20398212               -0.66417094
               8.55558121                8.59772248               51.77185746                0.00010000                1.58958826                0.67706946               -1.56378143               -0.58547596               10.47462061               -2.28318314
               9.58464067                8.25457358               51.73393013                0.00010000                3.11819282                0.36195358               -2.21486019               -1.04975692               21.01479986                0.43405299
              10.61794507                7.89458217               51.69843756                0.00010000                3.43900425               -0.00231284               -2.71935946               -1.32444694               21.92205423                2.29764344
              11.65342076                7.52110612               51.66951026                0.00010000                3.49614339               -0.21765325               -3.03366361               -1.45640728               23.16541584                3.50415301
              12.68786793                7.13491213               51.64837696                0.00010000                3.20056300               -0.21593199               -3.10611161               -1.73359762               24.35137773                4.31844745
              13.71743202                6.73575546               51.63223143                0.00010000                2.58523831                0.01300538               -2.92195805               -2.15050278               25.00905519                4.82266360
              14.73957270                6.32342664               51.61407971                0.05353083                1.77912365                0.32852054               -2.55086319               -2.60388012               24.50992704                4.54987638
              15.75301449                5.89861955               51.57926792                0.27748717                1.01641195                0.75577451               -2.00287118               -1.27048222               12.09424994                1.02729528
              16.75990094                5.49855861               51.30640944                0.73549581                0.68864465                1.11196855               -2.99281469                0.05438261                0.18243095               -1.58897342
               6.87882218               10.25307574               52.17142698                0.93782316                0.08224748               -0.10524382                0.23715434               -0.03668278                0.00591249                0.69461970
               7.87964466                9.92874680               51.92194151                0.36107865                0.23088678                0.29011677               -0.80275382                0.05087962                0.06874029               -0.63289255
               8.88343992                9.60449276               51.67362366                0.00010000                2.25236998                0.66003249               -1.78626220               -1.03577810               12.24624875               -1.98593844
               9.92469205                9.25658119               51.66692330                0.00010000                4.39574448               -0.10857301               -2.42118108               -1.66308901               24.67332555                0.15988077
              10.97135481                8.89228459               51.65709584                0.00010000                4.74897627               -0.59437790               -2.88323751               -1.43731919               25.29107704                1.60570610
              12.01967158                8.51693345               51.65039259                0.00010000                4.67278453               -0.65119959               -3.12407340               -1.21899593               26.44498629                2.64220108
              13.06481050                8.13121330               51.65014437                0.00010000                4.19408331               -0.57350919               -3.08057899               -1.23427102               27.73922381                3.51367997
              14.10355325                7.73414493               51.65598012                0.00010000                3.40040190               -0.38923224               -2.68581969               -1.47482077               28.31043387                4.52521815
              15.13281853                7.32464812               51.65544141                0.07631973                2.37829611               -0.10740761               -2.05465183               -1.85553890               25.43411236                6.22955555
              16.15111917                6.90569165               51.59504588                0.30768450                1.29290320                0.70440277               -2.12769293               -1.10982527               11.42167723                0.94364728
              17.15867660                6.50844198               51.30883569                0.74516741                0.75574295                0.95634267               -3.00812278                0.03660767                0.09173988               -1.75325029
               7.20078852               11.25247401               52.08923350                0.90828521                0.16609590               -0.01349999               -0.04482897               -0.04082370                0.00541314                0.60070777
               8.20244948               10.93195046               51.83326764                0.40085702                0.31213680                0.35292238               -1.06930787                0.02043946                0.16504368               -0.52708812
               9.20703125               10.61092313               51.58035277                0.00010000                3.05687976                0.64950841               -2.02237023               -1.78869005               13.94979421               -1.20774261
              10.26358707               10.25240212               51.59933512                0.00010000                6.09075861               -1.19968734               -2.63734022               -1.78155923               27.83034205                0.09186877
              11.32884642                9.88269462               51.61079273                0.00010000                6.32625301               -1.22719431               -3.06272108               -1.06378322               28.32481744                0.88361707
              12.39011213                9.50808213               51.62344704                0.00010000                5.85623046               -1.10696069               -3.24107846               -0.65769556               29.56496160                1.50150374
              13.44597103                9.12344194               51.64326126                0.00010000                5.21943235               -0.96103282               -3.08391984               -0.64778933               31.25736801                2.08439581
              14.49450078                8.72797081               51.67371172                0.00010000                4.24720856               -0.84359090               -2.45857285               -0.81769486               33.30910691                2.96501637
              15.53091521                8.32127848               51.71980202                0.11031873                2.62616724               -0.42355574               -0.95923539               -0.89052865               26.91622977                5.30378175
              16.54702412                7.91270760               51.61154759                0.34998878                1.21086046                0.71357997               -2.32720432               -0.69748746                9.61299729                0.88066709
              17.55513241                7.51768547               51.31051808                0.74479411                0.81082915                0.93814229               -3.08686549                0.03430580               -0.08362322               -1.47474091
               7.51905280               12.25280574               52.00537352                0.95974482                0.25515206                0.03317291               -0.32789559                0.12637909                0.28949325                0.51110079
               8.52160432               11.93580525               51.74604359                0.74551538                0.40808321                0.38547841               -1.35059366                0.14934403                0.80993213               -0.43167099
               9.52721446               11.61748293               51.49692219                0.45967197                4.78425345                0.65597972               -2.30440013               -3.14256901               15.64137189               -0.67427308
              10.61728939               11.23258745               51.53329794                0.36878347                8.35923310               -1.98146685               -2.89245410               -2.11687985               30.30618263               -0.09028927
              11.69439912               10.86774070               51.55871292                0.36015441                7.42404779               -1.49539168               -3.28289167               -0.33439051               30.75044420                0.35918689
              12.76577034               10.49479424               51.58541702                0.36759155                6.87834529               -1.32878954               -3.40990288               -0.22158175               32.18516106                0.69800411
              13.83196603               10.11199264               51.62054663                0.39073626                6.17962311               -1.14493030               -3.18508655               -0.27655662               34.27346052                1.02271016
              14.88936281                9.71727311               51.67022430                0.42898573                4.91525705               -1.06976999               -2.42156654               -0.30457885               37.15547719                1.56859436
              15.93027117                9.31617701               51.74602461                0.57917609                2.56998164               -0.51014793               -0.74618734                0.07010332               29.31798638                3.17437705
              16.94076244                8.91996324               51.62680372                0.70406021                0.95679066                0.72556439               -2.54407316               -0.07477721               10.15152653                0.77203438
              17.94940698                8.52720483               51.32017428                0.87340288                0.86445459                0.95193640               -3.22621848                0.15161552                0.70758074               -1.16876017
               4.35198376                2.38242471               53.83306445                1.00000000               -0.69187858               -0.82550363                2.86242034               -0.23491032               -0.91260464                0.87530393
               5.34506498                2.01784397               53.61811585                1.00000000               -0.54251710               -0.42051515                1.59821168               -0.16806584               -1.20100089                0.14219369
               6.34113342                1.65239411               53.39757233                1.00000000               -0.25999959               -0.03247224                0.38634246               -0.18328634               -1.10016524               -0.20133146
               7.33986498                1.28423585               53.18414380                0.67508129               -0.29938375                0.43172295               -0.84905312               -0.36961383                0.31000390               -0.81457025
               8.33514575                0.91019582               52.99032750                0.68668544               -0.22698361                0.92795357               -1.95828275               -0.26793852                1.80299144                0.00770976
               9.33532531                0.53224694               52.80079394                0.64909433                0.28118650                1.21848279               -3.17937225               -0.24401041                2.35984822               -0.12069466
              10.34076948                0.14911215               52.61127756                0.45618065                0.65569761                1.66649032               -4.64411030               -0.41939529                3.45785631               -0.30443045
              11.34843926               -0.24049266               52.43487543                0.09991037               -2.77845379                2.27981476               -6.30580811               -4.27668988               11.15788895                0.28037623
              12.28520040               -0.71004231               52.38649252                0.00010000               -1.69931799                2.75486829               -7.31478690               -9.39712300               13.34425124               -5.39285198
              13.31445291               -1.30130784               52.32061882                0.94523908                1.80412462                0.44131423               -2.03987582              -12.70368429                5.90220476                0.25881004
              14.32128289               -1.63858418               52.13248521                1.00000000                0.68299868                0.67502227               -2.68658164               -0.23229061               -0.01496898               -0.46627738
               4.71421541                3.37416968               53.74915701                1.00000000               -0.58157856               -0.78242719                2.54993792               -0.01963735               -0.20190917                1.17289618
               5.70839962                3.01363882               53.53416648                1.00000000               -0.40553941               -0.38113002                1.28437594                0.04143628               -0.29873287                0.22540229
               6.70610462                2.65206939               53.31745550                1.00000000               -0.05658153                0.00845920                0.05211144                0.03581860               -0.17210060               -0.33368209
               7.70726799                2.28855307               53.10479512                0.48666082                0.11780986                0.45056356               -1.20107158               -0.14516317                1.67674432               -1.11567987
               8.70846081                1.91947536               52.92442092                0.54830007                0.30795287                0.85642625               -2.30734992               -0.10682552                3.01037552                0.05025438
               9.71342705                1.54443176               52.73699702                0.51017756                0.72422515                1.20833841               -3.51165643               -0.12011477                2.68138333               -0.08855651
              10.72294532                1.16577705               52.54682423                0.25271766                1.09112744                1.65887664               -4.89782878               -0.18350154                3.56431781               -0.46215252
              11.73524960                0.78230549               52.37258893                0.00010000               -0.06542785                2.14580374               -6.25716879               -4.48385521               12.33496676                0.89416271
              12.72163676                0.31750637               52.35310425                0.00010000               -4.17813007               -2.69135949               -2.29965221              -17.71162815               20.57957529                2.00336555
              13.65168699               -0.29689470               52.38298123                1.00000000               -3.27002179                0.32707956               -1.17423776              -13.88107731               11.03574613                0.42810902
              14.65623633               -0.63183396               52.19179684                1.00000000                0.45493306                0.58082790               -1.92057728               -0.12180954                0.05084571               -0.34328255
               5.07265274                4.36677617               53.67162187                1.00000000               -0.46587463               -0.69192377                2.19979581               -0.01848442                0.02312380                1.44736863
               6.06799399                4.01022137               53.45193124                1.00000000               -0.28586029               -0.29121828                0.95846886                0.03634188                0.11648136                0.23651465
               7.06693553                3.65256329               53.23435253                0.81856572                0.07808785                0.10299563               -0.27403217                0.00773735                0.34043687               -0.65375083
               8.06955575                3.29324712               53.01898671                0.00010000                0.50975066                0.50806804               -1.51087835               -0.28473944                3.20616568               -1.38387153
               9.07713055                2.92732435               52.85825151                0.00010000                0.85327886                0.75785588               -2.62012005               -0.84400929                4.44874348                0.44336214
              10.08662133                2.55641370               52.67191850                0.00010000                1.10475848                0.92868369               -3.86373669               -1.39422317                2.79783608                2.77891397
              11.09922572                2.18228968               52.47772022                0.00010000                1.02057570                0.83322581               -5.23460135               -2.35087489                4.66042372                6.06754704
              12.10703284                1.80242342               52.32682528                0.00010000               -4.45288456               -0.35461586               -4.95175036              -12.90297306               22.14675633               11.46641834
              13.01016802                1.23613050               52.48673872                0.09084849               -6.04305785               -2.39283588               -5.73895830              -20.79055018               28.40895786                8.38272833
              13.98617168                0.70523375               52.44644920                0.72306684               -1.07214028                0.10008322               -0.44185078               -9.86057742                7.83030911                0.51016155
              14.98872522                0.37303238               52.25168225                1.00000000                0.25535354                0.39614525               -1.23836562               -0.14033104                0.11262093               -0.24388148
               5.42695532                5.36033120               53.59350235                1.00000000               -0.36159896               -0.58769711                1.83798663               -0.03627561                0.14542921                1.26762565
               6.42333933                5.00781445               53.36818557                0.82011552               -0.18608545               -0.17814175                0.62353524                0.00524387                0.36351245               -0.03537517
               7.42323361                4.65412930               53.14744900                0.25724907                0.17364058                0.22702764               -0.56712341               -0.05360086                0.94839188               -1.12359694
               8.42681215                4.29871444               52.93356852                0.00010000                0.25902134                0.63922697               -1.82080333               -0.52981782                5.22063051               -1.34396795
               9.42841404                3.93463248               52.79768948                0.00010000                0.18825533                0.85243007               -2.69596565               -1.36467712                9.02725013                1.93609327
              10.43057725                3.56300544               52.66307501                0.00010000                0.07520315                0.70854070               -3.57512990               -2.28728727                9.72594608                5.70600446
              11.42991810                3.18244157               52.54221060                0.00010000               -0.36139678               -0.00275306               -4.10232919               -4.23062830               13.76472271               10.72749098
              12.42334932                2.77521317               52.48618027                0.00010000               -1.34513405               -1.96274658               -4.26161025              -10.29628027               21.51495795               14.07350698
              13.40301542                2.26964965               52.51114334                0.00010000               -5.28878772                3.00292311               -5.22309218              -13.42880467               24.02734311                2.75325748
              14.31757356                1.70510697               52.50994079                0.08507604               -4.25914870                5.93216609                0.33544364               -5.06816937               10.10461616               -4.26673741
              15.31783245                1.37608895               52.31287612                0.61122854                0.02588870                1.15150408               -0.60175962                5.53971148                0.32960575               -5.34359447
               5.77696073                6.35502223               53.51255140                1.00000000               -0.26599583               -0.47669493                1.48356652               -0.04770529                0.15341996                0.99131489
               6.77430077                6.00665853               53.28049460                0.50841247               -0.09986002               -0.04796952                0.26949974               -0.01370668                0.45794334               -0.43673598
               7.77496353                5.65710385               53.05465682                0.05930345                0.20777219                0.38497250               -0.90487546               -0.08018266                1.74038383               -1.66431275
               8.77845622                5.30603166               52.84782689                0.00010000                0.52912360                0.76589474               -1.95117423               -0.32969075                8.77692259                2.12368620
               9.78554600                4.94437295               52.76240826                0.00010000                0.73051378                0.83649805               -2.68405782               -0.82711665               14.11945631                3.44675257
              10.79306649                4.57058452               52.66261363                0.00010000                0.84297051                0.55773510               -3.33752345               -1.36912815               14.45966660                5.68588035
              11.80240541                4.18223462               52.58171507                0.00010000                1.04163287               -0.16841307               -3.70671355               -2.58342975               17.28802410                7.63015254
              12.81389915                3.76316849               52.53267327                0.00010000                0.46463628               -0.78347688               -3.79457722               -5.27154178               20.39545383                6.74267331
              13.81169814                3.29618896               52.50771587                0.00010000               -1.77650752                2.30176357               -3.15956458               -6.59686331               21.93005035                1.80483889
              14.77836900                2.82387707               52.47835241                0.12122276               -2.70713260                8.20365618               -4.21324028               -0.76087714               13.38500184               -2.20669991
              15.75755549                2.39606246               52.27092952                0.63595417               -2.08135128                3.49484749               -4.00580485                1.62446659                3.41856364               -7.04875907
               6.12272861                7.35079730               53.42902857                1.00000000               -0.17450283               -0.37399229                1.14488843               -0.03771036                0.01138327                0.78041073
               7.12098358                7.00685506               53.18873311                0.37976538               -0.02358866                0.06801963               -0.03486272               -0.00156841                0.42643935               -0.64189786
               8.12225684                6.66182875               52.95676189                0.00010000                0.59828227                0.54306041               -1.21023932               -0.12410513                6.18563940               -2.04777171
               9.13294923                6.31403233               52.83107617                0.00010000                1.25310048                0.72697706               -1.78975229               -0.12726448               13.05136863                3.68266984
              10.14731885                5.95136244               52.73412448                0.00010000                1.61918969                0.55811558               -2.72801905               -0.70722631               15.74452744                3.69967069
              11.16533302                5.57416014               52.65964005                0.00010000                1.91733465                0.20011424               -3.27513623               -1.27524321               17.84186638                4.96522818
              12.18566554                5.17907330               52.59968489                0.00010000                1.93155596               -0.27282777               -3.55785782               -2.37904126               19.80034222                5.69536094
              13.20396414                4.75954364               52.55702741                0.00010000                1.23520153               -0.13324383               -3.52682926               -4.09655864               21.85462709                5.02296535
              14.21036957                4.31568492               52.52830219                0.00010000               -0.07408116                1.59831979               -3.40449463               -4.46959453               23.69820977                3.10571275
              15.20248252                3.86918009               52.51212303                0.17854851               -0.22092815                3.00551041               -3.27182843               -1.39293243               13.10645476                1.94448497
              16.20595101                3.44598590               52.26315582                0.67431899                0.34684900                3.60895505               -3.83264518                1.12679379                1.50688260               -2.30834066
               6.46409101                8.34754238               53.34393778                0.96319223               -0.08530531               -0.28288725                0.83459248               -0.03816974                0.02549896                0.69866142
               7.46323796                8.00801892               53.09701676                0.32529189                0.06065729                0.15807987               -0.31508668                0.02283173                0.34122873               -0.64021812
               8.46530416                7.66796505               52.85639109                0.00010000                1.15696404                0.65204413               -1.47242539               -0.27918843                8.71528994               -2.20016249
               9.48637724                7.32057120               52.77627092                0.00010000                2.29847552                0.56367500               -2.21573868               -0.44054114               17.44907858                1.19901765
              10.51127367                6.95553526               52.70661065                0.00010000                2.67367610                0.26296046               -2.85011795               -0.95116903               18.97634245                3.13670761
              11.53985076                6.57458680               52.65123060                0.00010000                2.90837111               -0.07538592               -3.32034209               -1.45891672               20.74175920                4.18663992
              12.56944109                6.17677806               52.60938851                0.00010000                2.77527984               -0.24204273               -3.52354606               -2.24709370               22.42790920                4.80922225
              13.59535636                5.76050361               52.57856979                0.00010000                2.16143519                0.07727350               -3.48125979               -3.15341152               23.87609705                4.70529296
              14.61266979                5.32815535               52.55566308                0.02462965                1.24265083                0.88119187               -3.18988055               -3.53658520               25.08484302                3.76137014
              15.62020937                4.88398728               52.53987693                0.22798002                0.69049766                1.17135478               -2.38056109               -1.47301106               13.15479639                1.61316207
              16.62647975                4.46824156               52.27138306                0.70360354                0.62703722                1.74448969               -3.19968369                0.11861460                0.57132828               -1.09723868
               6.80101213                9.34513956               53.25886729                0.93671174                0.00054130               -0.19815724                0.55049561               -0.03814386                0.02421858                0.70208263
               7.80101754                9.01001666               53.00526077                0.31590979                0.15543323                0.23539739               -0.59011874                0.04662828                0.21932189               -0.63035096
               8.80412080                8.67486963               52.75551289                0.00010000                1.77753269                0.69702175               -1.70200257               -0.56970917               10.68992235               -2.19764065
               9.83656820                8.32530583               52.71055912                0.00010000                3.50795327                0.30719326               -2.46415056               -0.99954924               21.43811360                0.42532461
              10.87427986                7.95662165               52.66967972                0.00010000                3.91718438               -0.12351318               -3.04885008               -1.33459166               22.48425886                2.23857466
              11.91491189                7.57265242               52.63744387                0.00010000                4.02634982               -0.38386960               -3.41323417               -1.50692079               23.92687336                3.43384078
              12.95480686                7.17423245               52.61560421                0.00010000                3.73033662               -0.38499162               -3.50440461               -1.86219052               25.35919899                4.26326913
              13.98951862                6.76108911               52.60147739                0.00010000                3.06736686               -0.09597898               -3.31039415               -2.40156157               26.24607043                4.88652538
              15.01615419                6.33330876               52.58728676                0.05226548                2.17087351                0.29186723               -2.90165686               -2.96161333               25.98903773                4.83337186
              16.03293609                5.89260719               52.55908834                0.26938313                1.18302726                0.78131777               -2.07914811               -1.47716438               12.92311866                1.10457179
              17.03981474                5.48087569               52.27713216                0.72299278                0.68786516                1.09516494               -2.88980247                0.01919713                0.24150538               -1.28306710
               7.13357394               10.34357924               53.17394499                0.93110181                0.08665130               -0.11129580                0.26678066               -0.03841976                0.00698224                0.69802561
               8.13444045               10.01272687               52.91361941                0.34733162                0.25234317                0.30406800               -0.86066695                0.04935761                0.09804087               -0.60267954
               9.13862080                9.68190549               52.65502810                0.00010000                2.50968949                0.69186048               -1.93212461               -1.07464316               12.47184288               -1.91385999
              10.18463424                9.32671506               52.64139843                0.00010000                4.93072217               -0.19112823               -2.69306227               -1.69283305               25.09620856                0.16841323
              11.23723524                8.95306500               52.62660692                0.00010000                5.37336513               -0.74148653               -3.23765713               -1.47191999               25.86856250                1.56713408
              12.29210154                8.56690941               52.61739868                0.00010000                5.32626745               -0.81595015               -3.51617316               -1.25108447               27.24541067                2.58630138
              13.34376059                8.16907823               52.61780983                0.00010000                4.80736368               -0.73407561               -3.45024908               -1.28118290               28.84666958                3.51165463
              14.38824882                7.75858403               52.62821879                0.00010000                3.90794271               -0.51511631               -2.95164105               -1.57119626               29.70068874                4.73996583
              15.42191945                7.33399270               52.63475039                0.07949879                2.74251693               -0.20860301               -2.20542531               -2.00906036               26.57640752                7.12495835
              16.44309915                6.89961364               52.57418199                0.30566477                1.42036152                0.68541247               -2.07832225               -1.25767889               11.82673947                0.90402394
              17.45032668                6.49014486               52.27989243                0.73443503                0.72275229                0.88466213               -2.80135287                0.02361397                0.11548925               -1.55030181
               7.46194847               11.34291364               53.08889797                0.89901531                0.17299782               -0.02006420               -0.02097598               -0.04248510                0.00941683                0.60153885
               8.46367844               11.01609802               52.82222852                0.38315946                0.33456383                0.37256853               -1.13830897                0.01788308                0.20545232               -0.50912324
               9.46863974               10.68870684               52.55934766                0.00010000                3.39367925                0.68792613               -2.17559307               -1.90644219               14.19015237               -1.16816229
              10.53155203               10.32148327               52.57161061                0.00010000                6.80036854               -1.37491843               -2.92005486               -1.85845650               28.27007912                0.11119145
              11.60464711                9.94179192               52.57849109                0.00010000                7.11624674               -1.41901063               -3.42447498               -1.09171528               28.93562891                0.87016874
              12.67387696                9.55633342               52.58935314                0.00010000                6.64307329               -1.30399334               -3.62348542               -0.66041884               30.43337507                1.47516048
              13.73750858                9.15955094               52.61117874                0.00010000                5.96516301               -1.16578963               -3.39982394               -0.64563265               32.51461185                2.10073986
              14.79318022                8.75078678               52.64894899                0.00010000                4.87174010               -1.07103862               -2.58462171               -0.83834122               35.26940040                3.16795867
              15.83494338                8.32913670               52.71227289                0.11883579                2.92250624               -0.57460201               -0.67676408               -0.89018695               27.72614859                6.08108576
              16.85163035                7.90631544               52.58895671                0.35527118                1.21405960                0.67766322               -2.22521618               -0.76106902                9.20950749                0.80005730
              17.85922457                7.49856894               52.28105768                0.73623630                0.75942243                0.85256341               -2.82831653                0.02898539               -0.06128264               -1.33412036
               7.78635549               12.34317795               53.00216916                0.95431969                0.26494264                0.02643106               -0.31108901                0.14073095                0.28499796                0.51040581
               8.78900491               12.02017824               52.73214393                0.73496283                0.43756110                0.40802258               -1.42950619                0.15694975                0.84029590               -0.42190832
               9.79510671               11.69566401               52.47304148                0.45714915                5.26875615                0.69571703               -2.46445492               -3.40138093               15.89157566               -0.66131743
              10.89438003               11.29921669               52.50305154                0.36868054                9.27220391               -2.22665719               -3.16905488               -2.26616074               30.79823263               -0.04919195
              11.98055079               10.92468479               52.52430600                0.36015770                8.33770543               -1.71071310               -3.62414177               -0.32899024               31.43785581                0.38347255
              13.06113414               10.54082954               52.54982329                0.36735810                7.79218950               -1.55038740               -3.75261976               -0.22039939               33.14270701                0.72180751
              14.13639458               10.14576244               52.58775272                0.38977501                7.03810424               -1.37885000               -3.43755106               -0.29471456               35.65293278                1.07995590
              15.20189623                9.73716326               52.64638801                0.42720917                5.60962383               -1.36235224               -2.43182808               -0.29148847               39.25370737                1.76733427
              16.24858705                9.32250066               52.74110728                0.58533256                2.82746551               -0.66360412               -0.39697229                0.16454931               29.91583947                3.55921010
              17.25844554                8.91316690               52.60226302                0.70903940                0.89061672                0.68514658               -2.39667292               -0.08370750                9.44400242                0.70072887
              18.26639939                8.50719613               52.28954261                0.86964100                0.79538482                0.86271937               -2.92116087                0.12040408                0.69032978               -1.04933150
               4.56447261                2.47642171               54.86206109                1.00000000               -0.69752121               -0.84283103                2.92355607               -0.24755762               -0.85026564                0.83203857
               5.55749740                2.10474541               54.63412732                1.00000000               -0.53242434               -0.42139815                1.59835297               -0.18203969               -1.10903035                0.13476356
               6.55382413                1.73221970               54.40108177                1.00000000               -0.21133731               -0.01609366                0.31734073               -0.19326178               -0.99883683               -0.18979709
               7.55327066                1.35733347               54.17486464                0.66824291               -0.11986422                0.45151369               -0.99655677               -0.32800643                0.41458931               -0.78623246
               8.55142684                0.97802231               53.96881473                0.66568282                0.07757400                0.97288865               -2.30528336               -0.27172303                1.83841403                0.03425440
               9.55482214                0.59637882               53.76617770                0.61428213                0.62149583                1.30317029               -3.67111862               -0.23280352                2.17900264               -0.13249570
              10.56385676                0.21134993               53.56155018                0.39929577                1.03660075                1.73147785               -5.17235827               -0.30873010                3.04733066               -0.37310119
              11.57555415               -0.17679739               53.37086919                0.00010000               -4.92326974                2.05501527               -6.37055096              -11.83117102                9.94984402                0.08151952
              12.46539136               -0.79645159               53.30071761                0.00010000               -3.62650369                2.40682028               -6.86311172              -13.54685566               14.91422883               -2.74974137
              13.50302408               -1.36494355               53.29707644                0.85852541                2.37857501                0.60415575               -3.08382126              -11.20607690                9.17267588                0.29089150
              14.51296286               -1.70704087               53.10263277                1.00000000                0.99387881                0.83687505               -3.76372862               -0.32226927                0.08671313               -0.71613982
               4.93367334                3.46799339               54.77500205                1.00000000               -0.58953321               -0.79718523                2.60690487               -0.02483190               -0.17444499                1.11874696
               5.92777801                3.10053142               54.54701555                1.00000000               -0.40379298               -0.38049885                1.28073979                0.03558002               -0.25000488                0.21512256
               6.92559748                2.73205877               54.31762507                1.00000000               -0.03443592                0.02602406               -0.01575653                0.03301084               -0.11719190               -0.31969405
               7.92708929                2.36184860               54.09205543                0.48053783                0.17947286                0.47696236               -1.33968517               -0.07821866                1.76747064               -1.07016135
               8.92918693                1.98775120               53.89971911                0.52950843                0.43705016                0.93498840               -2.61862090               -0.09515747                3.13337715                0.08521150
               9.93583029                1.60941052               53.69965560                0.47799492                0.90853137                1.30427039               -3.92657414               -0.09510520                2.70302215               -0.13238611
              10.94735756                1.22866471               53.49563075                0.20343588                1.26564554                1.73055959               -5.30170519               -0.19309460                3.66657269               -0.59684702
              11.96114320                0.84375276               53.31131481                0.00010000               -1.16808366                1.71092738               -6.01058285              -12.26173459               15.64981035                1.35937493
              12.92399589                0.22761661               53.34501837                0.00010000               -5.74426259                1.39175946               -2.85959596              -21.29588653               23.62148308                0.06993138
              13.84625795               -0.35890199               53.37017048                0.94845258               -3.60791972                0.42042065               -1.54884886              -12.15487065               11.13229620                0.51306830
              14.85183749               -0.69867212               53.17162041                1.00000000                0.55795457                0.66832800               -2.30011170               -0.18703815                0.13437904               -0.45911442
               5.29889992                4.46047800               54.69395177                1.00000000               -0.47562881               -0.70157893                2.25551523               -0.02293315                0.04397228                1.37395242
               6.29414363                4.09713543               54.46149793                1.00000000               -0.28663776               -0.28940948                0.95159985                0.03411927                0.14741620                0.21731168
               7.29316716                3.73274018               54.23125378                0.81354730                0.09351105                0.11985462               -0.34247831                0.01810543                0.37453221               -0.62472848
               8.29601385                3.36687271               54.00316603                0.00010000                0.43973050                0.54089696               -1.64542941               -0.15059379                3.28943973               -1.32782345
               9.30196177                2.99672208               53.83078173                0.00010000                0.79963342                0.77048847               -2.89955664               -0.67034195                4.62143473                0.58468986
              10.31200652                2.62246423               53.63152814                0.00010000                1.18454266                0.80461413               -4.22693027               -1.22010074                2.92537048                3.01804818
              11.32565263                2.24596112               53.42377269                0.00010000                0.96805183                0.43621516               -5.57792581               -2.45595183                5.81210073                6.60783919
              12.33136756                1.85742116               53.28000669                0.00010000               -4.17621170               -1.69543104               -4.08869528              -15.68603249               23.19242726               11.42692316
              13.24212839                1.23138360               53.42679875                0.06895553               -7.25760784                2.68582037               -5.82360307              -25.03515858               31.57039838                4.86523141
              14.18621540                0.64346486               53.44207687                0.65043026               -2.66830153                0.09290484               -0.45286521              -12.44968198               11.06568225                0.51148161
              15.18876236                0.30632569               53.23945298                1.00000000                0.25469624                0.38849610               -1.29704342               -0.16348474                0.21395925               -0.44884658
               5.65989982                5.45396182               54.61219185                1.00000000               -0.37016126               -0.59388948                1.89106761               -0.03758934                0.16325252                1.19403537
               6.65619821                5.09474323               54.37436769                0.79887341               -0.18387597               -0.17782306                0.61068797                0.01144893                0.39645878               -0.06824072
               7.65622230                4.73445586               54.14133631                0.24275520                0.19486548                0.23787321               -0.64607034               -0.02501317                0.96225724               -1.10072374
               8.66009552                4.37266654               53.91457950                0.00010000                0.19831408                0.66999754               -1.95861477               -0.44726470                5.38983006               -1.19894443
               9.66018858                4.00316097               53.76957301                0.00010000                0.10468577                0.74063972               -2.92109285               -1.18873890                9.38979377                2.14264303
              10.66218923                3.62550281               53.62590818                0.00010000                0.15465069                0.34529136               -3.86011558               -2.17545365               10.36519727                6.10862081
              11.66328160                3.23738901               53.50016932                0.00010000               -0.00945781               -0.85789664               -4.28376958               -4.71719770               14.88924037               11.32647790
              12.66200008                2.80984414               53.44256751                0.00010000               -1.30162898               -3.25043149               -4.37501060              -11.28871013               22.34808285               13.65296201
              13.63724902                2.28133302               53.45709949                0.00010000               -6.98389266                3.50066802               -5.20090678              -17.20105716               27.44126065                2.70081646
              14.52232222                1.64295610               53.51344146                0.06198745               -5.72014317                7.55950050                0.36735065               -6.04736141               13.48050314               -7.27790562
              15.52284615                1.30909780               53.30652037                0.60334539                0.05239297                1.94348802               -0.77670153                7.38251385                0.36157749               -7.76084258
               6.01658530                6.44860021               54.52765767                1.00000000               -0.27067302               -0.48094262                1.53213551               -0.04496701                0.14344473                0.92931318
               7.01387857                6.09357897               54.28309388                0.49304434               -0.09208529               -0.05043820                0.24898193               -0.00018088                0.47018003               -0.45464993
               8.01474359                5.73749765               54.04513935                0.04761738                0.22424416                0.38468383               -0.98507075               -0.03447784                1.84166762               -1.64443714
               9.01836345                5.38027267               53.82768779                0.00010000                0.53035707                0.76072824               -2.04946807               -0.27996861                9.08249782                2.45016793
              10.02535073                5.01153487               53.73440749                0.00010000                0.79529759                0.68573511               -2.90745273               -0.74423781               14.61620273                3.57530200
              11.03426940                4.62937006               53.62789234                0.00010000                1.08083017                0.19081071               -3.60560332               -1.40656768               15.20080759                5.81118020
              12.04696734                4.22880319               53.54315542                0.00010000                1.36899732               -0.81804782               -4.01095461               -2.96382990               18.36338111                7.56893345
              13.06164935                3.79241253               53.49276973                0.00010000                0.90139775               -1.26333164               -4.17217476               -6.25093757               21.92672971                6.35545837
              14.06499529                3.30139696               53.47300567                0.00010000               -1.20729774                1.91395746               -3.78885442               -7.94080777               22.70892894                1.62358994
              15.03750339                2.79465487               53.42908164                0.10188846               -3.04330207               10.61575239               -5.23126048               -0.31140983               13.94700519               -5.66861114
              16.00412925                2.34519545               53.22757744                0.62922608               -3.33741439                5.59117719               -4.68253772                2.69902827                4.71745200              -10.30193823
               6.36904297                7.44434296               54.44067674                0.99577182               -0.17458160               -0.37716762                1.17930483               -0.03732628                0.01250642                0.74219465
               7.36729715                7.09373447               54.18824045                0.36777148               -0.01019612                0.06608461               -0.06145888                0.00730622                0.42948507               -0.62363245
               8.36883905                6.74214954               53.94414804                0.00010000                0.65808839                0.53497385               -1.30093289               -0.09852178                6.45228803               -1.99632465
               9.38045892                6.38788111               53.81167901                0.00010000                1.36836947                0.67834290               -2.06757248               -0.11642096               13.41687874                3.75276577
              10.39620643                6.01687567               53.70554047                0.00010000                1.81653213                0.39874436               -2.98344174               -0.74846784               16.16619745                3.67933890
              11.41678956                5.62931902               53.62531539                0.00010000                2.23780447               -0.10772835               -3.59705774               -1.44650077               18.57422593                4.84570716
              12.44096252                5.22102806               53.56220541                0.00010000                2.37989970               -0.65030652               -3.96244706               -2.81790335               20.83203009                5.42262669
              13.46438756                4.78457751               53.51938244                0.00010000                1.76139973               -0.44359159               -4.06006017               -4.83700232               23.06388455                4.56558157
              14.47619052                4.31961217               53.49091462                0.00010000                0.39539915                1.64617895               -4.16047320               -5.30758544               24.84197256                2.31147416
              15.47229554                3.85527115               53.47350977                0.15703942               -0.02224748                4.06096054               -4.67071961               -1.85787425               14.04164808                2.31852485
              16.47574557                3.42092134               53.22210226                0.66187255                0.34500301                5.25430260               -4.59584600                1.65262645                2.23780661               -2.51492516
               6.71705576                8.44105686               54.35245527                0.95221045               -0.08376396               -0.28648151                0.86769038               -0.03968328                0.03297539                0.69284337
               7.71621812                8.09490066               54.09367302                0.31472997                0.07853793                0.16019945               -0.35215640                0.02164278                0.34274833               -0.61010802
               8.71862652                7.74819713               53.84106518                0.00010000                1.25453888                0.64915638               -1.58141082               -0.29094391                8.91166106               -2.12495559
               9.74130890                7.39383952               53.75297284                0.00010000                2.51584728                0.50357278               -2.43914083               -0.49550809               17.85158760                1.05157099
              10.76894346                7.01950976               53.67654532                0.00010000                2.99390511                0.12408638               -3.16460461               -1.10424887               19.48451210                2.98455130
              11.80118700                6.62721549               53.61617701                0.00010000                3.32036577               -0.28520774               -3.70873803               -1.72342650               21.44189253                3.95503063
              12.83535078                6.21579706               53.57197595                0.00010000                3.25690952               -0.46359335               -4.00432555               -2.68094592               23.35979143                4.49770950
              13.86632519                5.78354070               53.54120083                0.00010000                2.63995820               -0.03702745               -4.07562060               -3.75966030               25.03848458                4.33502202
              14.88814994                5.33432054               53.52085333                0.01628966                1.63557728                1.06972980               -3.90711498               -4.10573169               26.64704723                3.52705378
              15.89903673                4.87587408               53.51375971                0.20915964                0.88657269                1.55673849               -3.02695454               -1.73515541               14.20436205                2.18342652
              16.90588140                4.45028150               53.23862202                0.68904550                0.68446611                2.17332780               -3.48285071                0.08563389                0.86089935               -0.61942898
               7.06056170                9.43861333               54.26454352                0.92870421                0.00280392               -0.20256454                0.58471221               -0.03962618                0.02263388                0.71271663
               8.06058974                9.09693846               53.99912492                0.30505371                0.17598010                0.24123989               -0.63590166                0.04117856                0.23048904               -0.60089901
               9.06408130                8.75513266               53.73781741                0.00010000                1.93231912                0.70918357               -1.83065995               -0.62573293               10.88232427               -2.11941493
              10.09923612                8.39795256               53.68464712                0.00010000                3.83320941                0.25292256               -2.71879616               -1.10233789               21.81423782                0.33872474
              11.14074549                8.01935740               53.63746056                0.00010000                4.33988053               -0.23469347               -3.40719433               -1.52776764               22.99609218                2.04979405
              12.18603373                7.62361487               53.60124558                0.00010000                4.51364528               -0.52326372               -3.85874873               -1.77056614               24.62987731                3.19196882
              13.23101840                7.21175619               53.57828887                0.00010000                4.23185694               -0.49626042               -4.02180833               -2.21024543               26.29877675                4.03106243
              14.27067087                6.78383696               53.56602354                0.00010000                3.53620518               -0.10340256               -3.88449513               -2.82240747               27.41354551                4.82902037
              15.30174250                6.34100676               53.55604657                0.04862443                2.54802993                0.39203123               -3.47205556               -3.35987516               27.52913224                5.08346136
              16.32163147                5.88640592               53.53768496                0.25651111                1.34504577                0.90148364               -2.28416295               -1.65718435               13.85428812                1.29141208
              17.32864342                5.46438790               53.24861339                0.70874857                0.70119452                1.16144649               -2.87606468               -0.01759652                0.34074131               -0.94352248
               7.39961298               10.43700557               54.17676260                0.92402631                0.09093766               -0.11663591                0.29703145               -0.04030866                0.00795715                0.70724878
               8.40052236               10.09972546               53.90472817                0.33402499                0.27423850                0.31525085               -0.91658453                0.04471606                0.12644242               -0.57882848
               9.40509775                9.76238080               53.63498117                0.00010000                2.72575223                0.72069227               -2.07451523               -1.17282853               12.67194797               -1.84977905
              10.45503740                9.39889797               53.61306205                0.00010000                5.38140267               -0.24898662               -2.98118677               -1.84779039               25.45882142                0.11128447
              11.51272581                9.01481589               53.59234270                0.00010000                5.91697391               -0.84792420               -3.63753070               -1.65383893               26.38723208                1.42158182
              12.57337688                8.61675021               53.58006913                0.00010000                5.90989829               -0.92270689               -3.99594120               -1.44428971               27.99463449                2.40103645
              13.63092377                8.20587185               53.58113939                0.00010000                5.36247906               -0.81211720               -3.96307034               -1.48142727               29.93569651                3.39698354
              14.68062646                7.78147265               53.59694729                0.00010000                4.37298536               -0.53380970               -3.41262756               -1.77934596               31.08286783                4.92943454
              15.71838348                7.34216116               53.61133290                0.08117472                3.09427249               -0.22317266               -2.61132403               -2.19404695               27.78010887                8.21195221
              16.74251191                6.89390375               53.55347944                0.29953625                1.55910150                0.71109003               -2.11178072               -1.39263608               12.30124653                0.87466945
              17.74956551                6.47351043               53.25280863                0.72120481                0.70535960                0.84824888               -2.64905311                0.01373794                0.15049009               -1.34957813
               7.73431575               11.43628062               54.08881398                0.89014714                0.17930828               -0.02670459                0.00549500               -0.04420247                0.01249790                0.60734132
               8.73610883               11.10324348               53.81050147                0.36495642                0.35682329                0.39054023               -1.20548057                0.01407243                0.25100318               -0.49754664
               9.74145222               10.76954651               53.53684091                0.00010000                3.68681942                0.72440721               -2.32691859               -2.06150170               14.40995543               -1.13440711
              10.80984522               10.39297283               53.54093402                0.00010000                7.41821287               -1.50881189               -3.22729655               -2.00977398               28.64747531                0.09451092
              11.88981647               10.00239891               53.54230323                0.00010000                7.81233794               -1.55177781               -3.84332741               -1.20767088               29.49229261                0.79544401
              12.96609198                9.60516073               53.55097733                0.00010000                7.34254736               -1.42300671               -4.10806255               -0.75420960               31.27200585                1.37507512
              14.03666742                9.19551385               53.57526478                0.00010000                6.63513313               -1.27140272               -3.87261381               -0.72318822               33.80844932                2.05978762
              15.09879464                8.77316077               53.62201929                0.00010000                5.43815169               -1.18654442               -2.91844049               -0.92572987               37.40938687                3.38426509
              16.14543045                8.33654331               53.70626674                0.12808847                3.18174209               -0.62343653               -0.60548723               -0.91017903               28.55620208                7.01353978
              17.16242948                7.90062772               53.56704327                0.35760257                1.21371882                0.67307242               -2.20751852               -0.82476004                8.68479882                0.70435059
              18.16970483                7.48135288               53.25395175                0.72439964                0.72753459                0.78689491               -2.61788915                0.02695961               -0.03011146               -1.20795311
               8.06480321               12.43647148               53.99915174                0.94868366                0.27347025                0.01908604               -0.28970795                0.15522498                0.28189583                0.51378144
               9.06753792               12.10753626               53.71745346                0.72410327                0.46675758                0.42927856               -1.50521628                0.16278165                0.88359353               -0.41797856
              10.07413836               11.77686894               53.44763309                0.45459690                5.72258026                0.73224326               -2.61946728               -3.67211127               16.13516189               -0.65181380
              11.18198952               11.36872174               53.46991684                0.36854822               10.11230640               -2.42510944               -3.47092795               -2.44000023               31.25160195               -0.01548586
              12.27638449               10.98378034               53.48623008                0.36029462                9.15941188               -1.86185778               -4.02333011               -0.36478077               32.10087003                0.38695488
              13.36517776               10.58829008               53.51036462                0.36712831                8.60377379               -1.68706476               -4.19791379               -0.25824897               34.10067366                0.72050337
              14.44845997               10.18044380               53.55179561                0.38874204                7.79523213               -1.50700486               -3.84515371               -0.34816119               37.11031125                1.12270787
              15.52108240                9.75774176               53.62158774                0.42566077                6.21264892               -1.54190097               -2.64104419               -0.30879230               41.51357174                2.00503469
              16.57271295                9.32969243               53.73808517                0.59246763                3.00623740               -0.68508795               -0.31362932                0.20942163               30.48399667                3.90055506
              17.58120715                8.90736520               53.57887026                0.71267044                0.79707232                0.67374826               -2.33331370               -0.14443872                8.62446502                0.62580721
              18.58865439                8.48924833               53.26175106                0.86379826                0.74472440                0.78954505               -2.65871186                0.08326863                0.68778000               -0.94062264
               4.79084599                2.57318356               55.89153557                1.00000000               -0.69823076               -0.85296274                2.95841796               -0.25672818               -0.79421693                0.79379165
               5.78386369                2.19476277               55.65008291                1.00000000               -0.52133171               -0.41921159                1.58784622               -0.19231682               -1.02820575                0.12880644
               6.78041936                1.81551158               55.40391914                1.00000000               -0.17199387               -0.00080830                0.25377549               -0.20150276               -0.91960352               -0.17579808
               7.78042381                1.43412962               55.16421267                0.65854102                0.00908046                0.47188352               -1.12099136               -0.31201608                0.43705698               -0.75788338
               8.78060097                1.04907216               54.94422184                0.64349427                0.28730528                1.01404332               -2.57237502               -0.28169907                1.73930956                0.05081230
               9.78616992                0.66264121               54.72737157                0.58012149                0.82118144                1.37923815               -4.02457093               -0.23856416                1.93048208               -0.15548422
              10.79702460                0.27348900               54.50783039                0.34434201                1.10494022                1.81286017               -5.51139256               -0.36043983                2.88042982               -0.48086518
              11.80826872               -0.11975351               54.30746441                0.00010000               -6.98734364                2.01090042               -6.35207149              -17.29743702               10.70794171               -0.15528691
              12.65727773               -0.85363866               54.24923028                0.00010000               -5.61387288                4.64625186               -5.70643319              -18.30292693               16.83378317               -0.05751884
              13.69599126               -1.44167810               54.25894240                0.77304080                2.73133803                1.00443385               -5.02478290              -11.68821862                9.91562398                0.60040416
              14.71190449               -1.79088226               54.05721064                1.00000000                1.59132245                1.30458043               -5.85524231               -0.50846016                0.11575726               -0.76701407
               5.16669951                3.56465393               55.80129511                1.00000000               -0.59229965               -0.80590703                2.63999004               -0.02863449               -0.14883923                1.07095319
               6.16077651                3.19057065               55.55978128                1.00000000               -0.39893000               -0.37736504                1.26861069                0.03130931               -0.20548743                0.20636958
               7.15872091                2.81550350               55.31714037                1.00000000               -0.01265749                0.04229501               -0.07724007                0.03082625               -0.07370577               -0.30449753
               8.16052336                2.43884846               55.07800142                0.47085596                0.24036394                0.50184792               -1.45886681               -0.04490592                1.78997618               -1.02411453
               9.16352818                2.05921259               54.87204850                0.50966578                0.55262474                1.00460432               -2.89933876               -0.09093529                3.15689928                0.10939887
              10.17157585                1.67643359               54.65846554                0.44844868                1.05446894                1.39404365               -4.28967507               -0.08135666                2.69633163               -0.19289380
              11.18461756                1.29161760               54.44079012                0.15897407                1.36411627                1.82094456               -5.66418654               -0.30567558                4.09339293               -0.77100385
              12.19885818                0.90035549               54.25237727                0.00010000               -2.47034063                0.97313471               -5.81432699              -16.96035664               17.20223560                2.22799893
              13.13521075                0.19282386               54.29591234                0.00010000               -7.55636520                3.74963327               -5.11297830              -25.48805846               27.08751661                3.06873264
              14.04773087               -0.43163376               54.35200425                0.77905700               -3.95933530                0.69352540               -2.60647938              -13.59102396               13.04354083                0.83115710
              15.05602404               -0.77783646               54.14579461                1.00000000                0.82931693                1.00188776               -3.49730286               -0.30288490                0.39610978               -0.51387420
               5.53843987                4.55706542               55.71673217                1.00000000               -0.47995580               -0.70739586                2.29010731               -0.02653534                0.06534702                1.30750820
               6.53364031                4.18721547               55.47096324                1.00000000               -0.28408938               -0.28584785                0.93870928                0.03198016                0.17891017                0.19778723
               7.53275808                3.81635748               55.22750296                0.80896514                0.10881433                0.13628791               -0.40274089                0.02485806                0.40632639               -0.59894262
               8.53581660                3.44416658               54.98607812                0.00010000                0.42195242                0.56826671               -1.75527735               -0.06722727                3.30851925               -1.27165090
               9.54119713                3.06916424               54.80026037                0.00010000                0.81605892                0.73234952               -3.22416345               -0.61457257                4.73114811                0.75387618
              10.55213777                2.69052208               54.58737990                0.00010000                1.28960308                0.61900315               -4.61762639               -1.17736605                3.05795151                3.27583577
              11.56698919                2.30990789               54.36616170                0.00010000                0.78587778               -0.10146011               -5.95819512               -3.21934410                7.76312877                7.20529193
              12.56785533                1.89970918               54.24505137                0.00010000               -4.37416897               -3.24230618               -2.60225170              -18.70156309               24.28954130               10.36222855
              13.47950581                1.22135400               54.37026666                0.04838999               -8.65121167                4.23176042               -5.15827162              -29.08804177               33.56704310                4.11533931
              14.39483110                0.57219241               54.43739189                0.58879946               -4.06268171                0.20889222               -0.71698505              -15.10833171               14.25392881                0.49212854
              15.39825218                0.22915549               54.22574138                1.00000000                0.34210799                0.52920509               -1.94391915               -0.15958417                0.52694639               -0.96526812
               5.90586870                5.55050601               55.63132371                1.00000000               -0.37446527               -0.59709094                1.92629169               -0.03936476                0.18187056                1.12635502
               6.90212405                5.18485369               55.38039933                0.77398441               -0.18008758               -0.17613491                0.59459877                0.01528102                0.43204197               -0.10422013
               7.90226695                4.81822925               55.13452759                0.22760637                0.21239983                0.25229461               -0.70787809               -0.00975057                0.98288775               -1.08164000
               8.90637205                4.45021379               54.89439623                0.00010000                0.13071379                0.68844616               -2.05638026               -0.46741140                5.53877759               -1.03027027
               9.90488123                4.07385958               54.73926762                0.00010000                0.04564203                0.53736414               -3.11675818               -1.24658802                9.70586297                2.36380861
              10.90728489                3.68881366               54.58587270                0.00010000                0.30811783               -0.15605838               -4.12556180               -2.40371242               11.04796776                6.51341447
              11.91104358                3.28958840               54.45653521                0.00010000                0.30479572               -1.91653459               -4.40559259               -5.77489176               16.12838214               11.80521537
              12.91338080                2.83550937               54.39868006                0.00010000               -1.50384481               -4.31232291               -4.35682730              -12.87005819               23.27403747               12.19505552
              13.88096669                2.27745907               54.40712521                0.00010000               -8.78090265                3.67458104               -4.61844848              -20.64531434               30.80182188                1.84601331
              14.73776275                1.57254408               54.51728781                0.04820753               -7.10302513                8.91220694                0.35134718               -6.84025911               16.86154729              -10.79182120
              15.73890619                1.23274765               54.29734209                0.60517927                0.11434361                2.26431531               -1.26087848                8.85339464                0.46742913              -10.74409485
               6.26895721                6.54512360               55.54319411                1.00000000               -0.27345240               -0.48312104                1.56749449               -0.04395236                0.13155738                0.86744400
               7.26622269                6.18369277               55.28547423                0.47725987               -0.08771215               -0.05252154                0.22637349                0.01288524                0.49007771               -0.47358015
               8.26720297                5.82140337               55.03495540                0.03561074                0.23076750                0.38735900               -1.04955785               -0.00800862                1.98096507               -1.63034539
               9.27083804                5.45793550               54.80683753                0.00010000                0.52312658                0.67943994               -2.08674231               -0.39847591                9.36911781                2.69706810
              10.27766550                5.07991153               54.70425921                0.00010000                0.87483352                0.44758986               -3.09603145               -0.92047001               15.06185344                3.63935940
              11.28833471                4.68740092               54.59050156                0.00010000                1.35650705               -0.30120191               -3.85003354               -1.77333081               15.92555919                5.82612798
              12.30479564                4.27157720               54.50149598                0.00010000                1.71243939               -1.54415431               -4.30685994               -3.83713464               19.38841865                7.23229532
              13.32258350                3.81346272               54.44922977                0.00010000                1.23845827               -1.65425976               -4.51459317               -7.67898794               23.27022693                5.48008014
              14.32956481                3.29484562               54.43193878                0.00010000               -0.99230821                1.83038362               -4.38690840               -9.54555826               23.22490051                0.51793024
              15.30273733                2.75043655               54.37372720                0.08657640               -3.73259337               12.91642176               -5.64251085               -0.30193665               14.13796641              -10.22512573
              16.25491294                2.27444180               54.17727876                0.62865224               -4.78243924                7.59475835               -5.54456568                3.13132348                5.97317563              -14.41749349
               6.62785132                7.54084359               55.45261467                0.97867619               -0.17493366               -0.37955618                1.21311245               -0.03614293                0.02590538                0.70768542
               7.62610198                7.18380326               55.18750394                0.35685057                0.00063617                0.06197650               -0.08618271                0.01965862                0.44306741               -0.60893580
               8.62786404                6.82597643               54.93074324                0.00010000                0.68961945                0.51966014               -1.37391170               -0.14830428                6.66840199               -1.95650899
               9.63989437                6.46380259               54.78972472                0.00010000                1.45711846                0.53495011               -2.28783538               -0.30371253               13.75708296                3.71498250
              10.65700641                6.08281138               54.67445565                0.00010000                2.01291146                0.16973377               -3.21142003               -1.04593640               16.59838975                3.53919086
              11.68015260                5.68278962               54.58769889                0.00010000                2.56163364               -0.48218456               -3.91420879               -1.95913954               19.24634900                4.54609118
              12.70823909                5.25870531               54.52043595                0.00010000                2.81900071               -1.04642028               -4.39388643               -3.67739972               21.73884645                4.87888544
              13.73653262                4.80242417               54.47582620                0.00010000                2.24213067               -0.64498847               -4.67812076               -5.99867047               24.02827841                3.71681736
              14.75308170                4.31406674               54.44509272                0.00010000                0.77976117                1.93594280               -5.05965287               -6.40323044               25.37309528                1.10967712
              15.75212784                3.83087252               54.41870864                0.13368510                0.02202228                5.65220362               -6.47864130               -2.28166635               14.79430536                1.93468573
              16.75352215                3.38464281               54.17123890                0.65124433                0.13943051                7.74500259               -5.95793061                2.33003874                3.39602346               -3.48894174
               6.98231502                8.53753248               55.36129159                0.94065891               -0.08319952               -0.28785141                0.90535187               -0.03748367                0.04425845                0.69914410
               7.98148302                8.18493230               55.08997363                0.30590962                0.09612706                0.15701348               -0.38789552                0.02577721                0.34996343               -0.58800607
               8.98423756                7.83179657               54.82476288                0.00010000                1.32229112                0.62944519               -1.67155739               -0.39583771                9.08598703               -2.06651528
              10.00792884                7.46863451               54.72748811                0.00010000                2.67610940                0.40942624               -2.64299908               -0.75874673               18.20363754                0.85802241
              11.03775975                7.08330620               54.64331856                0.00010000                3.26645717               -0.04956122               -3.46829883               -1.51402242               19.93846604                2.68744518
              12.07325799                6.67775723               54.57705584                0.00010000                3.69266742               -0.50949710               -4.11723510               -2.30644481               22.05173511                3.52239115
              13.11161309                6.25064879               54.52930200                0.00010000                3.69953373               -0.65075285               -4.55834404               -3.47144653               24.13706032                3.93203076
              14.14724866                5.80056295               54.49705738                0.00010000                3.07193801               -0.02505604               -4.82695935               -4.67925516               25.97135589                3.68348427
              15.17305185                5.33356448               54.47752078                0.00467116                1.96396348                1.52158408               -4.93063845               -4.75443068               28.02577679                3.03448731
              16.18652793                4.86348062               54.47933784                0.18541087                1.04606350                2.39215946               -4.24835312               -1.94477182               15.34581808                3.03971154
              17.19397312                4.42934185               54.20172604                0.67389318                0.74451931                3.15879081               -4.16688485                0.14865124                1.44341059               -0.03648703
               7.33230200                9.53508656               55.27056153                0.91989775                0.00514260               -0.20393615                0.61759789               -0.03995716                0.02038337                0.73175030
               8.33235343                9.18694353               54.99254274                0.29559313                0.19715388                0.24207296               -0.67872510                0.03732381                0.24153295               -0.57908648
               9.33624508                8.83856534               54.71889969                0.00010000                2.04281896                0.70449195               -1.94379210               -0.77320511               11.04589830               -2.06085768
              10.37320981                8.47199111               54.65618320                0.00010000                4.06790813                0.20096717               -2.96810301               -1.41124415               22.12382855                0.16303734
              11.41760324                8.08182015               54.60153583                0.00010000                4.67356540               -0.33261227               -3.77893555               -1.95891865               23.42488849                1.71675273
              12.46668112                7.67259968               54.56026890                0.00010000                4.92005918               -0.62794198               -4.35682099               -2.30951758               25.21828812                2.75780604
              13.51600443                7.24569025               54.53516804                0.00010000                4.66753535               -0.53034006               -4.65963571               -2.83466810               27.08407115                3.58811582
              14.56003182                6.80192305               54.52378749                0.00010000                3.95354963                0.03070111               -4.68078622               -3.43639183               28.42626371                4.60234817
              15.59507542                6.34449842               54.51784565                0.04218023                2.87116034                0.72235475               -4.35289841               -3.76348589               29.12869004                5.24694685
              16.61745503                5.87871571               54.51340508                0.23768154                1.48486401                1.21340501               -2.73377368               -1.77796835               14.94294634                1.69479610
              17.62477270                5.44781863               54.21961086                0.69221157                0.73176696                1.42365465               -3.04206112               -0.05445966                0.52785329               -0.47027600
               7.67780194               10.53345375               55.17988562                0.91681641                0.09487852               -0.12076191                0.32810353               -0.04192752                0.00902491                0.72281851
               8.67875072               10.18977376               54.89528772                0.32147534                0.29619668                0.32391280               -0.97048378                0.03754033                0.15517258               -0.56363495
               9.68372587                9.84588641               54.61353780                0.00010000                2.88492095                0.74007219               -2.20832198               -1.34793477               12.83658356               -1.80455340
              10.73644914                9.47265385               54.58177469                0.00010000                5.71234690               -0.27362088               -3.27964802               -2.17015278               25.73683520               -0.02636185
              11.79797281                9.07665396               54.55385631                0.00010000                6.33741962               -0.90033741               -4.07528825               -2.03045263               26.80635301                1.15022448
              12.86319754                8.66519839               54.53747985                0.00010000                6.38117728               -0.95301238               -4.56340279               -1.84687762               28.62467912                2.05914981
              13.92559636                8.24004199               54.53854842                0.00010000                5.82575619               -0.77998906               -4.64145873               -1.86951157               30.91605248                3.12922824
              14.97971266                7.80117698               54.55996624                0.00010000                4.76965625               -0.40457048               -4.12332688               -2.08481199               32.36533165                5.04838544
              16.02098948                7.34801158               54.58252391                0.08160766                3.39678473               -0.09215944               -3.31794709               -2.37301179               29.07445489                9.48739187
              17.04764835                6.88774872               54.53194638                0.28797234                1.68443020                0.81479569               -2.26299616               -1.50051703               12.91626139                0.88854483
              18.05467809                6.45781495               54.22691137                0.70437886                0.70297311                0.88244087               -2.58036852                0.00825717                0.20200417               -1.09502421
               8.01882345               11.53267133               55.08900787                0.88074532                0.18481300               -0.03378486                0.03453329               -0.04555320                0.01553933                0.61947687
               9.02067158               11.19342179               54.79811891                0.34654958                0.37914238                0.40704586               -1.26990836                0.00700815                0.29967117               -0.49303724
              10.02640629               10.85336678               54.51280929                0.00010000                3.91838162                0.75784799               -2.47976360               -2.26411983               14.59679138               -1.11646594
              11.09903921               10.46651870               54.50706468                0.00010000                7.90216801               -1.58562560               -3.55859134               -2.25937202               28.93549775                0.03089006
              12.18444965               10.06381341               54.50162454                0.00010000                8.36581615               -1.60418892               -4.32119667               -1.44158361               29.94751032                0.64564448
              13.26635553                9.65353943               54.50719189                0.00010000                7.90929765               -1.43666755               -4.70910380               -0.96691880               32.00498992                1.18213035
              14.34263561                9.23009047               54.53372647                0.00010000                7.20052337               -1.24435243               -4.54277546               -0.89632288               35.03993625                1.93416005
              15.41036600                8.79383164               54.59058018                0.00010000                5.92039171               -1.15249571               -3.52651773               -1.06349001               39.67958245                3.58379009
              16.46104344                8.34265523               54.70016314                0.13914329                3.36376604               -0.55683337               -0.69359383               -0.94125236               29.43244617                8.08703212
              17.47764132                7.89501162               54.54480634                0.35632046                1.18809740                0.71401691               -2.29892578               -0.87835957                8.05149176                0.59090578
              18.48480539                7.46546745               54.22869989                0.70781140                0.71640693                0.74850519               -2.45526855                0.03134812                0.01168144               -1.06824588
               8.35538995               12.53277806               54.99637500                0.94316779                0.28054797                0.01067288               -0.26326808                0.17031245                0.28339698                0.52298296
               9.35819543               12.19791467               54.70203961                0.71304243                0.49783071                0.44928857               -1.57743367                0.16565147                0.93745018               -0.41913947
              10.36534657               11.86104337               54.42065213                0.45193206                6.13098225                0.76765911               -2.78042832               -3.95463953               16.36154263               -0.65383636
              11.48081508               11.44094134               54.43363298                0.36835718               10.83869199               -2.55773601               -3.80157082               -2.64607280               31.63837654                0.00514110
              12.58212041               11.04457018               54.44383940                0.36036551                9.83835078               -1.92432276               -4.49051302               -0.45673981               32.69021512                0.36195132
              13.67758209               10.63646503               54.46586501                0.36688815                9.26286390               -1.70743932               -4.77141871               -0.34810574               34.98264657                0.68477898
              14.76737769               10.21515494               54.51084965                0.38780772                8.41480042               -1.49355312               -4.46109501               -0.44269093               38.55209960                1.14035415
              15.84587810                9.77812706               54.59356712                0.42403375                6.68033853               -1.57045807               -3.11524400               -0.36279145               43.85518604                2.27424788
              16.90098446                9.33687491               54.73483469                0.60163525                3.06954225               -0.57803223               -0.44475905                0.18920120               31.01802982                4.14408017
              17.90726895                8.90202906               54.55559675                0.71497764                0.67044698                0.70174365               -2.37461988               -0.24173027                7.72016860                0.53415044
              18.91439340                8.47278505               54.23636838                0.85514020                0.71244485                0.73176033               -2.42806950                0.03439987                0.68940487               -0.82706955
               5.03149360                2.67277846               56.92122945                1.00000000               -0.69438902               -0.85626018                2.96819669               -0.26230556               -0.74475444                0.76060152
               6.02454971                2.28792479               56.66588424                1.00000000               -0.50956538               -0.41463073                1.56823089               -0.19853080               -0.95784248                0.12375060
               7.02130230                1.90226129               56.40615728                1.00000000               -0.14203065                0.01237136                0.19809878               -0.20623206               -0.85756371               -0.16219127
               8.02170910                1.51459830               56.15244481                0.64866060                0.08759161                0.49025600               -1.21721706               -0.31664455                0.40910670               -0.72810587
               9.02305413                1.12338523               55.91736723                0.62210167                0.40570609                1.05154066               -2.75864716               -0.29518824                1.59817715                0.04626523
              10.02982322                0.73108120               55.68568628                0.54733945                0.91591911                1.44631223               -4.26076147               -0.25939571                1.71979071               -0.19143609
              11.04137251                0.33581316               55.45132233                0.29118392                0.92449344                1.91001539               -5.74993302               -0.64638474                2.96203531               -0.57910852
              12.04831309               -0.06972885               55.24382776                0.00010000               -9.53917343                2.04546335               -6.38637374              -21.16370118               11.01166296               -0.38853156
              12.85058904               -0.89096607               55.18658895                0.00010000               -7.74784482                5.89209647               -6.89397761              -21.91349685               17.14100035                0.94500279
              13.89335620               -1.53905918               55.19658078                0.69568938                3.40762397                1.83308316               -8.13474927              -14.04012141                9.99032804                0.94004071
              14.91874152               -1.89954909               54.98552792                1.00000000                2.53853266                2.20687478               -9.29508626               -0.70524552                0.09694466               -1.05296842
               5.41372422                3.66421586               56.82780185                1.00000000               -0.59012233               -0.80894471                2.65027802               -0.03118137               -0.12568545                1.02954097
               6.40782299                3.28377849               56.57238777                1.00000000               -0.39104974               -0.37258374                1.24958943                0.02852337               -0.16598023                0.19833078
               7.40590322                2.90238500               56.31608026                1.00000000                0.00788440                0.05564123               -0.12963411                0.02994415               -0.04174241               -0.29069881
               8.40798068                2.51950086               56.06287809                0.46516154                0.29787870                0.52232932               -1.54908510               -0.03833195                1.74076573               -0.97530261
               9.41186080                2.13390064               55.84173233                0.49374885                0.65173087                1.05976244               -3.12542538               -0.08638551                3.08912461                0.08660675
              10.42101530                1.74554432               55.61386210                0.42312699                1.17264445                1.47462944               -4.59574544               -0.07731630                2.66891550               -0.27725466
              11.43531369                1.35491332               55.38234702                0.11887796                1.45251996                1.92543557               -6.00552668               -0.64736580                4.81281752               -0.92343923
              12.45006570                0.95072579               55.19502827                0.00010000               -3.45972227               -0.59541044               -5.51218316              -21.11090444               18.85550328                3.75037419
              13.36611924                0.16795489               55.24275880                0.00010000               -9.64096045                4.67217922               -5.43084136              -30.04572245               29.76408158                3.42482158
              14.25724649               -0.52072835               55.31804090                0.62074261               -4.69701310                1.35415303               -4.91635127              -16.14860887               14.49731564                1.44166530
              15.27217898               -0.87748034               55.10167436                1.00000000                1.49324884                1.75109658               -6.11607886               -0.48215952                0.84481725               -0.70986403
               5.79174473                4.65659957               56.73975392                1.00000000               -0.47936834               -0.70944424                2.30467378               -0.02955682                0.08585687                1.24889576
               6.78695104                4.28047312               56.48027212                1.00000000               -0.27829599               -0.28153269                0.92103567                0.02933533                0.20893452                0.17787600
               7.78617881                3.90337411               56.22319896                0.80195167                0.12378900                0.14928077               -0.45206546                0.02758517                0.43715430               -0.57655888
               8.78942682                3.52504489               55.96806048                0.00010000                0.45520755                0.59004361               -1.83078080               -0.03216360                3.21953672               -1.20938399
               9.79528296                3.14458048               55.76629846                0.00010000                0.89186975                0.62688330               -3.52291141               -0.67512624                4.69114474                0.96693393
              10.80726422                2.76057379               55.53917562                0.00010000                1.39803856                0.35525554               -4.99186116               -1.26964524                3.15337898                3.60120516
              11.82324373                2.37432188               55.30460879                0.00010000                0.28946062               -0.83771371               -6.32713185               -5.22413272               10.78179544                7.99720509
              12.81305343                1.91836294               55.22796165                0.00010000               -5.10574999               -5.05794667               -1.20592543              -22.25096206               25.81148275                8.50524640
              13.72112873                1.20247751               55.32363332                0.02856087               -9.86170888                4.43131358               -4.38903547              -33.08902989               34.79214476                3.44793143
              14.61581925                0.48802388               55.42773717                0.53685220               -4.92632030                0.57563585               -1.55274637              -17.74574386               16.95260919                0.78246880
              15.62260232                0.13547284               55.20057460                1.00000000                0.67830700                1.00794299               -3.56865221               -0.25974503                0.80992916               -1.62572161
               6.16538598                5.65002698               56.65071769                1.00000000               -0.37508217               -0.59707203                1.94387283               -0.04234092                0.20134834                1.06559863
               7.16163516                5.27814783               56.38625966                0.74615496               -0.17514107               -0.17351798                0.57695247                0.01557112                0.47104817               -0.14445135
               8.16188316                4.90537062               56.12717875                0.21072183                0.22479406                0.26504935               -0.75720933               -0.00126533                1.01758592               -1.07325102
               9.16613104                4.53130173               55.87345189                0.00010000                0.04731059                0.69203234               -2.11952281               -0.59585655                5.67233375               -0.82556426
              10.16282937                4.14643831               55.70723785                0.00010000               -0.01250198                0.22767771               -3.25465850               -1.55057465                9.97375088                2.65861758
              11.16588100                3.75264943               55.54339695                0.00010000                0.51062516               -0.82536848               -4.32701673               -2.99998339               11.78448959                6.99987394
              12.17304187                3.33815904               55.41205747                0.00010000                0.55049113               -3.23867596               -4.48068343               -7.51594039               17.54145755               12.32527361
              13.17689082                2.84956685               55.35543097                0.00010000               -1.91820837               -4.67474781               -4.36589618              -14.90101122               24.73839172                9.57520107
              14.13467771                2.25658116               55.36473052                0.00010000              -10.37772697                3.56552684               -4.01207636              -23.74576741               34.35700516                0.09613229
              14.96933628                1.49078437               55.52046840                0.04353856               -8.12957735               10.03538226                0.04618876               -7.73995816               20.27400104              -14.54154035
              15.97208616                1.14267852               55.28130280                0.61668136                0.27498761                2.37379663               -2.33172552                9.88378083                0.80050582              -14.27212825
               6.53465620                6.64465813               56.55900756                1.00000000               -0.27373689               -0.48138922                1.58661892               -0.04570880                0.11997740                0.81689358
               7.53191883                6.27700276               56.28762135                0.45930020               -0.08282973               -0.05457374                0.20322852                0.02058716                0.51756017               -0.49776418
               8.53299960                5.90867510               56.02414820                0.02253166                0.22615879                0.39206345               -1.10667969               -0.00070430                2.18575302               -1.63536517
               9.53644200                5.53888553               55.78595294                0.00010000                0.49620821                0.51142221               -2.05078928               -0.68919672                9.65344194                2.86668092
              10.54292377                5.14913404               55.67248686                0.00010000                0.95509046                0.10809153               -3.21733254               -1.37242151               15.44322838                3.66359369
              11.55554381                4.74406642               55.55089167                0.00010000                1.65418671               -0.94814344               -4.03458366               -2.48652188               16.63178554                5.77928813
              12.57600750                4.30954836               55.45701822                0.00010000                2.05336382               -2.36796501               -4.56249759               -5.23140799               20.41366559                6.66913185
              13.59661109                3.82486799               55.40247787                0.00010000                1.44941833               -1.92403016               -4.82564434               -9.61773932               24.54863771                4.16687650
              14.60499587                3.27378805               55.38526750                0.00010000               -1.08441756                1.98212740               -4.92117684              -11.50220895               23.95236088               -1.64261514
              15.57492274                2.68873153               55.31623143                0.07516180               -4.42531102               14.87849286               -5.89554955               -0.90700422               14.46936969              -16.00333647
              16.51648965                2.18294877               55.11668612                0.63378807               -5.84330911                9.20083541               -6.61430453                2.74769257                7.15918444              -19.13133120
               6.89978254                7.64039919               56.46493899                0.96096566               -0.17526096               -0.37826246                1.24327284               -0.03825082                0.03403635                0.68844619
               7.89802993                7.27705636               56.18651680                0.34589365                0.01018788                0.05494888               -0.11076496                0.03199844                0.46454921               -0.60152477
               8.89998630                6.91321188               55.91666981                0.00010000                0.69291177                0.50176323               -1.43700162               -0.28470007                6.86484389               -1.94085979
               9.91188817                6.54153018               55.76592230                0.00010000                1.51068782                0.28279799               -2.42866480               -0.71138929               14.09021243                3.55859081
              10.93020006                6.14860014               55.64131207                0.00010000                2.19240370               -0.14777768               -3.37937461               -1.63111649               17.02306939                3.29309836
              11.95573624                5.73368656               55.54703121                0.00010000                2.87060438               -0.94865555               -4.18736035               -2.85529732               19.85085376                4.09405851
              12.98761214                5.29079974               55.47432768                0.00010000                3.22800521               -1.49213886               -4.80808417               -5.02586812               22.51866878                4.09632596
              14.02029635                4.81108625               55.42582003                0.00010000                2.65789235               -0.78094448               -5.32433159               -7.68267958               24.78415736                2.46212394
              15.04076999                4.29622371               55.38972157                0.00010000                1.08695640                2.42346541               -6.07018703               -8.06714393               25.32104445               -0.68366752
              16.04203547                3.78835423               55.34393694                0.10818942               -0.10822362                7.66201696               -8.46215635               -3.13516966               15.32237981                0.09740399
              17.03860552                3.32669522               55.10294365                0.64233451               -0.34299560               10.91155081               -8.12496657                2.50827777                5.05584280               -5.57105734
               7.26057685                8.63709288               56.37056231                0.92882223               -0.08307444               -0.28724391                0.94283745               -0.03789344                0.04296800                0.71166471
               8.25974610                8.27810174               56.08591511                0.29781748                0.11274669                0.14931423               -0.41940014                0.03348935                0.36197462               -0.57495665
               9.26283178                7.91871036               55.80763403                0.00010000                1.35399310                0.59643526               -1.74753629               -0.60938689                9.24924435               -2.03733295
              10.28682596                7.54454149               55.70011286                0.00010000                2.76566337                0.26982743               -2.80854169               -1.26717450               18.51319853                0.59807582
              11.31814505                7.14617848               55.60717935                0.00010000                3.47061461               -0.27227169               -3.73068265               -2.22453403               20.33288903                2.24893066
              12.35623826                6.72509331               55.53383230                0.00010000                3.99727004               -0.76697934               -4.50662172               -3.27209309               22.55014363                2.89808150
              13.39809045                6.27970558               55.48080907                0.00010000                4.06476363               -0.82638307               -5.14074936               -4.71375599               24.72114897                3.10395871
              14.43753353                5.80924910               55.44466164                0.00010000                3.41472813                0.09444061               -5.69340163               -6.06130174               26.58889177                2.68337663
              15.46638501                5.32225736               55.42224057                0.00010000                2.21071500                2.23594308               -6.27679052               -5.66742603               28.95834837                2.10829021
              16.48174783                4.84197187               55.42879265                0.15578368                1.17940964                3.96695391               -6.64280451               -2.21939278               16.58932391                3.86600442
              17.48997320                4.40117979               55.15528432                0.65806097                0.82253749                5.15509141               -5.73229970                0.32996248                2.67913311                0.60647691
               7.61700696                9.63465431               56.27689548                0.91129984                0.00752789               -0.20386398                0.64883222               -0.04054551                0.02006255                0.75380328
               8.61708224                9.28004264               55.98555042                0.28670995                0.21759244                0.23874237               -0.71752590                0.03569031                0.25928640               -0.56623178
               9.62135881                8.92514059               55.69894157                0.00010000                2.09971611                0.68348866               -2.04380311               -1.03026242               11.18173667               -2.03567824
              10.65907656                8.54692672               55.62528506                0.00010000                4.18993776                0.14738841               -3.19790567               -1.96781274               22.36288868               -0.11424838
              11.70515756                8.14315470               55.56188185                0.00010000                4.88453623               -0.42234078               -4.13721393               -2.67885445               23.75785248                1.23147679
              12.75676728                7.71834698               55.51410916                0.00010000                5.20118352               -0.70415416               -4.87243515               -3.19712641               25.65264651                2.11809317
              13.80918123                7.27427208               55.48509616                0.00010000                4.98756263               -0.49037954               -5.38544322               -3.83519636               27.63177834                2.89170102
              14.85651854                6.81297506               55.47240782                0.00010000                4.27587362                0.31992822               -5.70435883               -4.34527127               29.15436131                4.12026024
              15.89469870                6.34094257               55.46898861                0.03172927                3.11033251                1.36670759               -5.68951616               -4.18871666               30.73644715                5.21788623
              16.91872519                5.86769330               55.48300949                0.21121409                1.60451082                1.91507641               -3.75057110               -1.82218346               16.26605808                2.50727512
              17.92678892                5.42979705               55.18777217                0.67321258                0.80637351                2.06705617               -3.59107973               -0.10450459                0.95015867                0.28726524
               7.96898928               10.63301560               56.18332467                0.90953339                0.09843536               -0.12367717                0.35897229               -0.04402662                0.00880694                0.74640347
               8.96997363               10.28287658               55.88531849                0.30910916                0.31765853                0.32941008               -1.02086281                0.02915689                0.18728856               -0.56047724
               9.97534245                9.93238014               55.59081473                0.00010000                2.97409821                0.74811308               -2.33877626               -1.61519261               12.95968643               -1.79702931
              11.02945560                9.54748926               55.54746909                0.00010000                5.89026288               -0.25971913               -3.58018658               -2.69925542               25.91774283               -0.26083379
              12.09314771                9.13773167               55.51083693                0.00010000                6.58613753               -0.89129949               -4.53105493               -2.64985652               27.10102995                0.73717579
              13.16117835                8.71101022               55.48880107                0.00010000                6.68053637               -0.89644016               -5.19462335               -2.52555541               29.07114923                1.53347399
              14.22675844                8.26989799               55.48831022                0.00010000                6.13896332               -0.61881313               -5.47866158               -2.52329702               31.67123057                2.65296490
              15.28395761                7.81564766               55.51448076                0.00010000                5.05670009               -0.08696886               -5.13733830               -2.54377008               33.41238471                5.00992914
              16.32789244                7.34959151               55.54497396                0.08064392                3.62460327                0.25152992               -4.45723909               -2.51098803               30.47511452               10.96328953
              17.35644968                6.88027339               55.50821951                0.26939629                1.78915896                1.05510827               -2.59379143               -1.54366063               13.75955961                1.01744293
              18.36367562                6.44252091               55.20120126                0.68337048                0.72259363                1.03669484               -2.66199434               -0.00712657                0.29230715               -0.69744618
               8.31640445               11.63218077               56.08950464                0.87148456                0.18963828               -0.04093622                0.06591987               -0.04735953                0.01810329                0.63946277
               9.31830084               11.28663084               55.78510330                0.32837765                0.40189112                0.42177487               -1.33149085               -0.00208838                0.34965203               -0.49956965
              10.32444228               10.94010285               55.48724564                0.00010000                4.07195408                0.78631921               -2.64210466               -2.52325560               14.73800662               -1.12898370
              11.39973992               10.54173234               55.46976219                0.00010000                8.20985955               -1.59006588               -3.91524931               -2.63299738               29.11602835               -0.09303824
              12.48863947               10.12532871               55.45587930                0.00010000                8.71749666               -1.55710063               -4.84877106               -1.82525565               30.26393291                0.40668193
              13.57408985                9.70041817               55.45679526                0.00010000                8.27191916               -1.31854105               -5.42035060               -1.33954017               32.54757353                0.87424227
              14.65407785                9.26189582               55.48440927                0.00010000                7.59298814               -1.04467365               -5.43211499               -1.20705358               36.06807514                1.68638205
              15.72594962                8.81123569               55.55148893                0.00010000                6.28876810               -0.91974191               -4.48368303               -1.28395909               41.99173972                3.71691647
              16.77985321                8.34597317               55.69239487                0.15407061                3.44864764               -0.31802825               -1.06487596               -0.96443666               30.29568840                9.28833697
              17.79492257                7.88879547               55.52106475                0.35159462                1.11490690                0.80970034               -2.49744331               -0.89075333                7.30509390                0.45358732
              18.80215135                7.45053095               55.20484638                0.68562178                0.72287835                0.74245286               -2.34422556                0.03472868                0.07887265               -0.87211668
               8.65914194               12.63219687               55.99388638                0.93747194                0.28678432                0.00161047               -0.23218761                0.18526935                0.28836039                0.54039816
               9.66200978               12.29131208               55.68590479                0.70256189                0.53169492                0.46812377               -1.64724017                0.16637696                0.99867044               -0.43089659
              10.66977584               11.94810652               55.39202452                0.44922342                6.47800020                0.80036688               -2.95587676               -4.24785065               16.55461535               -0.67408465
              11.79156979               11.51568794               55.39388543                0.36813185               11.40904620               -2.60443989               -4.17037394               -2.89285633               31.93528110                0.00395259
              12.89795676               11.10658965               55.39641982                0.36038082               10.31253241               -1.87390584               -5.02802386               -0.62069747               33.15924117                0.29908250
              13.99782044               10.68463940               55.41493625                0.36661513                9.69215437               -1.57787704               -5.48418174               -0.50619844               35.69605117                0.60248684
              15.09179985               10.24900452               55.46257371                0.38676683                8.81903227               -1.28913043               -5.32791990               -0.59712891               39.84437182                1.11882896
              16.17420108                9.79725283               55.55928286                0.42184273                6.96220342               -1.39828603               -3.93463345               -0.46353195               46.16986445                2.59239693
              17.23104392                9.34323094               55.72918999                0.61424882                2.99378760               -0.27422281               -0.86668742                0.07979936               31.41192174                4.15989699
              18.23407683                8.89646740               55.53137787                0.71655889                0.49276554                0.76719306               -2.48468218               -0.37762201                6.73679806                0.40128514
              19.24089923                8.45736997               55.21318967                0.84321805                0.68223962                0.68390200               -2.20815939               -0.03495519                0.68328113               -0.67452182
               5.28664132                2.77525078               57.95089951                1.00000000               -0.68623160               -0.85305011                2.95456222               -0.26474035               -0.70201840                0.73238936
               6.27977900                2.38423073               57.68144752                1.00000000               -0.49669028               -0.40813390                1.54090323               -0.20150081               -0.89760481                0.11917930
               7.27670751                1.99242179               57.40788112                1.00000000               -0.11915060                0.02260497                0.15144833               -0.20766725               -0.80875758               -0.15027876
               8.27739599                1.59870095               57.13986832                0.63958780                0.13077667                0.50257859               -1.28302218               -0.32866521                0.35261702               -0.69714664
               9.27932305                1.20126726               56.88904889                0.60229942                0.46073188                1.07462380               -2.87117739               -0.31164315                1.45209678                0.02375863
              10.28661063                0.80246084               56.64215634                0.51621055                0.94003890                1.49383157               -4.40360157               -0.29760455                1.56086067               -0.23788349
              11.29812383                0.39985746               56.39283173                0.23974451                0.33123678                2.00048943               -5.90330772               -1.46090923                3.22677434               -0.63615249
              12.29323537               -0.02992517               56.17973694                0.00010000              -12.53895576                2.11542518               -6.37347972              -25.11468020               10.22336739               -0.88312536
              13.04734471               -0.94707832               56.11135073                0.00010000               -9.81882606                7.13542394               -7.64369668              -25.78011272               15.79788228                1.04002060
              14.09685884               -1.66579752               56.09624741                0.63463424                4.43021885                3.18406744              -12.21764601              -16.66752939                9.01185244                1.54712501
              15.13594909               -2.04423449               55.87130892                1.00000000                3.90902438                3.71540808              -13.96931457               -0.87325945               -0.14618670               -1.20111418
               5.67501397                3.76672028               57.85430067                1.00000000               -0.58354767               -0.80616397                2.63929506               -0.03312467               -0.10507003                0.99494023
               6.66917849                3.38014939               57.58477307                1.00000000               -0.38091184               -0.36648190                1.22489104                0.02612546               -0.13153460                0.19082935
               7.66739573                2.99264784               57.31454769                1.00000000                0.02540556                0.06530149               -0.17101383                0.02913148               -0.01833591               -0.27918261
               8.66968660                2.60372673               57.04701971                0.46390424                0.34654676                0.53520772               -1.60678645               -0.04612495                1.63696373               -0.92385056
               9.67432667                2.21201350               56.80953999                0.48328000                0.73264396                1.08650758               -3.26745873               -0.08728653                2.93095694                0.02683351
              10.68433948                1.81739916               56.56655063                0.40287585                1.26905375                1.52752472               -4.81372559               -0.09333733                2.58350603               -0.37295261
              11.69970774                1.41986236               56.32067959                0.08296431                1.56084864                2.01420378               -6.27756647               -1.52274225                5.89536022               -1.00523917
              12.71555646                0.99122908               56.14213361                0.00010000               -4.61139927               -3.03317069               -4.74337496              -26.18806737               20.60088525                5.06134305
              13.60747976                0.12427592               56.18729551                0.00010000              -11.83974101                5.77096186               -5.76716842              -34.84787230               30.23411239                3.16043424
              14.47876164               -0.63395685               56.25367723                0.47877723               -5.09131454                2.56058971               -9.23566486              -18.56365880               14.76260716                2.82314451
              15.50565347               -1.00708041               56.02347303                1.00000000                2.68918309                3.06235571              -10.88639639               -0.67101635                1.62860057               -0.55062227
               6.05912061                4.75912750               57.76282565                1.00000000               -0.47466524               -0.70779653                2.30022378               -0.03275373                0.10446923                1.19896214
               7.05437396                4.37690109               57.48938395                1.00000000               -0.27039040               -0.27669743                0.89966152                0.02528877                0.23663981                0.15870286
               8.05371280                3.99372782               57.21846165                0.79111322                0.13669386                0.15835826               -0.48937699                0.02673616                0.46937692               -0.55909955
               9.05710783                3.60940510               56.94946250                0.00010000                0.50960450                0.60416579               -1.87436459               -0.03286921                3.04461733               -1.14506028
              10.06390489                3.22299741               56.72980214                0.00010000                0.98935960                0.44150203               -3.70684342               -0.81546213                4.47470797                1.23343362
              11.07689502                2.83301134               56.48754267                0.00010000                1.49670865               -0.01520401               -5.25986717               -1.45201489                3.14893226                4.03363600
              12.09383906                2.44014154               56.23961907                0.00010000               -0.59172833               -1.80889585               -6.60345770               -8.67344752               14.41045581                9.02449579
              13.06506046                1.90941141               56.22093286                0.00010000               -5.91329367               -6.93659544               -1.18021894              -26.59407478               28.20623196                7.04239584
              13.97557319                1.16834091               56.28248595                0.00910677              -10.40592302                4.67358071               -4.19524557              -36.42037715               35.77504486                2.70429132
              14.85694200                0.38541427               56.40633697                0.49419939               -5.33986476                1.35879313               -2.96995667              -20.17097173               19.19321085                1.98946643
              15.86877589                0.01701262               56.15436833                1.00000000                1.18338970                1.91369857               -6.02038849               -0.46046291                0.89742159               -1.92211773
               6.43881172                5.75256435               57.67020116                1.00000000               -0.37277656               -0.59436681                1.94718671               -0.04446174                0.22161302                1.01291060
               7.43508395                5.37461544               57.39193838                0.71855394               -0.16926368               -0.17103708                0.55824703                0.01549774                0.51041822               -0.18706793
               8.43542644                4.99581500               57.11938341                0.19158946                0.23378369                0.27385954               -0.79705817                0.00341218                1.06332201               -1.07518701
               9.43975963                4.61581005               56.85200577                0.00010000               -0.05076282                0.66968054               -2.15792536               -0.82555394                5.80535257               -0.56538099
              10.43441119                4.22084354               56.67417445                0.00010000               -0.08022833               -0.19441174               -3.31319951               -2.05142593               10.22595993                3.05240330
              11.43815506                3.81709508               56.49933236                0.00010000                0.77137654               -1.68294623               -4.43244922               -3.88075332               12.57861313                7.62051322
              12.44983872                3.38368444               56.36692154                0.00010000                0.86602624               -4.87259584               -4.56491828               -9.84771088               19.08411331               13.00025700
              13.45547558                2.85249717               56.31136214                0.00010000               -2.33846822               -4.15001122               -4.50070791              -17.28451956               26.77675628                6.51511348
              14.40306935                2.21774753               56.32688368                0.00010000              -11.44025445                3.43306807               -3.87599459              -26.99964358               38.33382195               -2.06997788
              15.22667049                1.39321902               56.51821158                0.04836346               -8.49109195               11.07435029               -0.97559566               -9.13949328               23.76001938              -18.17176267
              16.23324751                1.03119356               56.25070758                0.63752100                0.65770201                2.65808511               -4.18162584               10.21802140                1.35032471              -17.95489449
               6.81412919                6.74724016               57.57492649                1.00000000               -0.26959333               -0.47532907                1.58415752               -0.04774570                0.10984398                0.77662595
               7.81143326                6.37348035               57.28953880                0.43946372               -0.07713775               -0.05682203                0.18376726                0.02715221                0.54691616               -0.52600591
               8.81258643                5.99920501               57.01282181                0.00817081                0.20674805                0.39292022               -1.14993102               -0.01763285                2.47309174               -1.65626436
               9.81556822                5.62279871               56.76582174                0.00010000                0.45024524                0.25022182               -1.92501245               -1.13995487                9.95300487                2.96796789
              10.82159134                5.21910918               56.63991256                0.00010000                1.04354197               -0.34313403               -3.25125096               -2.07492988               15.76321562                3.68327525
              11.83643906                4.79935241               56.50980989                0.00010000                1.99457081               -1.76824629               -4.14014160               -3.52102728               17.33434022                5.72364524
              12.86148276                4.34268962               56.41024603                0.00010000                2.44339592               -3.34217270               -4.76332919               -7.14781488               21.47390758                6.00284744
              13.88530698                3.82641119               56.35271688                0.00010000                1.66878577               -2.15071462               -5.14849172              -12.21705254               25.89665518                2.64358333
              14.89485847                3.23700228               56.33351524                0.00010000               -1.23004358                2.28363944               -5.45316038              -14.05967924               25.11237303               -4.54131310
              15.86070610                2.60690128               56.25581621                0.06750895               -4.88356165               16.35201769               -6.23228694               -2.40725473               15.18347901              -22.58899753
              16.79718724                2.07017432               56.04499267                0.64387409               -6.35188657               10.17149533               -7.60145247                1.49620754                8.15350999              -24.34157978
               7.18537644                7.74305777               57.47748013                0.94471004               -0.17142840               -0.37154382                1.25395957               -0.04089775                0.04039604                0.68214415
               8.18366215                7.37347900               57.18528864                0.33370085                0.01894929                0.04595989               -0.13206642                0.04165894                0.48861066               -0.59911791
               9.18575542                7.00367341               56.90200320                0.00010000                0.66971036                0.47865733               -1.49267688               -0.51131266                7.07194541               -1.95346535
              10.19705636                6.62081448               56.74115142                0.00010000                1.53017326               -0.07827250               -2.47799378               -1.33066349               14.44826270                3.27119819
              11.21635889                6.21398086               56.60686815                0.00010000                2.35488545               -0.56970670               -3.46363381               -2.49887932               17.43880294                2.96683910
              12.24415407                5.78173015               56.50395169                0.00010000                3.17323794               -1.53557521               -4.38415875               -4.14738946               20.40171768                3.54930391
              13.27982365                5.31684099               56.42427426                0.00010000                3.63339047               -2.03650654               -5.16917050               -6.92616488               23.20138228                3.15907706
              14.31682188                4.80948288               56.36933957                0.00010000                3.07810159               -0.93842461               -5.95199553              -10.05663216               25.37544693                0.90107465
              15.34138568                4.26342032               56.32368898                0.00010000                1.42657374                2.97304850               -7.15965617              -10.79970821               24.87720682               -3.10987579
              16.34535335                3.72025937               56.24946551                0.08110158               -0.23800494                9.74134396              -10.01892274               -5.21161521               15.43729322               -3.49065473
              17.33662558                3.23462347               56.00873956                0.63487230               -0.87277734               14.32342739              -10.63001188                1.30566992                6.78818026               -8.86636808
               7.55246877                8.73980929               57.38014834                0.91710751               -0.08179742               -0.28287477                0.97087733               -0.04012748                0.03838085                0.73376197
               8.55165080                8.37439955               57.08158563                0.28949945                0.12779629                0.13682588               -0.44369394                0.03998891                0.37931020               -0.57276088
               9.55502470                8.00877815               56.78981215                0.00010000                1.34983503                0.54988314               -1.81647217               -0.93882652                9.41251031               -2.05132113
              10.57864750                7.62123326               56.67131727                0.00010000                2.78366939                0.07677151               -2.92130098               -2.02960818               18.80809138                0.25722527
              11.61069808                7.20771504               56.56870490                0.00010000                3.59918216               -0.55943757               -3.92343894               -3.25075226               20.68755283                1.69160852
              12.65063114                6.76864091               56.48692341                0.00010000                4.22543256               -1.08686914               -4.83308500               -4.66949417               22.95028787                2.12928414
              13.69520673                6.30195949               56.42648701                0.00010000                4.34819290               -1.04089306               -5.69161968               -6.52402620               25.12225454                2.06380752
              14.73759500                5.80764270               56.38318934                0.00010000                3.64405395                0.25131328               -6.60475165               -8.15457606               26.86573358                1.32168361
              15.76808781                5.29646325               56.35198497                0.00010000                2.38378279                3.13512141               -7.80633984               -7.40487604               28.94298817                0.61819944
              16.78527065                4.80172816               56.34648175                0.12016305                1.32423163                6.45874880              -10.70083201               -3.05905497               17.82036154                3.87341157
              17.79457245                4.35664287               56.08708005                0.64183047                0.93017931                8.65117634               -9.23888678                0.37271759                5.28501505                0.69730732
               7.91539337                9.73740027               57.28353818                0.90290845                0.00996929               -0.20183165                0.67714614               -0.04239241                0.01913729                0.78256578
               8.91549306                9.37621552               56.97819222                0.27812985                0.23759020                0.23058928               -0.75104155                0.03132175                0.28028757               -0.56807983
               9.92014517                9.01467107               56.67802363                0.00010000                2.10171219                0.64318033               -2.13975534               -1.40606485               11.29496723               -2.06862471
              10.95752731                8.62234992               56.59222509                0.00010000                4.18955095                0.08633871               -3.39653564               -2.78723287               22.55448180               -0.49986608
              12.00393619                8.20279211               56.51879155                0.00010000                4.94962146               -0.51575116               -4.45021841               -3.71968977               24.01708268                0.60654361
              13.05651974                7.75999277               56.46282020                0.00010000                5.32025709               -0.77295709               -5.35224439               -4.51264434               25.93864891                1.29593196
              14.11034134                7.29602312               56.42745918                0.00010000                5.13534321               -0.40856589               -6.13184251               -5.36745396               27.90315290                1.93664805
              15.15922660                6.81450914               56.40970031                0.00010000                4.44306795                0.73258724               -6.88392325               -5.80993823               29.45365944                3.29670671
              16.19920269                6.32612275               56.40405533                0.01604440                3.23830134                2.37039302               -7.57384954               -4.82047976               32.07280985                4.78109731
              17.22399263                5.84943435               56.43839366                0.17573448                1.75239063                3.41570756               -6.26818989               -1.85670817               17.88356463                3.99262616
              18.23425051                5.40764699               56.14778927                0.65204896                1.02578792                3.50744733               -5.11028565               -0.17932125                2.06411654                1.54144498
               8.27399043               10.73577265               57.18706506                0.90206250                0.10160021               -0.12506994                0.38814533               -0.04639078                0.00884366                0.77894557
               9.27500643               10.37901133               56.87487046                0.29665676                0.33892848                0.33142901               -1.06616673                0.01498337                0.21603853               -0.57328090
              10.28076900               10.02164176               56.56676227                0.00010000                2.98876844                0.74531237               -2.48250086               -1.98444698               13.03634468               -1.85671477
              11.33478180                9.62296004               56.51017096                0.00010000                5.89462156               -0.20541572               -3.87980511               -3.45214686               26.02154250               -0.60902585
              12.39866143                9.19740002               56.46323521                0.00010000                6.61827164               -0.82139776               -4.97522097               -3.55096051               27.28901694                0.18139397
              13.46714723                8.75318177               56.43358739                0.00010000                6.73399262               -0.75518359               -5.83578431               -3.56772764               29.31452493                0.82063001
              14.53334128                8.29378817               56.42897519                0.00010000                6.20746873               -0.32342509               -6.41820514               -3.59626153               32.10278989                1.92021694
              15.59129661                7.82229444               56.45721947                0.00010000                5.17058655                0.44293644               -6.46454651               -3.34642335               34.04345775                4.70811693
              16.63675301                7.34387111               56.49337913                0.07614197                3.76578181                0.90415977               -6.30741673               -2.70367175               32.02671152               12.60175660
              17.66661225                6.87004231               56.48007055                0.24115537                1.89038574                1.57453329               -3.30593369               -1.48901140               15.01043232                1.49543950
              18.67456073                6.42679182               56.17367148                0.65832043                0.79484844                1.41948563               -3.08378341               -0.09659463                0.51427522               -0.00736740
               8.62798820               11.73489887               57.09032627                0.86263493                0.19354227               -0.04750535                0.09865323               -0.04898227                0.01972635                0.66998981
               9.62992362               11.38284410               56.77148909                0.31072008                0.42596639                0.43412127               -1.38892075               -0.01486459                0.38892514               -0.52086515
              10.63650753               11.02957732               56.45996719                0.00010000                4.14012436                0.81810720               -2.84969580               -2.84566283               14.82017045               -1.19346421
              11.71272611               10.61824160               56.42875969                0.00010000                8.30938608               -1.50930543               -4.30757803               -3.14347844               29.20355864               -0.29590150
              12.80269525               10.18636415               56.40464912                0.00010000                8.80254592               -1.39646199               -5.40611143               -2.38797612               30.44952326                0.07128446
              13.88877703                9.74488910               56.39878487                0.00010000                8.33040902               -1.04744883               -6.20008925               -1.93037646               32.84747231                0.43843668
              14.96930343                9.28955462               56.42508417                0.00010000                7.67190850               -0.62927615               -6.52688528               -1.74719996               36.75366645                1.27471018
              16.04221520                8.82336787               56.50090652                0.00010000                6.40389793               -0.39536414               -5.85745813               -1.69930886               44.18901576                3.72119347
              17.09738139                8.34420594               56.67886562                0.17107457                3.45382441                0.13057489               -2.02397942               -1.10339978               31.12156229               10.68261793
              18.11129169                7.88092501               56.49485747                0.34060078                1.07191047                0.96931115               -2.78120108               -0.83881287                6.59728760                0.33114041
              19.11881960                7.43603671               56.18181538                0.65788884                0.75279113                0.79081034               -2.35573714                0.00490340                0.20866428               -0.57628074
               8.97712034               12.73482255               56.99173125                0.93215309                0.29103607               -0.00763250               -0.19687397                0.20033436                0.29855910                0.56807948
               9.98003070               12.38769376               56.66909480                0.69331781                0.56689517                0.48496597               -1.71113873                0.16977513                1.05584566               -0.45592999
              10.98845824               12.03800391               56.36153460                0.44710564                6.75473505                0.84265887               -3.18870410               -4.55092043               16.69549902               -0.71840651
              12.11512540               11.59277393               56.35022550                0.36796850               11.78980849               -2.54676728               -4.59935449               -3.18672766               32.14089655               -0.03336753
              13.22425441               11.16947078               56.34327892                0.36040855               10.51119177               -1.68933716               -5.63263967               -0.87114096               33.49886226                0.19037588
              14.32534923               10.73223279               56.35618138                0.36639464                9.78320513               -1.26563080               -6.31865341               -0.75618615               36.17153124                0.46080900
              15.41991851               10.28120265               56.40429125                0.38579095                8.86549387               -0.83519728               -6.46853314               -0.83077360               40.85323773                1.03273421
              16.50265911                9.81438716               56.51487445                0.41959337                6.86046832               -0.89807134               -5.20372641               -0.69161120               48.34838359                2.99604299
              17.55712788                9.34648260               56.71750094                0.62935996                2.76730573                0.22766610               -1.67612305               -0.27328241               31.68821734                3.89620691
              18.55800523                8.88942853               56.50590310                0.71611915                0.36537667                0.85035210               -2.58668660               -0.52237527                5.80892712                0.22859396
              19.56443541                8.44260802               56.19220519                0.82824348                0.64301864                0.65713193               -2.04868688               -0.12046966                0.67811021               -0.45218639
               5.55635720                2.88062392               58.98032069                1.00000000               -0.67411940               -0.84353953                2.91943222               -0.26457957               -0.66568313                0.70918952
               6.54961600                2.48365730               58.69670231                1.00000000               -0.48254267               -0.39986490                1.50705233               -0.20213966               -0.84665595                0.11496505
               7.54670635                2.08592257               58.40918625                1.00000000               -0.10111688                0.02982454                0.11440539               -0.20688433               -0.77008865               -0.13977328
               8.54759367                1.68635259               58.12678437                0.63108906                0.15508517                0.50770811               -1.32047867               -0.33881930                0.28079254               -0.66717536
               9.54980805                1.28287821               57.85994369                0.58385812                0.48319667                1.08058492               -2.92491371               -0.32678486                1.30871612               -0.00938761
              10.55725760                0.87753495               57.59761425                0.48663680                0.92596755                1.51639859               -4.47227534               -0.34536817                1.44462832               -0.29267960
              11.56832740                0.46739440               57.33325618                0.19017589               -1.14980806                2.06267992               -5.96508194               -3.55493123                3.67727547               -0.64965819
              12.53426144               -0.01218470               57.11635816                0.00010000              -15.91455928                2.29414227               -5.94457214              -28.35187625                8.03514766               -2.10752078
              13.25003621               -1.02205522               57.03371501                0.00010000              -11.03131911                8.20835767               -7.45016414              -29.61741505               12.78166145                1.64757290
              14.31363506               -1.82297631               56.95222786                0.59599111                5.78292832                4.86212987              -15.82024961              -20.02361436                6.52778770                2.46349729
              15.36569478               -2.22789961               56.70614163                1.00000000                5.20597233                5.63474010              -18.33569954               -0.54586946               -0.78263282               -0.87245416
               5.95067803                3.87218853               58.88058775                1.00000000               -0.57327429               -0.79728012                2.60864692               -0.03497247               -0.08695282                0.96689083
               6.94494528                3.47965865               58.59688559                1.00000000               -0.36940848               -0.35877183                1.19542576                0.02320595               -0.10127536                0.18386952
               7.94328986                3.08622082               58.31265999                1.00000000                0.03911858                0.07169160               -0.20095528                0.02762328                0.00009358               -0.27009555
               8.94572766                2.69142967               58.03074236                0.46544057                0.38295814                0.54025180               -1.63518246               -0.05758746                1.50508688               -0.87205625
               9.95094902                2.29368406               57.77638316                0.47720372                0.79090847                1.08682426               -3.32811979               -0.09209180                2.71054203               -0.04469129
              10.96154582                1.89269894               57.51758759                0.38708342                1.33444454                1.54649135               -4.92445971               -0.12472605                2.43230292               -0.46115308
              11.97763791                1.48802120               57.25679569                0.05100451                1.69608300                2.05877216               -6.43008287               -3.61034756                7.58391919               -1.00298016
              12.99546748                1.01075673               57.10016077                0.00010000               -5.91900199               -4.89164834               -3.34012690              -31.39715432               21.88886471                4.34484904
              13.85925787                0.06002836               57.12741544                0.00010000              -13.95731880                6.95151902               -6.06530841              -39.19612159               27.34149818                3.32351829
              14.71632111               -0.77435501               57.13332760                0.35581909               -4.70492442                4.31275841              -15.97713071              -20.87072702               12.85639195                6.61967990
              15.76515938               -1.17155221               56.88394643                1.00000000                4.88382735                4.88477713              -18.28115817               -0.78005731                2.52215743                1.76245498
               6.34071750                4.86467832               58.78575840                1.00000000               -0.46696698               -0.70020907                2.27802454               -0.03635675                0.12155347                1.16006455
               7.33604783                4.47648186               58.49826535                1.00000000               -0.26148565               -0.27035155                0.87498859                0.01970401                0.26236104                0.14066121
               8.33548779                4.08735640               58.21341142                0.77604837                0.14654210                0.16429497               -0.51506380                0.02340579                0.50449954               -0.54839591
               9.33897868                3.69715762               57.93057319                0.00010000                0.56045782                0.61026031               -1.89044835               -0.05111579                2.83355596               -1.08268159
              10.34669695                3.30461469               57.69216159                0.00010000                1.07236325                0.18459506               -3.76809613               -0.98099445                4.14688930                1.55801334
              11.36042594                2.90846478               57.43397827                0.00010000                1.56828555               -0.49532266               -5.37540211               -1.64422510                3.04970659                4.57830450
              12.37806266                2.50856984               57.17253964                0.00010000               -1.30573750               -3.02419872               -6.73454697              -12.67129921               17.60729280               10.21485964
              13.33431119                1.88998234               57.20435727                0.00010000               -6.34185688               -8.13358123               -2.39018850              -31.72991782               31.59441625                6.34714682
              14.25122552                1.11697516               57.23972841                0.00010000              -10.32550541                5.20619750               -4.71901790              -39.57283241               37.07407003                2.29194595
              15.12780108                0.26327886               57.36833803                0.46136410               -5.33687491                2.61124407               -4.23422192              -22.13937829               20.99286814                5.87996426
              16.14448802               -0.13020406               57.08016683                0.98297938                1.66869396                3.22542470               -8.19502592               -0.90122875                0.41181827                0.19797390
               6.72634381                5.85818435               58.68966142                1.00000000               -0.36825262               -0.58833176                1.93553185               -0.04772573                0.23713848                0.96398462
               7.72266128                5.47425162               58.39742460                0.69199869               -0.16307982               -0.16747383                0.53884124                0.01181827                0.54501224               -0.22854941
               8.72308221                5.08950672               58.11123759                0.16998468                0.23928838                0.27868051               -0.82669571                0.00369839                1.11646448               -1.08539763
               9.72744705                4.70363488               57.83029338                0.00010000               -0.15301156                0.59708058               -2.17027186               -1.13490392                5.95910065               -0.21186117
              10.72002198                4.29737596               57.64097386                0.00010000               -0.13704358               -0.72544288               -3.28284042               -2.66697056               10.50842748                3.54673053
              11.72470618                3.88279248               57.45474796                0.00010000                1.13361938               -2.72723896               -4.43579345               -4.91837670               13.40301106                8.39154341
              12.74269437                3.42753722               57.32075910                0.00010000                1.38788151               -6.81586302               -4.67984308              -12.50956915               20.70396656               13.84434622
              13.75246381                2.84808510               57.26541681                0.00010000               -2.40948325               -3.51100582               -4.77202886              -20.32105628               29.03491733                4.17053595
              14.69450470                2.16415231               57.28721063                0.00010000              -11.58755178                3.45906599               -4.29944166              -30.86483780               42.29630608               -3.90972245
              15.52071277                1.27786987               57.50095649                0.06234880               -8.02020253               12.12093947               -3.14102360              -11.59411088               27.08304618              -20.71731853
              16.53410065                0.89295629               57.19767028                0.66718934                1.33878803                3.41446297               -6.78030559                9.34458720                2.04514085              -20.48525953
               7.10762844                6.85291168               58.59069071                0.98329202               -0.26666142               -0.46820605                1.58099860               -0.04644808                0.11851709                0.74396478
               8.10496183                6.47313239               58.29129669                0.41936965               -0.07249710               -0.06122209                0.17169046                0.03180585                0.58254055               -0.55765953
               9.10617850                6.09293001               58.00114958                0.00010000                0.17247626                0.38227611               -1.17697067               -0.07764695                2.87311623               -1.69229225
              10.10841135                5.70909924               57.74745269                0.00010000                0.40107144               -0.10881347               -1.68615764               -1.71413760               10.28889875                3.00837636
              11.11419993                5.29010584               57.60746184                0.00010000                1.17428950               -0.91156952               -3.20112562               -2.95126824               16.01821208                3.73965278
              12.13189714                4.85392000               57.46808884                0.00010000                2.41893630               -2.76166804               -4.16847621               -4.80974725               18.03816894                5.72344342
              13.16257866                4.37225258               57.36175164                0.00010000                2.96889173               -4.48984618               -4.91335238               -9.53001191               22.51651795                5.41894906
              14.19127498                3.81976222               57.29950804                0.00010000                2.07826704               -2.47249097               -5.51452424              -15.50846696               27.25015781                1.22076891
              15.20414400                3.18615648               57.27620429                0.00010000               -1.20800459                2.57020793               -6.09843391              -17.51905427               26.60572655               -7.47656192
              16.16711489                2.50569765               57.19158569                0.06379410               -5.14685339               17.50028614               -6.46774689               -5.15266504               16.24821701              -28.77866852
              17.10120693                1.93808520               56.96465707                0.65793405               -6.59079579               10.71620978               -8.46819983               -0.67522709                9.03023044              -29.25369281
               7.48497344                7.84882022               58.49001818                0.93011586               -0.16943743               -0.36008077                1.26657852               -0.03723248                0.05888379                0.70131894
               8.48327907                7.47302718               58.18387547                0.32148233                0.02944887                0.03052759               -0.14835122                0.05193414                0.51367544               -0.60708452
               9.48556242                7.09715224               57.88681627                0.00010000                0.63547019                0.43667494               -1.53386646               -0.81983644                7.31681505               -1.99733114
              10.49598847                6.70145861               57.71636242                0.00010000                1.53067166               -0.52434497               -2.44395935               -2.11619925               14.87050917                2.84266079
              11.51617585                6.27914457               57.57203940                0.00010000                2.51880077               -1.10092903               -3.46004581               -3.59047219               17.85192148                2.61200540
              12.54636449                5.82755912               57.45934804                0.00010000                3.50380261               -2.25547584               -4.49202596               -5.79197542               20.91090925                3.02158053
              13.58625191                5.33774030               57.37094427                0.00010000                4.10130387               -2.72278826               -5.45511808               -9.36164459               23.79705108                2.24579689
              14.62839056                4.79863528               57.30678012                0.00010000                3.59681420               -1.22200940               -6.53073356              -13.20542807               25.78891496               -0.66815113
              15.65818819                4.21555647               57.24652844                0.00010000                1.86700968                3.40492579               -8.15633178              -14.64756596               24.45628239               -5.75284565
              16.66573076                3.62787559               57.14355849                0.05356400               -0.11835882               11.24071485              -10.77506821               -8.61654467               15.12242672               -8.75381380
              17.65582101                3.10728048               56.89034341                0.62889451               -0.99097452               16.89955176              -12.27191574               -1.39601173                7.50001061              -13.08297459
               7.85846989                8.84571007               58.38997986                0.90669495               -0.08013907               -0.27156588                0.98865188               -0.04130440                0.03008394                0.77275267
               8.85766850                8.47374294               58.07704123                0.28114779                0.14402269                0.11845177               -0.46127297                0.04384535                0.39184300               -0.58380450
               9.86135034                8.10166351               57.77130458                0.00010000                1.32132701                0.48328682               -1.87684484               -1.37338681                9.58775569               -2.11276393
              10.88409504                7.69861234               57.64168684                0.00010000                2.74698145               -0.16914456               -2.97990071               -3.00832258               19.13411822               -0.16320784
              11.91628997                7.26808726               57.52871057                0.00010000                3.66834338               -0.91946493               -4.03119839               -4.55368021               21.04132863                1.07665870
              12.95746191                6.80881048               57.43717060                0.00010000                4.39898161               -1.49787419               -5.06251217               -6.48911467               23.29281435                1.33422119
              14.00426960                6.31779682               57.36697667                0.00010000                4.59441713               -1.36117173               -6.15230721               -8.96880890               25.37710203                0.97825364
              15.04935025                5.79532203               57.31256661                0.00010000                3.88413821                0.31218930               -7.46229014              -11.14684043               26.87684247               -0.20356475
              16.08195237                5.25425500               57.26611377                0.00010000                2.68548651                3.98069459               -9.40451716              -10.77683638               27.44161555               -1.34570680
              17.10305998                4.73051194               57.21477601                0.08005622                1.62622717                9.30407180              -14.88815233               -5.56234944               18.15540251                2.30427676
              18.11447691                4.27607623               56.97050659                0.62580000                1.14169328               13.33770180              -14.99232062               -0.77062022                8.87653971               -0.58103357
               8.22808162                9.84338891               58.29043840                0.89491074                0.01209143               -0.19518247                0.69937869               -0.04499610                0.01731552                0.81913855
               9.22820253                9.47539621               57.97052959                0.26970544                0.25718332                0.21855773               -0.77730312                0.01788836                0.29538158               -0.58737644
              10.23322528                9.10681797               57.65614646                0.00010000                2.05978720                0.58193829               -2.23800097               -1.89509969               11.38928422               -2.17846541
              11.26939828                8.69807572               57.55735435                0.00010000                4.08394107                0.00809017               -3.56294480               -3.83721158               22.74562169               -0.99159684
              12.31490411                8.26075527               57.47287748                0.00010000                4.87371793               -0.62926413               -4.69132426               -5.06262130               24.26701752               -0.10415407
              13.36687263                7.79760164               57.40706427                0.00010000                5.27300352               -0.86761674               -5.73725124               -6.29857242               26.14022406                0.39362694
              14.42036418                7.31051686               57.36245931                0.00010000                5.10614691               -0.35597399               -6.80886743               -7.59050137               27.95160982                0.83193638
              15.46899557                6.80487907               57.33472935                0.00010000                4.35486872                1.16408809               -8.09944760               -8.21369576               29.28104758                2.15566131
              16.50746155                6.29517036               57.31751162                0.00010000                3.18334827                3.62806722               -9.68032315               -6.36494090               32.45350487                3.67594152
              17.53266254                5.81395703               57.35764569                0.13083553                2.09092431                6.16032128              -12.03955308               -2.39149243               19.87889531                6.07182067
              18.54928004                5.37403452               57.08556646                0.62994301                1.66174981                6.61356098               -9.59030168               -0.37813334                5.30489307                3.40899865
               8.59355535               10.84180642               58.19108758                0.89521665                0.10418416               -0.12372623                0.41381703               -0.04964712                0.00731469                0.82284505
               9.59459720               10.47811409               57.86399516                0.28465325                0.36067448                0.32964944               -1.10404542               -0.01341298                0.22250678               -0.60602433
              10.60076884               10.11330228               57.54116471                0.00010000                2.94081566                0.73216318               -2.66630069               -2.44950725               13.05575342               -2.03344907
              11.65341351                9.69877414               57.46987299                0.00010000                5.73713890               -0.11579731               -4.19274788               -4.40347080               26.10158386               -1.08799840
              12.71551162                9.25550197               57.41133251                0.00010000                6.41576764               -0.70222905               -5.38041136               -4.73076751               27.45825148               -0.48562706
              13.78172886                8.79145815               57.37208539                0.00010000                6.48352613               -0.55043625               -6.40682594               -5.05465099               29.42726167               -0.01414706
              14.84518214                8.31067734               57.35994611                0.00010000                5.93469872                0.07785495               -7.35278965               -5.30944953               32.20340463                0.95455673
              15.90042284                7.81860379               57.38518983                0.00010000                5.01967220                1.15627530               -8.01281447               -4.84540453               34.05495205                4.02152974
              16.94557559                7.32681634               57.41882563                0.06283098                3.79715664                2.01666761               -9.15391774               -3.20067360               33.82078568               14.21433310
              17.97636597                6.85371837               57.44210084                0.20011905                2.05918356                2.78143492               -5.27865612               -1.36064350               17.02251878                2.99586964
              18.98675926                6.40834745               57.13952559                0.63083529                1.03932905                2.32185538               -4.43569791               -0.38065277                1.28152209                1.32385219
               8.95447333               11.84091438               58.09147771                0.85391456                0.19650837               -0.05289578                0.13055505               -0.05098511                0.01941261                0.71413098
               9.95643841               11.48198920               57.75732488                0.29617748                0.45508802                0.44339862               -1.43930858               -0.03634969                0.37563123               -0.56020855
              10.96357509               11.12146124               57.43025172                0.00010000                4.13453751                0.86506508               -3.16761416               -3.22215789               14.81436354               -1.35937385
              12.03912916               10.69575977               57.38361063                0.00010000                8.20148295               -1.33425887               -4.77493980               -3.77603296               29.26045726               -0.60151946
              13.12760475               10.24671069               57.34775707                0.00010000                8.57375443               -1.11821990               -5.98329291               -3.13501726               30.60479576               -0.35131038
              14.21060425                9.78659291               57.33279347                0.00010000                7.97123936               -0.61977874               -6.95504121               -2.80634293               32.95887310               -0.09845148
              15.28702954                9.31207396               57.35387157                0.00010000                7.26721111                0.02838482               -7.73357262               -2.67994764               36.99720126                0.68007230
              16.35594847                8.82800457               57.43433977                0.00010000                6.06519829                0.53170089               -7.75272932               -2.45170117               46.05755277                3.48880594
              17.40833350                8.33550371               57.65191528                0.18057516                3.39850435                0.85340514               -3.98619968               -1.51074094               32.19713590               12.49378556
              18.42391856                7.86958573               57.46544073                0.31638826                1.20376590                1.26148265               -3.18577812               -0.79234626                6.35106708                0.41914454
              19.43240882                7.42047163               57.15773163                0.62689498                0.84902588                0.95995899               -2.72603778               -0.15650977                0.47811999               -0.13551234
               9.31038601               12.84074850               57.98994890                0.92704904                0.29373317               -0.01658781               -0.15888164                0.21462452                0.31672288                0.61025621
              10.31332335               12.48698206               57.65168202                0.68700713                0.60845518                0.49928633               -1.76776158                0.18124708                1.06018407               -0.49702951
              11.32255512               12.13060358               57.32825044                0.44754759                6.96600263                0.91423414               -3.54623995               -4.84665224               16.74204430               -0.81561136
              12.45264340               11.67208896               57.30189834                0.36777964               11.97115078               -2.36708063               -5.15296222               -3.52187665               32.29047189               -0.12544688
              13.56197813               11.23313758               57.28376703                0.36049532               10.37976653               -1.35731138               -6.32413349               -1.21398112               33.78838834                0.03248412
              14.66023873               10.77906257               57.28856318                0.36619178                9.40966984               -0.75303415               -7.20410183               -1.13117944               36.43943645                0.25963900
              15.75017153               10.31124503               57.33320305                0.38476470                8.38601676               -0.08289316               -7.83764822               -1.17703853               41.45620013                0.84834203
              16.82795906                9.82923781               57.45520833                0.41720035                6.18040434                0.12332378               -7.15735352               -1.16697026               50.38557551                3.45931427
              17.87377962                9.34388445               57.69566753                0.64107244                2.37960324                0.83807338               -2.97416443               -0.96987792               32.34740508                3.76581991
              18.87555113                8.87894802               57.47964414                0.70889641                0.40388225                0.93622962               -2.67643806               -0.65363403                5.23728442                0.07214532
              19.88185726                8.42754663               57.17221593                0.81160067                0.63061332                0.70750022               -2.17123692               -0.19529506                0.72952792               -0.16664169
               5.84056443                2.98890045               60.00928815                1.00000000               -0.65841019               -0.82800553                2.86465628               -0.26221672               -0.63503832                0.69039661
               6.83398033                2.58616347               59.71158857                1.00000000               -0.46703767               -0.38997299                1.46759059               -0.20103814               -0.80365743                0.11100883
               7.83122368                2.18267884               59.41016923                1.00000000               -0.08629619                0.03419080                0.08680762               -0.20438553               -0.73925687               -0.13046800
               8.83225441                1.77744145               59.11345875                0.62334493                0.17219075                0.50553312               -1.33261328               -0.34283785                0.19829358               -0.64001085
               9.83466749                1.36820056               58.83055062                0.56666182                0.49681486                1.07012059               -2.93180762               -0.33656533                1.16051764               -0.04627969
              10.84219070                0.95666057               58.55271083                0.45833592                0.91289632                1.51515028               -4.48241216               -0.38253252                1.35538367               -0.35214792
              11.85292542                0.53978528               58.27353009                0.14237029               -4.43556094                2.07340117               -5.94569585               -8.22831646                4.60613416               -0.64493194
              12.75347948               -0.03968081               58.06084550                0.00010000              -19.29085880                2.98077555               -4.36901966              -29.14219817                4.66347001               -4.13751368
              13.46710824               -1.10152771               57.96234745                0.00010000               -9.92457536                8.62606004               -6.84036690              -31.54884727                9.09012775                3.73356192
              14.55498798               -1.97872705               57.77984242                0.58371403                7.26803191                6.10536301              -17.30253531              -23.35122237                3.00779133                2.84396909
              15.61246888               -2.41729317               57.50459493                1.00000000                5.74809047                7.14366580              -20.47123006                0.38239576               -1.55620735               -0.64729137
               6.24067925                3.98062039               59.90647361                1.00000000               -0.55984952               -0.78226611                2.55993311               -0.03699870               -0.07079577                0.94510019
               7.23508075                3.58226374               59.60868158                1.00000000               -0.35692088               -0.34940840                1.16185473                0.01940876               -0.07402095                0.17705878
               8.23354083                3.18302075               59.31052858                1.00000000                0.04922091                0.07517298               -0.22019336                0.02521590                0.01593105               -0.26389037
               9.23606517                2.78249678               59.01431606                0.46910253                0.40757266                0.53794978               -1.63778657               -0.06723047                1.36244846               -0.82173363
              10.24169228                2.37890176               58.74297760                0.47443104                0.82539230                1.06832120               -3.32422281               -0.09573057                2.45904188               -0.11210705
              11.25257302                1.97181207               58.46806144                0.37485686                1.35603305                1.53782421               -4.93444639               -0.15310299                2.24273545               -0.53310733
              12.26881294                1.56051929               58.19207793                0.02248445                1.50704923                2.03450156               -6.44104326               -7.95023122               10.13965686               -0.95407011
              13.28271400                0.99012695               58.07533107                0.00010000               -7.38350244               -4.46104397               -2.06731314              -34.97529384               21.62156814                1.44643297
              14.12114289               -0.01526711               58.06598934                0.00010000              -15.16777593                7.79561755               -6.30824127              -41.09173933               19.96585233                4.30141005
              14.97935848               -0.91767342               57.93413461                0.25404751               -3.31419704                5.70558600              -22.63132408              -22.46082197                7.95803895               15.16370459
              16.05485895               -1.34585651               57.65784987                1.00000000                7.55004720                6.22707072              -25.64934999               -0.77401931                2.46133622                9.15970264
               6.63653777                4.97325513               59.80838614                1.00000000               -0.45696233               -0.68543326                2.23928768               -0.04053910                0.13615071                1.12975657
               7.63196815                4.57917530               59.50688372                1.00000000               -0.25214119               -0.26253126                0.84735182                0.01272275                0.28626207                0.12335377
               8.63149495                4.18418230               59.20816037                0.75553167                0.15303175                0.16740744               -0.52993770                0.01856381                0.54403908               -0.54637224
               9.63502878                3.78820045               58.91165354                0.00010000                0.59713238                0.60982703               -1.88176632               -0.07375607                2.62124705               -1.02331649
              10.64343759                3.38956698               58.65444022                0.00010000                1.12411650               -0.12119295               -3.73846472               -1.11752612                3.77989216                1.93809622
              11.65751111                2.98741705               58.38003463                0.00010000                1.60841620               -1.04983447               -5.35227036               -1.76173248                2.90234200                5.20163350
              12.67560592                2.58047531               58.10492813                0.00010000               -1.38755494               -4.45799653               -6.71799777              -16.59412388               20.07000896               11.44002663
              13.62976001                1.87109831               58.17312909                0.00010000               -6.12660448               -7.46849111               -3.82332373              -36.95411361               34.94879573                5.30850773
              14.55307383                1.05438464               58.18810559                0.00010000               -9.66995388                5.91721546               -5.82699652              -42.17003748               38.89261794                2.72935059
              15.43636094                0.13538467               58.32165253                0.43856020               -4.98595807                3.66492087               -4.18621233              -23.43115535               22.84480364               14.80826933
              16.45335467               -0.29275175               57.99046782                0.96750834                1.69937317                4.14273182               -8.18375085               -1.52045206               -0.66836531                7.95349675
               7.02802812                5.96691173               59.70891180                1.00000000               -0.36200898               -0.57462148                1.90854918               -0.05237171                0.25257774                0.93405389
               8.02440803                5.57701311               59.40271521                0.66605256               -0.15705835               -0.16495036                0.51938229                0.00571125                0.57590841               -0.26714106
               9.02488695                5.18636890               59.10284949                0.14585662                0.23986684                0.27990879               -0.84577582                0.00390124                1.17782372               -1.10420231
              10.02920537                4.79469333               58.80860033                0.00010000               -0.23808990                0.43483749               -2.15712296               -1.49429231                6.15820869                0.28366771
              11.02012516                4.37647790               58.60851764                0.00010000               -0.13876669               -1.33651444               -3.17971292               -3.29980517               10.85815370                4.13448797
              12.02643003                3.95081538               58.41061649                0.00010000                1.65620250               -3.90979225               -4.36084318               -5.98585087               14.20363384                9.29951807
              13.05324921                3.47135936               58.27332468                0.00010000                2.16461844               -8.97959401               -4.79749590              -15.26351286               22.22486624               14.86744921
              14.06972240                2.84075713               58.21592156                0.00010000               -1.98967068               -3.08175287               -5.18415443              -24.10923507               31.07938120                2.93789413
              15.01345579                2.10307720               58.24089485                0.00010000              -10.59253177                3.68842921               -5.02779697              -35.16553052               45.07083440               -4.68638506
              15.85787177                1.15562499               58.45539111                0.08562094               -6.63665202               12.66706243               -6.36476516              -15.26111726               29.39138917              -20.63901978
              16.88072275                0.73699813               58.11510147                0.70502389                2.28509843                4.25895437               -9.76670351                7.05203373                2.59550736              -20.33021287
               7.41528757                6.96176270               59.60654646                0.96651687               -0.26623686               -0.45583640                1.58084331               -0.04806959                0.11686530                0.73725453
               8.41262520                6.57587629               59.29297261                0.39955168               -0.06974064               -0.07101728                0.16415399                0.03736620                0.61319448               -0.59374079
               9.41389276                6.18978048               58.98928240                0.00010000                0.12043644                0.36014382               -1.18807792               -0.21306374                3.43485162               -1.74103082
              10.41503393                5.79689720               58.73209859                0.00010000                0.37133384               -0.56298874               -1.33577568               -2.34528664               10.67924236                2.98353198
              11.42131943                5.36283669               58.57589004                0.00010000                1.39393529               -1.57528342               -3.10148071               -3.86947221               16.18472627                3.87837551
              12.44291264                4.90922121               58.42644036                0.00010000                2.95372420               -3.88676915               -4.13819102               -6.24579576               18.71325384                5.85801424
              13.48039392                4.40088343               58.31197898                0.00010000                3.64724212               -5.74137378               -5.02170079              -12.23372853               23.42090019                5.12450724
              14.51585748                3.80946326               58.24242640                0.00010000                2.72507167               -2.88479229               -5.87335482              -19.27183044               28.30827377                0.31679620
              15.53489535                3.12815322               58.21154656                0.00010000               -0.93199081                2.76883653               -6.90932148              -22.02300872               28.11334965               -9.45877384
              16.49721766                2.38872591               58.12646128                0.06423860               -5.16231374               18.31838883               -6.31240040               -9.48053697               17.21753513              -33.31577383
              17.43164908                1.79242733               57.87562868                0.67530119               -6.55685857               11.50581667               -9.62158751               -4.01319890                9.78050763              -32.12205958
               7.79883954                7.95779500               59.50281170                0.91745972               -0.17019663               -0.34592842                1.28110959               -0.03721730                0.05683755                0.72856448
               8.79713757                7.57559276               59.18232161                0.30851674                0.03826151                0.00965245               -0.15625635                0.06572508                0.53225248               -0.62429553
               9.79960477                7.19357177               58.87132587                0.00010000                0.60529226                0.37061038               -1.55709788               -1.19588852                7.62126610               -2.07090946
              10.80924342                6.78343355               58.69227224                0.00010000                1.54034659               -0.99600078               -2.36609769               -2.98547953               15.38368075                2.27242873
              11.83041170                6.34497224               58.53766724                0.00010000                2.71119795               -1.72132790               -3.39084299               -4.78160456               18.26868423                2.31516653
              12.86346738                5.87308000               58.41411117                0.00010000                3.89604427               -3.08060535               -4.52232725               -7.65658313               21.37305079                2.66610261
              13.90833259                5.35653189               58.31517190                0.00010000                4.67743132               -3.54369528               -5.65151783              -12.15299336               24.25803024                1.61608093
              14.95701600                4.78306128               58.23872490                0.00010000                4.27001859               -1.69205445               -7.01359925              -16.89703436               25.98594099               -1.79089453
              15.99373296                4.15845393               58.16056235                0.00010000                2.34854565                3.52063576               -8.81800299              -19.06265686               24.26804633               -7.95379749
              17.00398692                3.52199277               58.03396414                0.02809029               -0.03385120               12.25002876              -11.14334136              -12.22856221               14.88006276              -14.54387425
              17.99305593                2.96711446               57.76330125                0.62442306               -1.09309823               17.86859105              -13.02146736               -4.03818027                7.26762058              -17.85013024
               8.17894769                8.95484413               59.39992138                0.89740199               -0.07847651               -0.25598379                0.99646478               -0.04159062                0.02580250                0.81442406
               9.17816293                8.57606934               59.07236017                0.27288514                0.15932543                0.09606499               -0.47021493                0.04518069                0.40113331               -0.60387003
              10.18213420                8.19719268               58.75227525                0.00010000                1.28804753                0.38349280               -1.93029166               -1.87954127                9.78276847               -2.23365123
              11.20392388                7.77697718               58.61171926                0.00010000                2.69533463               -0.45508607               -2.99150364               -4.11586206               19.52568570               -0.62920972
              12.23604089                7.32841013               58.48808094                0.00010000                3.71487217               -1.34425776               -4.05958623               -6.01065824               21.43740913                0.51496694
              13.27822132                6.84760910               58.38567316                0.00010000                4.56559380               -2.00647352               -5.18424291               -8.60627977               23.62104106                0.70990594
              14.32735277                6.33000953               58.30344087                0.00010000                4.88867146               -1.84197388               -6.48195729              -11.93055359               25.52592232                0.13786514
              15.37599475                5.77562217               58.23394354                0.00010000                4.36789772                0.09689367               -8.15461924              -14.93321751               26.59096053               -1.47818991
              16.41471072                5.19856594               58.16389462                0.00010000                3.39955678                4.42378958              -10.91323828              -15.51360903               25.05853730               -3.19940039
              17.44398589                4.63372649               58.04871871                0.03861969                2.29656836               11.07765808              -16.45823981               -9.96190047               16.10302200               -1.50178751
              18.46064209                4.14979916               57.78723364                0.61085279                1.66562051               16.98467483              -18.80457461               -3.82018864                9.01695870               -3.09898596
               8.55555730                9.95267532               59.29752575                0.88780805                0.01353265               -0.18269406                0.71338958               -0.04743252                0.01404592                0.86709481
               9.55569263                9.57751406               58.96264616                0.26195244                0.27743982                0.20131045               -0.79274951               -0.01085954                0.28997397               -0.62313610
              10.56110610                9.20124163               58.63326361                0.00010000                2.00080483                0.48374194               -2.34910609               -2.46551007               11.45948786               -2.40508829
              11.59570873                8.77433183               58.52096619                0.00010000                3.92302592               -0.10167019               -3.70435335               -5.02163724               22.98551466               -1.57848097
              12.63956662                8.31808708               58.42496506                0.00010000                4.70168309               -0.78011253               -4.84710753               -6.59040636               24.59407273               -0.79563333
              13.68974239                7.83295053               58.34807517                0.00010000                5.10709153               -1.02197373               -5.98829681               -8.47685633               26.36309235               -0.37807899
              14.74170845                7.31969241               58.29128183                0.00010000                5.00264273               -0.42712405               -7.33406703              -10.54996043               27.88035321               -0.13848477
              15.78979524                6.78499915               58.24771136                0.00010000                4.18240030                1.37462251               -9.19458710              -11.76206520               28.85642686                0.96102538
              16.82535646                6.24692972               58.21044887                0.00010000                3.18602239                4.75940839              -11.66552245               -9.99531154               30.48766686                1.95794866
              17.85351569                5.74354593               58.19760260                0.07942905                2.95751883                9.42190852              -19.44245911               -4.88724983               21.13334947                7.85017739
              18.88450683                5.30680796               57.95598324                0.60884694                3.09911405               11.56522658              -19.24045093               -1.43881900               11.30050344                5.50359715
               8.92832156               10.95119025               59.19534140                0.88921861                0.10578697               -0.11775773                0.43246108               -0.05322984                0.00346136                0.87976274
               9.92937943               10.58009555               58.85278955                0.27580307                0.38423377                0.32195016               -1.12888501               -0.06765581                0.16424964               -0.66044797
              10.93600623               10.20686752               58.51343626                0.00010000                2.86331267                0.70312413               -2.91640376               -2.98744098               12.97921432               -2.40539118
              11.98664568                9.77494378               58.42631600                0.00010000                5.48039158               -0.00729808               -4.56362671               -5.46692302               26.22188608               -1.73139586
              13.04561407                9.31280788               58.35562698                0.00010000                6.02165913               -0.55918290               -5.74328846               -6.08662208               27.76447218               -1.19986113
              14.10707887                8.82716963               58.30545087                0.00010000                5.93454350               -0.32541253               -6.82499058               -6.96216144               29.59144932               -0.77740735
              15.16430494                8.32146705               58.28191940                0.00010000                5.32186359                0.51033632               -8.14456934               -7.90311514               32.11323093               -0.02896786
              16.21351614                7.80311462               58.29696318                0.00010000                4.59763894                1.90631681               -9.65440485               -7.60928197               33.34033356                2.92396867
              17.25625772                7.29375411               58.31030077                0.03603351                3.64232580                3.51550171              -12.45876438               -4.80416322               35.52139857               15.03560060
              18.28636265                6.82216466               58.37449743                0.14586059                2.45419731                5.41093379              -11.55115348               -1.68347183               20.39446028                6.78695647
              19.30534166                6.38110369               58.08495752                0.60440528                1.89790084                4.69140817               -9.21260583               -1.14142903                4.37481602                4.41919094
               9.29668210               11.95032017               59.09293737                0.84606173                0.19801341               -0.05524788                0.15810476               -0.05336007                0.01590783                0.77544269
              10.29866224               11.58395307               58.74270292                0.29044780                0.49134731                0.44716760               -1.47673307               -0.07313240                0.22374031               -0.62269336
              11.30650905               11.21530411               58.39661491                0.00010000                4.08838341                0.94133559               -3.64931000               -3.63453143               14.62710892               -1.68935933
              12.38042991               10.77418587               58.33326089                0.00010000                7.95496402               -1.06270958               -5.43210282               -4.48140633               29.36571682               -1.06973885
              13.46560833               10.30690342               58.28498326                0.00010000                8.07050457               -0.73536712               -6.62628408               -4.00001606               30.95847292               -0.83744603
              14.54184000                9.82644228               58.25968405                0.00010000                7.10464131               -0.06417343               -7.57485301               -3.96906013               33.13948774               -0.61119146
              15.60770116                9.32989914               58.27041272                0.00010000                6.17412739                0.90197430               -8.77984521               -4.26121795               36.85292916                0.00043675
              16.66532254                8.82312549               58.34585193                0.00010000                5.12609960                1.93608585              -10.15199576               -3.91346899               47.21932058                2.85344818
              17.71022315                8.31723975               58.59914163                0.16801407                3.35870649                2.02701988               -8.14785111               -2.39892126               34.02805126               14.67859142
              18.73249667                7.85176461               58.43114191                0.27110067                1.67885255                2.01499873               -4.10395335               -0.83818893                7.39474107                1.50133032
              19.74380020                7.40063612               58.12729463                0.59728423                1.13035243                1.46014525               -4.10013603               -0.68581302                1.21165674                0.70255648
               9.65998856               12.95008529               58.98855361                0.92226740                0.29442769               -0.02348800               -0.12133151                0.22600684                0.34263400                0.67195123
              10.66293284               12.58903890               58.63373957                0.68884232                0.65471233                0.50858325               -1.81124986                0.20750729                0.92616451               -0.56162292
              11.67308281               12.22569424               58.29060980                0.45500111                7.12427044                1.03901220               -4.03351611               -5.11008991               16.56730009               -1.00956195
              12.80541825               11.75368959               58.24716626                0.36753732               12.01372637               -2.04962797               -6.04075308               -3.88085063               32.39381903               -0.30100516
              13.91335733               11.29810054               58.21679625                0.36055232                9.96418514               -0.88028814               -7.22146782               -1.61527105               34.26082378               -0.17094567
              15.00470195               10.82588616               58.21209934                0.36599385                8.45200160               -0.05561204               -8.02632998               -1.64350526               36.78062234                0.03110061
              16.08239737               10.33950653               58.24753829                0.38380037                7.16020955                0.96073963               -9.12648172               -1.73287018               41.60021830                0.55950655
              17.14790614                9.84183633               58.37172738                0.41491245                4.86214032                1.87108444              -10.11212344               -2.00224196               52.22865454                3.85766879
              18.17964017                9.33429450               58.65801765                0.63862515                1.91481843                1.70547496               -5.67513547               -2.02688253               34.15028328                4.64361719
              19.18620251                8.86246464               58.45237434                0.68861572                0.71211016                1.07000273               -3.01899952               -0.82881225                5.61630419                0.03777528
              20.19388238                8.41030659               58.14878045                0.79612984                0.76798674                0.96704712               -3.13233124               -0.20758666                1.08425527                0.21590636
               6.13905559                3.10006094               61.03761382                1.00000000               -0.63938107               -0.80683928                2.79181231               -0.25789043               -0.60896250                0.67540006
               7.13266178                2.69169146               60.72605412                1.00000000               -0.45022810               -0.37867806                1.42320899               -0.19851100               -0.76700906                0.10713041
               8.13005103                2.28259450               60.41092240                1.00000000               -0.07418165                0.03573639                0.06840383               -0.20038900               -0.71433945               -0.12221742
               9.13117815                1.87183774               60.10013210                0.61612899                0.18576453                0.49624671               -1.32150846               -0.33984513                0.10834769               -0.61635919
              10.13376632                1.45709866               59.80130753                0.55050843                0.51038283                1.04536522               -2.89809308               -0.34053117                0.99616466               -0.08214486
              11.14138580                1.03979079               59.50796600                0.43133599                0.92745509                1.49222042               -4.44080155               -0.39348956                1.26056493               -0.40860352
              12.15231542                0.61740008               59.21434226                0.09671870              -10.13361599                2.01416783               -5.85932047              -16.10024646                6.67896617               -0.66657377
              12.93871348               -0.12390612               59.02897777                0.00010000              -21.97367882                5.13079139               -2.11759433              -27.07599664                3.83638588               -4.80867535
              13.71284184               -1.15466776               58.89690767                0.00010000               -5.35850392                7.49661829               -6.52129723              -28.84580654                5.79535772                7.70935118
              14.83154340               -2.07468132               58.60617715                0.60296532                8.61118895                6.17902881              -16.17450463              -24.42658257               -0.34013758                2.26351091
              15.88506562               -2.54735532               58.29671703                1.00000000                5.35222184                7.31242785              -19.51748397                0.92159692               -2.03908432               -0.79508089
               6.54484617                4.09199254               60.93178642                1.00000000               -0.54362775               -0.76128387                2.49459777               -0.03929897               -0.05624150                0.92850428
               7.53940989                3.68790468               60.62012268                1.00000000               -0.34360865               -0.33880716                1.12468881                0.01481871               -0.04886365                0.17007796
               8.53797399                3.28295186               60.30825612                1.00000000                0.05588614                0.07567762               -0.22941386                0.02216322                0.03069893               -0.26093028
               9.54052761                2.87680021               59.99798663                0.47432629                0.42052460                0.52846412               -1.61681824               -0.07269614                1.21996266               -0.77419322
              10.54638449                2.46755232               59.70989870                0.47410938                0.83862933                1.03689547               -3.27047429               -0.09699223                2.19854169               -0.16784466
              11.55730020                2.05471299               59.41889866                0.36540621                1.33884625                1.50758017               -4.86302209               -0.17057424                2.05033561               -0.58565876
              12.57316141                1.63754176               59.12797482                0.00010000               -0.16563803                1.93617738               -6.32174704              -14.66291216               13.09346017               -0.91811200
              13.55398744                0.92740179               59.05881451                0.00010000               -8.66950179               -1.02659357               -2.64570563              -35.29235885               20.66190169               -0.50365268
              14.39977138               -0.07970158               59.00125061                0.00010000              -13.51830402                7.56622148               -6.85726257              -38.62901106               10.63222359                6.91873179
              15.28362136               -1.01289103               58.68070112                0.17615030               -1.64078891                5.64345331              -24.40279746              -22.18689690                1.06090935               28.13157596
              16.36695560               -1.47423104               58.37095943                1.00000000                8.33342392                5.94847950              -27.70708607               -0.71277542                1.12225236               22.12989076
               6.94644535                5.08483526               60.83054415                1.00000000               -0.44465117               -0.66437231                2.18477856               -0.04487552                0.14873638                1.10811913
               7.94199884                4.68491531               60.51521239                1.00000000               -0.24232960               -0.25423859                0.81733690                0.00523283                0.30868490                0.10690617
               8.94159876                4.28410805               60.20281267                0.72909166                0.15624665                0.16743932               -0.53449742                0.01356384                0.58820318               -0.55433124
               9.94512377                3.88240703               59.89293787                0.00010000                0.61574693                0.60314839               -1.85025999               -0.09280093                2.42749545               -0.96928887
              10.95391370                3.47783657               59.61739230                0.00010000                1.14305527               -0.44682090               -3.64772420               -1.18401147                3.42355344                2.36023713
              11.96798488                3.06994239               59.32693287                0.00010000                1.62273414               -1.61679397               -5.22861756               -1.75206626                2.75134144                5.85095038
              12.98636838                2.65612363               59.03817968                0.00010000               -0.89376152               -5.98532021               -6.58142369              -20.28275855               21.77857976               12.58415712
              13.95010964                1.85556201               59.12789080                0.00010000               -5.29069681               -4.49280569               -5.08385474              -40.34865704               37.38238693                4.52646711
              14.88055444                0.99665667               59.12318848                0.00010000               -8.38873581                6.33426070               -6.95282276              -43.03468956               41.81028952                5.03223331
              15.78233493                0.03818775               59.28461379                0.42697723               -4.35321492                3.65858774               -3.00854626              -23.71649116               25.66236801               28.31330554
              16.79349014               -0.42838573               58.91649181                0.95888834                1.11552147                3.77111064               -5.92510326               -1.67562422               -1.38863842               21.73954629
               7.34378855                6.07870510               60.72783240                1.00000000               -0.35467943               -0.55391909                1.86825338               -0.05511476                0.26670114                0.91921499
               8.34024176                5.68281990               60.40781225                0.64013522               -0.15174966               -0.16320750                0.49978388                0.00432475                0.60112513               -0.30263236
               9.34075356                5.28630065               60.09432207                0.11910707                0.23506577                0.27624822               -0.85448317                0.00970398                1.24531107               -1.13002079
              10.34494307                4.88886318               59.78715092                0.00010000               -0.27923318                0.13454721               -2.12043383               -1.87099830                6.41289656                0.95705745
              11.33516889                4.45861590               59.57737960                0.00010000               -0.04856263               -1.96564107               -3.04401017               -3.84235423               11.27671761                4.79407912
              12.34397182                4.02237711               59.36753110                0.00010000                2.33588659               -5.11783917               -4.24468931               -6.93460674               14.91370906               10.31146656
              13.38188662                3.51783535               59.22480918                0.00010000                3.12547201              -11.16140634               -4.87576115              -17.80945939               23.39105147               16.13852260
              14.40648126                2.83754568               59.16173372                0.00010000               -1.27173929               -2.61336013               -5.59277558              -28.15442469               32.59355105                3.11793219
              15.35645184                2.04698363               59.18665469                0.00010000               -8.60736635                4.03284200               -5.71704084              -38.77216397               45.81642885               -3.60996884
              16.23433393                1.06028073               59.37366119                0.11904988               -4.49308825               11.13106920               -9.41357425              -19.03719570               29.72428807              -17.25615852
              17.26659007                0.60119117               59.00233621                0.75119090                3.22561426                3.79149774              -11.94978178                4.34065133                2.45147383              -17.31731075
               7.73711344                7.07375688               60.62230758                0.95189701               -0.26236598               -0.43442506                1.56051688               -0.04548088                0.11011963                0.74618293
               8.73448978                6.68165116               60.29457977                0.38006503               -0.06819410               -0.08330961                0.15756888                0.05221600                0.64178913               -0.62821732
               9.73574956                6.28963301               59.97738802                0.00010000                0.04493859                0.32202726               -1.18355116               -0.46348162                4.19346817               -1.80419929
              10.73538855                5.88509797               59.72073718                0.00010000                0.39015591               -1.07883353               -0.99339833               -2.93658056               11.14732471                2.94430506
              11.74355268                5.43852375               59.54543222                0.00010000                1.73423647               -2.26794453               -3.00337141               -4.64853249               16.22727693                4.13767261
              12.77007328                4.96758561               59.38532502                0.00010000                3.57289732               -5.03643693               -4.08005192               -7.66396147               19.30734551                6.20619079
              13.81501062                4.43289550               59.26131762                0.00010000                4.38997940               -6.96176628               -5.07934262              -14.96893256               24.08148293                5.30288214
              14.85787287                3.80329480               59.18204094                0.00010000                3.36827437               -3.31227145               -6.10602135              -22.96721574               28.78793900                0.32801661
              15.88237611                3.07731351               59.13801786                0.00010000               -0.52446971                2.85744118               -7.53356799              -27.53138185               29.43725479               -9.63563175
              16.84738348                2.26080913               59.06533768                0.07089937               -4.19469149               17.72299747               -6.40986254              -15.18050512               17.35627426              -34.59570176
              17.79848228                1.64744422               58.77222532                0.69631047               -4.89011950               11.87408727              -11.28562994               -7.54103397                9.17737755              -30.29710008
               8.12709036                8.07001660               60.51564038                0.90655721               -0.16804230               -0.32361904                1.27391506               -0.03654287                0.04997254                0.76342956
               9.12540994                7.68115371               60.18075034                0.29674871                0.04733769               -0.01550853               -0.15446981                0.07860509                0.54337697               -0.64478635
              10.12803712                7.29274119               59.85567431                0.00010000                0.59553919                0.27098677               -1.56710092               -1.59850709                7.97387890               -2.18940077
              11.13732072                6.86728651               59.66904047                0.00010000                1.58367457               -1.38818904               -2.30523788               -3.80348364               15.98369102                1.60341185
              12.15971061                6.41325701               59.50422254                0.00010000                2.95000582               -2.37174915               -3.30806105               -5.90532830               18.69210089                2.19245121
              13.19632084                5.92164837               59.36890149                0.00010000                4.35440851               -3.92705055               -4.50716500               -9.51037340               21.76730371                2.63699283
              14.24679878                5.37860003               59.25791391                0.00010000                5.31990492               -4.42256547               -5.74979300              -14.94205389               24.52610732                1.51504916
              15.30271894                4.77130025               59.16650813                0.00010000                5.07555466               -2.32615135               -7.29393209              -20.58123694               25.94076848               -2.07669447
              16.34830987                4.10413246               59.07016838                0.00010000                2.89370868                3.15334833               -9.07784573              -23.52938674               23.98420999               -9.00526558
              17.36059311                3.41474068               58.92069166                0.00897496               -0.29053281               13.80143022              -11.29802608              -15.55308070               14.50773343              -18.82935431
              18.34249921                2.83867292               58.62991407                0.62342016               -1.80938968               18.69851503              -13.59478922               -6.64157908                6.58946604              -20.38916620
               8.51410836                9.06728450               60.40990915                0.88992589               -0.07710673               -0.23529101                0.99422750               -0.04278247                0.02104937                0.86215115
               9.51333729                8.68134099               60.06763694                0.26610794                0.17691325                0.06751968               -0.46708158                0.03112308                0.38894951               -0.63177874
              10.51764662                8.29505275               59.73269875                0.00010000                1.27328895                0.24070060               -1.97967332               -2.39744553                9.99454310               -2.43133214
              11.53880307                7.85733419               59.58185677                0.00010000                2.67188138               -0.76885787               -2.97038930               -5.19387943               19.99617478               -1.04471064
              12.57108425                7.39108877               59.44751884                0.00010000                3.78598630               -1.79802235               -4.04018891               -7.41618117               21.88635465                0.15644219
              13.61452279                6.88904460               59.33348575                0.00010000                4.77167117               -2.56930088               -5.22581260              -10.75738492               23.95223694                0.47805793
              14.66651767                6.34444419               59.23733753                0.00010000                5.30964552               -2.46656945               -6.66563189              -15.03682725               25.58412493               -0.13532260
              15.72071570                5.75677178               59.14947423                0.00010000                5.09151385               -0.51101573               -8.61459429              -18.99127919               25.92837603               -2.03869621
              16.76834795                5.14038047               59.04784900                0.00010000                4.05328503                4.18953649              -11.71451474              -20.04601314               23.06454677               -4.43394047
              17.80178140                4.53683774               58.88561122                0.00195492                2.47191362               11.52205878              -15.92147015              -13.48819510               13.82745100               -6.48467597
              18.81778622                4.02141453               58.59441509                0.59902474                1.60048169               17.38548300              -18.63031303               -5.74084044                7.23495353               -7.88287336
               8.89812172               10.06531078               60.30470619                0.88231140                0.01424259               -0.16472209                0.71582763               -0.04967087                0.00885758                0.92299075
               9.89826415                9.68250411               59.95467460                0.25801299                0.29866426                0.17536872               -0.79035760               -0.06527621                0.23490420               -0.67076778
              10.90409501                9.29755520               59.60916434                0.00010000                1.95714839                0.33952029               -2.47038809               -3.07073467               11.47811044               -2.77194362
              11.93740712                8.85190935               59.48326728                0.00010000                3.77907856               -0.27413354               -3.78890615               -6.17006030               23.28329592               -2.24576467
              12.97967658                8.37729656               59.37593533                0.00010000                4.52053009               -0.98011079               -4.93001478               -8.05325206               25.03948938               -1.32162347
              14.02781772                7.87026236               59.28729833                0.00010000                4.93292371               -1.23717378               -6.12195562              -10.76426415               26.69119922               -0.73166403
              15.07833505                7.32926864               59.21577797                0.00010000                4.95696772               -0.67385503               -7.69397830              -13.98828239               27.80796139               -0.55760009
              16.12695707                6.76107993               59.15083761                0.00010000                4.44942963                1.10854090               -9.94483025              -16.16065095               28.22403642                0.20268351
              17.16732365                6.18792319               59.08420117                0.00010000                4.14190427                4.92275584              -13.65727330              -15.28883575               26.44713348                0.48143175
              18.20979516                5.64518185               58.96879651                0.02870403                4.56025940               10.95402236              -22.09759009               -9.68617967               17.55178888                6.78845007
              19.25852883                5.18638258               58.70075744                0.59160677                4.87336755               15.20026756              -25.75972301               -4.10246908               10.78899915                5.80671562
               9.27872828               11.06399006               60.19973680                0.88414733                0.10590544               -0.10498762                0.43954715               -0.05723595               -0.00357336                0.94948931
              10.27978734               10.68484837               59.84141746                0.27547003                0.40491996                0.30406059               -1.13161680               -0.15876855               -0.01786781               -0.73517145
              11.28682668               10.30184316               59.48283664                0.00010000                2.79365853                0.64726515               -3.19579868               -3.57662789               12.69799315               -3.02414636
              12.33566051                9.85185152               59.37860046                0.00010000                5.24197612                0.08026922               -5.06541619               -6.48442860               26.38060417               -2.69816734
              13.39166620                9.37148655               59.29646674                0.00010000                5.58024619               -0.42520300               -6.08344714               -7.34379631               28.33467408               -1.87251412
              14.44726543                8.86430112               59.23558557                0.00010000                5.21341213               -0.12708742               -7.08448558               -9.01863124               30.00140542               -1.16785991
              15.49593445                8.33096709               59.19705473                0.00010000                4.57913534                0.85975855               -8.67875027              -11.28866708               32.07369679               -0.49672505
              16.53884814                7.77894259               59.19210173                0.00010000                4.12674344                2.46147022              -11.38375108              -12.37413008               32.36641550                1.92421292
              17.57846931                7.23883559               59.16965034                0.00010000                3.53751422                4.67177355              -14.70996289               -9.33717534               34.76123797               14.26020178
              18.60959842                6.75591819               59.21107777                0.08489689                3.74330383                8.82767840              -23.01031359               -3.97752428               24.30710092               12.45750941
              19.65333539                6.32541988               58.95527348                0.58372601                4.37369698                9.21586270              -22.65135567               -2.75944643               12.58094209               10.14668369
               9.65526038               12.06321102               60.09463980                0.83864641                0.19752970               -0.05175100                0.17553870               -0.05564568                0.00735635                0.85788252
              10.65723568               11.68858532               59.72779022                0.30478615                0.51494586                0.44139704               -1.49257313               -0.13537007               -0.17889917               -0.71078502
              11.66555930               11.31050051               59.35726552                0.00010000                4.04197351                1.02897032               -4.13858962               -4.07114154               13.99951836               -2.20815517
              12.73807515               10.85351474               59.27496858                0.00010000                7.73958773               -0.67966967               -6.67763255               -5.15175927               29.48107450               -1.88846495
              13.82035105               10.36879250               59.21523139                0.00010000                7.49447038               -0.26969313               -7.45731810               -4.75994028               31.82708762               -1.33579646
              14.88796455                9.86772061               59.18129641                0.00010000                5.87845931                0.52764380               -7.96299153               -5.22424903               33.79645485               -0.87310257
              15.93792024                9.34646381               59.17827466                0.00010000                4.18207084                1.86084646               -9.50166108               -6.53989299               36.68298639               -0.37730622
              16.97160597                8.81030934               59.23129986                0.00010000                3.28421543                3.78488443              -12.30394021               -7.09502496               47.51133667                1.98108620
              18.00360455                8.28135866               59.48895826                0.12354503                3.60272074                4.00845778              -17.59137564               -4.54524536               38.39944281               16.25099256
              19.04366039                7.82173542               59.38336167                0.20484916                3.03659891                4.06602416               -7.92140627               -1.15714169               11.87095610                5.89921107
              20.06433652                7.37069983               59.07572891                0.57547406                2.06761385                3.17366172               -8.69788057               -2.23382105                3.79920182                3.49135010
              10.02686678               13.06295504               59.98752227                0.91798720                0.29236679               -0.02559893               -0.09000631                0.23276760                0.38134375                0.76059640
              11.02979045               12.69367631               59.61545702                0.70547986                0.68038238                0.50909908               -1.83007631                0.22885377                0.58668308               -0.65494486
              12.04047443               12.32242256               59.24758012                0.47706690                7.22714392                1.19220540               -4.37009428               -5.27939568               15.84793051               -1.34752982
              13.17433333               11.83825813               59.18108327                0.36742901               12.08935479               -1.52566099               -8.04467549               -4.19067536               32.30631960               -0.55363577
              14.28226153               11.36609269               59.13933767                0.36058771                9.53879047               -0.26998099               -8.45888996               -1.97915899               35.42742958               -0.42704965
              15.36510914               10.87485400               59.12803658                0.36575110                7.01431646                0.71333892               -8.62835831               -2.18097507               37.69068272               -0.14240681
              16.42254786               10.36818402               59.15067341                0.38285339                4.84718257                2.17202094              -10.00834041               -2.54792390               41.54541966                0.31813320
              17.46205279                9.85464028               59.25296586                0.41261697                2.67952347                4.43309447              -13.35496901               -3.41428183               53.97294281                3.36603643
              18.47613832                9.31900475               59.58216482                0.61381511                1.75308127                3.76460873              -14.20478327               -3.61670279               39.16058707                8.92747935
              19.49711442                8.83723867               59.41926414                0.65299103                1.72959128                1.55032488               -4.85892270               -1.16017878                8.84950031                0.61254182
              20.51073015                8.38889311               59.10956931                0.78560042                1.36157348                1.81932804               -6.56267600               -0.19519326                2.79964549                0.88656018
               6.45150458                3.21406325               62.06512440                1.00000000               -0.61730167               -0.78031063                2.70215388               -0.25170050               -0.58621432                0.66316916
               7.44533157                2.80016895               61.74005275                1.00000000               -0.43228398               -0.36619181                1.37444779               -0.19458926               -0.73491743                0.10322501
               8.44285890                2.38556705               61.41153730                1.00000000               -0.06476693                0.03448215                0.05907319               -0.19499099               -0.69346165               -0.11484159
               9.44403623                1.96940522               61.08702858                0.60988953                0.19489918                0.48019429               -1.28822487               -0.33102550                0.01284805               -0.59600946
              10.44675689                1.54937532               60.77258876                0.53561876                0.51655228                1.00847859               -2.82363648               -0.33968161                0.81223412               -0.11478920
              11.45436727                1.12662318               60.46389480                0.40547656                0.93680450                1.45088497               -4.34153102               -0.39569775                1.14315298               -0.45710571
              12.46549298                0.69918869               60.15634368                0.05307654              -15.33627421                1.91309459               -5.70292996              -23.58021670                9.66002176               -0.74947434
              13.14764179               -0.19552779               60.01849361                0.00010000              -22.98384811                7.66686583               -1.41413442              -25.25731697                9.58382191               -1.92030824
              14.00581602               -1.15602656               59.83192150                0.00010000                0.03670393                5.28532837               -6.21872921              -23.74037419                3.77591294               12.15097355
              15.14837587               -2.08250476               59.45635233                0.65606594                9.23957105                4.90262238              -12.98680733              -23.03345271               -2.44095836                1.57853469
              16.19060744               -2.58167958               59.11424525                1.00000000                4.22315681                5.86461039              -15.87707650                0.70051235               -2.01680581               -0.59060151
               6.86288189                4.20626015               61.95636556                1.00000000               -0.52481117               -0.73458661                2.41369468               -0.04173973               -0.04283299                0.91599122
               7.85763377                3.79650703               61.63117536                1.00000000               -0.32955135               -0.32725458                1.08438571                0.00967431               -0.02508560                0.16289144
               8.85629086                3.38591187               61.30594031                1.00000000                0.05940330                0.07313377               -0.22909343                0.01873787                0.04510122               -0.26106412
               9.85882184                2.97420716               60.98197970                0.48114464                0.42301140                0.51225821               -1.57374060               -0.07444672                1.08150783               -0.72940234
              10.86475109                2.55946010               60.67756811                0.47585937                0.83408855                0.99577559               -3.17532460               -0.09591739                1.94074017               -0.21005010
              11.87550361                2.14113203               60.37080099                0.35803305                1.30076060                1.45902186               -4.72842085               -0.18785923                1.87863025               -0.61889369
              12.89076630                1.71831963               60.06564299                0.00010000               -2.64136834                1.80677021               -6.12028096              -20.76322820               14.99295112               -0.92518872
              13.82267624                0.88114087               60.02241696                0.00010000               -8.94327701                2.71181191               -4.51307151              -33.83678712               22.78601960                1.75213418
              14.71190076               -0.10317328               59.92884409                0.00010000               -9.59041970                6.28258931               -7.28842267              -34.39393947                4.60973226               11.47118102
              15.63086785               -1.03347854               59.44607867                0.12510792               -0.75566915                4.55977347              -20.07340421              -20.59655537               -5.14559239               41.36972881
              16.69678738               -1.52303348               59.10370815                1.00000000                6.59195253                4.61709851              -22.96069470               -0.39457296               -0.19246081               36.62346522
               7.27017603                5.19937152               61.85208171                1.00000000               -0.43027022               -0.63637728                2.11527712               -0.04873834                0.15936285                1.09356567
               8.26587332                4.79362385               61.52323046                1.00000000               -0.23212485               -0.24569742                0.78536023               -0.00173495                0.32927030                0.09175429
               9.26553353                4.38702973               61.19747043                0.69600660                0.15628691                0.16406310               -0.52885137                0.00950836                0.63604174               -0.57218410
              10.26899906                3.97965038               60.87464834                0.00010000                0.61900668                0.59140018               -1.79743062               -0.10774839                2.25759224               -0.91947008
              11.27791366                3.56929083               60.58148574                0.00010000                1.13757478               -0.75702709               -3.51736866               -1.16592568                3.10009641                2.79989247
              12.29175056                3.15580362               60.27546228                0.00010000                1.61529590               -2.12397363               -5.04126831               -1.60978602                2.61964172                6.48488087
              13.31021958                2.73532409               59.97329965                0.00010000                0.03241997               -7.36638791               -6.36763001              -23.04969291               22.82931911               13.58715160
              14.29239896                1.85870845               60.07145200                0.00010000               -3.88314754               -1.60876181               -5.85259707              -41.43135969               38.76145353                6.06611879
              15.23255663                0.96962523               60.04904913                0.00010000               -6.80469995                5.96108566               -7.32987638              -42.20307989               45.83842954                9.78807475
              16.15630496                0.00869071               60.26148160                0.42729168               -3.53653912                3.16282360               -2.01542732              -22.65773381               29.37664884               42.21414159
              17.16182585               -0.48933761               59.87196575                0.95634886                0.55208893                2.89759393               -3.44261549               -1.02209118               -1.10623805               37.32353689
               7.67340245                6.19353260               61.74627687                1.00000000               -0.34615851               -0.52465692                1.81264741               -0.05547487                0.27875580                0.91481215
               8.66994087                5.79159308               61.41271088                0.61471067               -0.14739762               -0.16250020                0.47973575                0.00838765                0.61857207               -0.33394686
               9.67045450                5.38919314               61.08575983                0.09015901                0.22324512                0.26572592               -0.85232052                0.02566323                1.31705859               -1.16093910
              10.67440577                4.98603516               60.76619166                0.00010000               -0.25875847               -0.28783125               -2.06035824               -2.19682095                6.70671279                1.74100748
              11.66527933                4.54431956               60.54763744                0.00010000                0.14344291               -2.52718113               -2.92662335               -4.20095659               11.71705361                5.50287249
              12.67727463                4.09865256               60.32572271                0.00010000                3.07941427               -6.19144949               -4.12218628               -7.59520486               15.48442778               11.37665792
              13.72686762                3.57099188               60.17580945                0.00010000                4.12366446              -13.07438729               -4.88455030              -19.72994287               24.09532573               17.70747848
              14.75974792                2.84896563               60.10406605                0.00010000               -0.45053580               -2.37296358               -5.78104450              -31.62131895               33.56578946                4.77638178
              15.71785690                2.01604844               60.12655403                0.00010000               -6.15359545                4.11508348               -6.04279916              -40.57003100               45.14147927               -0.17082766
              16.63667601                1.02977793               60.26711962                0.16548039               -2.27273591                7.05453516              -10.68447704              -21.36496530               28.17307475              -12.20527949
              17.67240218                0.53491840               59.87610584                0.80774758                3.57261734                2.41225430              -12.03230721                2.49382175                1.52545765              -13.00274402
               8.07294557                7.18887838               61.63775680                0.93909280               -0.25650314               -0.40352933                1.52040817               -0.03962308                0.10228195                0.76557274
               9.07038054                6.79037385               61.29612399                0.36201267               -0.06704311               -0.09766032                0.15256213                0.07480858                0.66493749               -0.65853105
              10.07160471                6.39234425               60.96561137                0.00010000               -0.02221624                0.26399445               -1.16484289               -0.80711870                5.07297527               -1.88098985
              11.06993622                5.97389375               60.71223062                0.00010000                0.48362103               -1.58264825               -0.88895352               -3.38168957               11.66884556                3.02459678
              12.08127713                5.51874721               60.51582262                0.00010000                2.16189651               -2.87924605               -2.96113153               -5.14028790               16.17820372                4.52498392
              13.11317415                5.03197463               60.34483933                0.00010000                4.20152618               -6.04967163               -4.02669969               -8.85317080               19.77547358                6.79431941
              14.16530766                4.47383635               60.21039213                0.00010000                5.08709354               -8.00894548               -5.07371228              -17.31724904               24.49265547                6.01103381
              15.21491602                3.81124917               60.12030597                0.00010000                3.75180260               -3.74357621               -6.12170683              -25.90402327               28.85371997                1.43016802
              16.24034371                3.05192689               60.06087520                0.00010000               -0.23901664                2.62345193               -7.43032319              -33.00455155               30.26240941               -8.09524307
              17.21013569                2.14978141               59.99826402                0.08833178               -1.94611833               14.76771079               -7.36292886              -19.76497617               16.59826036              -29.56564173
              18.20142134                1.55890748               59.64991608                0.72474109               -0.87143449               10.11114807              -11.75382406               -7.38748037                5.50655506              -22.65100925
               8.46961906                8.18546201               61.52829000                0.89744676               -0.16478814               -0.29285226                1.24701475               -0.03383732                0.04352038                0.80459638
               9.46797117                7.78963987               61.17923222                0.28767907                0.05865827               -0.04321691               -0.14531092                0.08913931                0.53744023               -0.66414779
              10.47079222                7.39447303               60.83998386                0.00010000                0.61989213                0.13658840               -1.56577988               -1.95285792                8.32129478               -2.35310835
              11.48036902                6.95438220               60.64616748                0.00010000                1.68002370               -1.60187962               -2.30425307               -4.43236597               16.62240598                1.00196263
              12.50439270                6.48673464               60.47150602                0.00010000                3.23765278               -2.94605098               -3.27387961               -6.79305953               19.11191758                2.32728082
              13.54512207                5.97765913               60.32396787                0.00010000                4.84276987               -4.66006063               -4.49501527              -11.08242236               22.07066412                3.00314541
              14.60124809                5.41081297               60.20017604                0.00010000                5.92274155               -5.21986608               -5.76047661              -17.29129450               24.61139497                2.04789372
              15.66357690                4.77409411               60.09284626                0.00010000                5.89927705               -3.03652041               -7.27914731              -23.65803579               25.67808407               -1.45747531
              16.71923363                4.06851747               59.97900543                0.00010000                3.54094997                2.19637260               -8.93431569              -27.47204974               23.35161863               -8.29786004
              17.73439590                3.32513215               59.80800362                0.00240154               -0.64165974               15.30733561              -10.54978338              -18.37714906               13.75007947              -20.69530029
              18.70640044                2.73714136               59.49140547                0.63000417               -2.79954642               18.11954191              -13.52854934               -9.48347516                6.38307059              -19.82082002
               8.86391311                9.18302134               61.41980593                0.88396922               -0.07607938               -0.20772606                0.97603465               -0.04225328                0.01652166                0.91307075
               9.86315232                8.78950951               61.06301854                0.26402067                0.19460586                0.03391574               -0.44809510                0.00080326                0.33956896               -0.66024471
              10.86780523                8.39507601               60.71268179                0.00010000                1.29374820                0.05959224               -2.00833148               -2.81849722               10.18905563               -2.69332675
              11.88902728                7.94185616               60.55231147                0.00010000                2.71668904               -1.08546742               -2.96896845               -6.05075919               20.48842342               -1.29096507
              12.92213901                7.45982619               60.40727716                0.00010000                3.92100470               -2.20139645               -4.03379406               -8.55750441               22.32280840                0.12781608
              13.96744738                6.93877342               60.28115691                0.00010000                5.04538897               -3.07208539               -5.25547672              -12.58927508               24.25586964                0.76044826
              15.02304679                6.36943903               60.17012823                0.00010000                5.83017093               -3.09948788               -6.74580866              -17.75871729               25.53321696                0.30675509
              16.08405079                5.75051877               60.06165166                0.00010000                5.84089405               -1.38343922               -8.73963689              -22.56544056               25.14216929               -1.59050784
              17.13986467                5.09585435               59.92960433                0.00010000                4.49590103                3.31197722              -11.52412564              -23.87420249               21.38238560               -5.03920251
              18.17396882                4.45592812               59.73028930                0.00010000                2.39343673               11.43581153              -14.85193275              -16.04783698               12.22939843               -9.31807094
              19.18773340                3.92129831               59.41462738                0.59375760                1.37645895               16.24712602              -17.24420967               -6.96475505                5.96747611              -10.86661841
               9.25579764               10.18130749               61.31184230                0.87810709                0.01349208               -0.13874587                0.70255785               -0.05014767                0.00470871                0.98191205
              10.25593256                9.79031819               60.94683900                0.26230215                0.31389925                0.13834915               -0.76292649               -0.14363552                0.10373176               -0.72093552
              11.26207563                9.39566487               60.58385585                0.00010000                1.93355487                0.16037017               -2.55012550               -3.63337349               11.42515004               -3.23123728
              12.29460366                8.93267285               60.44518807                0.00010000                3.71248618               -0.62885142               -3.77786549               -7.06788879               23.60198944               -2.85139630
              13.33632535                8.44270671               60.32636477                0.00010000                4.45600370               -1.18823244               -5.00495292               -9.16360032               25.51575191               -1.52671660
              14.38372373                7.91621742               60.22563606                0.00010000                4.90015250               -1.44795332               -6.23933324              -12.74059457               27.06458850               -0.47086529
              15.43432840                7.34882321               60.13740226                0.00010000                5.10645184               -1.02015877               -7.92731864              -17.17880859               27.84059072               -0.12475785
              16.48585277                6.74642532               60.04881475                0.00010000                5.10059140                0.53089323              -10.38392195              -20.49340748               27.10362709                0.17082326
              17.53634023                6.13475702               59.93730340                0.00010000                5.10712124                3.91733532              -14.72144405              -19.99675892               23.30991540                0.28588620
              18.58799520                5.55384838               59.75565080                0.00010000                5.00123613               10.04107847              -20.54997805              -12.98802087               13.70296239                1.51190693
              19.63636495                5.06208388               59.44078878                0.58208031                4.83697552               14.38837864              -24.51354735               -5.13466524                7.19728819                0.05625601
               9.64488877               11.18024642               61.20413235                0.88067897                0.10334600               -0.08075728                0.42893183               -0.06045500               -0.01296358                1.02755022
              10.64592223               10.79227649               60.83015722                0.29377771                0.39471637                0.26898096               -1.09865242               -0.27185137               -0.35082399               -0.82313067
              11.65278310               10.39828342               60.44952028                0.00010000                2.73527165                0.53663303               -3.30267413               -4.28759638               12.02295954               -3.73326886
              12.70062766                9.92927913               60.32500768                0.00010000                5.12696663                0.06304520               -5.43839388               -7.23700067               26.30567624               -4.35782334
              13.75532243                9.43606154               60.23395804                0.00010000                5.29456624               -0.26950758               -6.53000893               -7.99839410               29.04130666               -2.31004966
              14.80651899                8.90981435               60.16376115                0.00010000                4.69701433                0.01559013               -7.29664532              -10.80118012               30.64878428               -0.88864682
              15.84926272                8.34903585               60.10834439                0.00010000                4.08649229                0.99555600               -9.08084218              -14.58243426               32.03702642               -0.06522341
              16.88824883                7.76113663               60.06928816                0.00010000                4.16218582                2.77288823              -12.80598695              -17.79109411               32.12932008                2.07474102
              17.93250643                7.17420105               60.01610151                0.00010000                4.93163489                4.74940541              -16.74752084              -15.72884862               29.52750315               10.60777950
              18.98688153                6.65674969               59.91429116                0.03085976                6.80313266               10.38570379              -29.24062304               -8.49926110               20.21017388               16.03937903
              20.06856909                6.20906589               59.63193041                0.57403352                8.16875549               12.70417038              -33.92726561               -4.83414078               13.59148256               12.60672852
              10.03052839               12.17969235               61.09644814                0.83248127                0.19301446               -0.03570676                0.17253487               -0.05659592               -0.01329760                0.96064991
              11.03245854               11.79569781               60.71285146                0.35590446                0.43963338                0.41649570               -1.46712159               -0.23041996               -0.79376950               -0.82142387
              12.03932106               11.40639753               60.31384312                0.00010000                3.98134943                0.99155113               -4.02358985               -4.50659953               12.43288507               -2.66763133
              13.11208553               10.93393375               60.19970824                0.00010000                7.82505946                0.05541737              -10.17166275               -5.49607758               29.18912089               -3.60393983
              14.19582225               10.43731656               60.13583690                0.00010000                7.13201478                0.26427198               -8.20595224               -4.88871691               33.26626520               -1.61487103
              15.25472582                9.91652922               60.10042422                0.00010000                4.77675941                0.98716673               -8.17345788               -6.39606770               34.82310426               -0.63685643
              16.29135744                9.36873433               60.08037949                0.00010000                2.50699321                2.60179255              -10.14318887               -8.77661882               37.05856031               -0.05230407
              17.30486569                8.80188309               60.09977313                0.00010000                1.73963790                5.23442154              -14.17809607              -11.56822231               44.95981893                1.85551443
              18.32615020                8.22974513               60.24731412                0.05299376                3.91397271                7.61149569              -28.22010535               -8.81367189               45.44696318               14.40804773
              19.38314514                7.76156245               60.27271379                0.13160121                5.44497730                7.30804112              -22.65059979               -3.23356715               23.45228998               13.85748666
              20.43504974                7.31616729               59.95333702                0.56828059                5.19046022                7.56455585              -23.48894724               -4.50472255               11.18003741               10.15652334
              10.41174593               13.17953228               60.98675349                0.91390920                0.28627138               -0.01600631               -0.08193040                0.22916662                0.43101821                0.88194178
              11.41460865               12.80060641               60.59713804                0.74701845                0.63346135                0.49086021               -1.79272431                0.14411896                0.20638811               -0.78180676
              12.42441516               12.41811444               60.20320791                0.52323256                7.25892166                1.17169098               -4.03866900               -5.00153621               13.73728232               -1.59532553
              13.55978708               11.93038748               60.08627275                0.36714305               12.52687297               -0.35462714              -13.33218641               -4.06821746               31.15982514               -0.46505564
              14.67495262               11.44134698               60.04761845                0.36061900                9.36963926                0.40304177               -9.28364615               -2.12845248               37.30693444               -0.80693413
              15.74717987               10.92955769               60.03953218                0.36555908                5.67119291                1.30284637               -9.03054643               -2.76835931               39.13987413               -0.13025407
              16.78837648               10.40107170               60.04737148                0.38179710                2.43468612                3.23373721              -10.93504755               -3.48472711               41.81814882                0.36394649
              17.79587359                9.86582506               60.10462800                0.41035538                0.40885738                6.39419758              -15.47537311               -4.63124626               53.62749453                1.60149122
              18.79655363                9.32643097               60.37392199                0.56902622                1.99572173                9.66858398              -30.24386256               -6.10538423               50.51368030               13.67209713
              19.83578802                8.80291051               60.35519589                0.60890015                3.63556662                4.13480589              -16.30857679               -3.03940966               21.21083074                6.08888605
              20.86926496                8.36035700               60.01752693                0.78356888                3.34769355                4.41897121              -18.04594999               -0.83382906                9.28197500                2.90185331
               6.77747459                3.33084199               63.09165690                1.00000000               -0.59240703               -0.74869273                2.59666131               -0.24359128               -0.56538929                0.65245282
               7.77155052                2.91151075               62.75354307                1.00000000               -0.41343148               -0.35259482                1.32169784               -0.18922513               -0.70547994                0.09921193
               8.76920596                2.49149166               62.41210386                1.00000000               -0.05834353                0.03057963                0.05859700               -0.18820016               -0.67437389               -0.10811025
               9.77038365                2.07001532               62.07436761                0.60451316                0.19694080                0.45770906               -1.23373739               -0.31774302               -0.08145132               -0.57813752
              10.77314478                1.64484418               61.74483480                0.52209589                0.50551431                0.96101584               -2.70753401               -0.33563001                0.61959631               -0.14518505
              11.78049394                1.21683629               61.42113538                0.38095235                0.88861344                1.39313496               -4.17695448               -0.42121143                1.01660070               -0.50010642
              12.79091705                0.78381198               61.10028366                0.01205801              -16.28409197                1.82700351               -5.47103426              -26.30102211               12.11537736               -0.87097306
              13.45481210               -0.17015899               61.00069508                0.00010000              -22.02078325                7.96450763               -2.46197623              -25.29580875               16.89059640                2.48579484
              14.35050138               -1.10549346               60.77253309                0.00010000                2.27941968                3.80878726               -5.48537459              -20.83992228                3.30875379               15.52216094
              15.50040049               -2.02256330               60.34644101                0.74001773                8.92211431                3.19375696               -9.02259784              -21.08548885               -3.27710615                1.08905059
              16.52894367               -2.53809315               59.97917550                1.00000000                2.85431768                3.86109123              -11.10807987                0.33738889               -1.57627033               -0.18790591
               7.19436992                4.32335506               62.98006031                1.00000000               -0.50364864               -0.70233576                2.31816574               -0.04400068               -0.03022715                0.90573747
               8.18933343                3.90798480               62.64181040                1.00000000               -0.31491230               -0.31479359                1.04135713                0.00436994               -0.00233384                0.15543864
               9.18807168                3.49179746               62.30367425                1.00000000                0.05982652                0.06765930               -0.21963443                0.01516813                0.05948406               -0.26364549
              10.19052997                3.07459241               61.96651182                0.48973919                0.41531599                0.48951748               -1.50956103               -0.07332366                0.95072480               -0.68699559
              11.19637800                2.65445433               61.64639221                0.47945616                0.81339795                0.94604591               -3.04240761               -0.09339359                1.69130223               -0.24268730
              12.20679792                2.23076764               61.32433024                0.35250979                1.25132362                1.39410029               -4.53932241               -0.21512338                1.71758725               -0.63635922
              13.22140447                1.80208201               61.00556920                0.00010000               -3.01455961                1.69441097               -5.87816995              -23.26167785               15.89649846               -0.95134448
              14.14650673                0.90948609               60.96855308                0.00010000               -7.65500762                3.26971416               -5.43278362              -33.73552328               26.75457246                5.92732934
              15.06830432               -0.06740559               60.85548216                0.00010000               -7.03306410                5.01008405               -6.81119885              -32.16598866                2.63196260               16.34157068
              16.00584545               -0.99062573               60.27923303                0.09957133               -1.02284495                4.19964602              -13.39118477              -19.27629277               -8.97796231               51.18920901
              17.04784742               -1.49948224               59.91174553                1.00000000                4.20019659                4.18902366              -15.47063629                0.18701956               -0.63093595               48.18995461
               7.60733510                5.31679527               62.87284969                1.00000000               -0.41395786               -0.60144038                2.03108715               -0.05175400                0.16806228                1.08287789
               8.60319552                4.90521487               62.53091959                1.00000000               -0.22166946               -0.23686814                0.75181295               -0.00768117                0.34759095                0.07809522
               9.60290171                4.49284485               62.19223564                0.65583971                0.15323894                0.15717310               -0.51286126                0.00665380                0.68554032               -0.59873556
              10.60626030                4.07980567               61.85698925                0.00010000                0.60999830                0.57543175               -1.72498959               -0.12050008                2.10953398               -0.87270088
              11.61510168                3.66376509               61.54704493                0.00010000                1.11517454               -1.00589318               -3.35648107               -1.07432265                2.80956043                3.21412047
              12.62856379                3.24471830               61.22610750                0.00010000                1.59316825               -2.51172071               -4.81158926               -1.36872311                2.49843822                7.07413545
              13.64696504                2.81770020               60.91082708                0.00010000                1.05127211               -8.35947811               -6.10450059              -24.27188352               23.53122441               14.46787750
              14.64958924                1.89523529               61.01083886                0.00010000               -1.98358096               -1.26333750               -5.95763790              -42.12231198               39.66416443                9.18592172
              15.60729343                0.99470822               60.97659095                0.00010000               -5.13189737                4.95733002               -6.78010593              -40.29410686               49.90405274               15.48370676
              16.54695129                0.06142962               61.24430524                0.43963721               -2.84481678                3.50092212               -1.67142840              -20.33113625               32.96569595               52.99119430
              17.55039709               -0.45431268               60.84763950                0.95727705                0.34458010                3.13341023               -1.98754432               -0.01026098               -0.35557819               50.32119111
               8.01649563                6.31132625               62.76408535                1.00000000               -0.33653995               -0.48700337                1.74153018               -0.05340201                0.28905286                0.91511812
               9.01313024                5.90324743               62.41740696                0.59050354               -0.14408399               -0.16278320                0.45961376                0.01765506                0.62664872               -0.35986816
              10.01361396                5.49494092               62.07727566                0.00010000                0.20347405                0.24721720               -0.83763987                0.05271675                1.38967699               -1.19498629
              11.01719972                5.08610105               61.74594376                0.00010000               -0.18175198               -0.70957931               -1.97976754               -2.41552639                6.99828822                2.44442411
              12.00997892                4.63433647               61.51884713                0.00010000                0.41443214               -2.93051209               -2.86714896               -4.30807256               12.09252334                6.20384023
              13.02548836                4.18053323               61.28508737                0.00010000                3.77354416               -6.97457310               -4.02974981               -7.84972860               15.90008516               12.43269796
              14.08544980                3.63489245               61.12711818                0.00010000                5.07820553              -14.44753033               -4.84269492              -20.69409221               24.46447500               19.45851211
              15.12705247                2.88421934               61.04611283                0.00010000                0.53890248               -2.60586709               -5.70436930              -33.41382396               34.19761237                7.33597994
              16.09622785                2.03174101               61.06579871                0.00010000               -3.94044235                3.41245125               -5.85722506              -40.12269000               44.17707196                4.85068932
              17.04824362                1.07939272               61.15997165                0.23106382               -0.85505220                3.35913380               -9.58981533              -21.25992614               25.81248841               -7.76518796
              18.07912680                0.56318596               60.76169007                0.87891829                3.08831813                1.67185444               -9.88883399                1.12493439                0.42126240               -8.34990154
               8.42242469                7.30705520               62.65271574                0.92845267               -0.24907377               -0.36334272                1.46257383               -0.03056440                0.09383394                0.78825328
               9.41993396                6.90195921               62.29763101                0.34742823               -0.06611290               -0.11356117                0.15114336                0.10343186                0.67903796               -0.68094852
              10.42110244                6.49778919               61.95409116                0.00010000               -0.06898668                0.18338475               -1.13234784               -1.12156669                5.87072637               -1.96999704
              11.41855422                6.06561408               61.70295811                0.00010000                0.67028057               -1.94280683               -1.26599214               -3.57936868               12.30388448                3.42808921
              12.43450805                5.60515485               61.48620959                0.00010000                2.62295093               -3.29941950               -2.96106510               -5.31087967               16.10884192                4.98019852
              13.47101324                5.10522683               61.30479103                0.00010000                4.74445200               -6.75697656               -4.02191357               -9.64147621               20.09717408                7.55506731
              14.52939709                4.52874959               61.15984338                0.00010000                5.67254769               -8.75353251               -5.03786041              -18.87051966               24.70822267                7.12366740
              15.58446420                3.84311795               61.05960680                0.00010000                4.01345793               -4.17071402               -5.92456843              -27.76967942               28.92713760                3.38079979
              16.60966625                3.06295724               60.98941140                0.00010000                0.29218079                1.88525600               -6.69863155              -35.52743112               30.44669759               -5.43851053
              17.59030781                2.12861230               60.91807910                0.12535367               -0.21784830                9.47083382               -7.30209474              -20.44408940               16.18666426              -18.99733268
              18.60530928                1.57912441               60.53714884                0.76801593                1.50014691                5.71796253               -9.28680687               -3.73728221                1.74973706              -13.51517981
               8.82607633                8.30405940               62.54058067                0.89054086               -0.16114485               -0.25307974                1.20039308               -0.02887475                0.03714489                0.84511939
               9.82446489                7.90097621               62.17784412                0.28374834                0.07257068               -0.07149497               -0.12709950                0.09340348                0.50318994               -0.67473559
              10.82752775                7.49860861               61.82435872                0.00010000                0.68908981               -0.02374848               -1.54758057               -2.13494707                8.59435215               -2.54583021
              11.83824668                7.04724491               61.62295541                0.00010000                1.83104120               -1.65598905               -2.33612609               -4.74192969               17.16882314                0.62499909
              12.86414857                6.56834808               61.43874494                0.00010000                3.54087080               -3.31842569               -3.33269995               -7.38321427               19.46792148                2.71657049
              13.90906410                6.04539369               61.27900119                0.00010000                5.29998576               -5.13207319               -4.53774344              -12.13752049               22.24474741                3.67199060
              14.97014829                5.45982180               61.14270438                0.00010000                6.41935650               -5.76982584               -5.73285739              -18.86492289               24.58522678                3.08733546
              16.03745123                4.80080506               61.02092519                0.00010000                6.50182958               -3.70624143               -7.00154320              -25.53784363               25.33511027               -0.06613219
              17.10018488                4.06944613               60.89148207                0.00010000                4.28717208                0.91706066               -8.24131063              -30.71519490               22.77418945               -6.12429461
              18.12319467                3.26880939               60.70969599                0.01779687                0.15860319               13.71084223               -8.49755182              -21.04312010               12.46182002              -19.21981578
              19.10335694                2.67754522               60.35934308                0.65192862               -1.98377269               13.77872187              -11.33573747              -10.96890204                5.50677244              -15.53237898
               9.22801357                9.30199361               62.42942984                0.87980813               -0.07607612               -0.17183983                0.93691924               -0.03912190                0.01294338                0.95994787
              10.22725281                8.90052931               62.05867503                0.27043653                0.20606134               -0.00147482               -0.41095936               -0.04095190                0.24275124               -0.67763778
              11.23213480                8.49731422               61.69253212                0.00010000                1.33616771               -0.12583254               -1.98134591               -3.06569046               10.28041690               -2.95195925
              12.25397616                8.03249430               61.52247740                0.00010000                2.82800902               -1.25298449               -2.93860744               -6.49182892               20.88340569               -1.26527798
              13.28869498                7.53878634               61.36684296                0.00010000                4.14064747               -2.41333660               -4.11461299               -9.22569392               22.63760390                0.39277957
              14.33678911                7.00258537               61.22837621                0.00010000                5.39961449               -3.35764437               -5.35892536              -13.82126840               24.42908838                1.45060182
              15.39668727                6.41335307               61.10242135                0.00010000                6.36469397               -3.56322395               -6.79512835              -19.58861800               25.42173762                1.33087126
              16.46408299                5.76899312               60.97468149                0.00010000                6.53353731               -2.19725826               -8.52842443              -25.01886833               24.45552403               -0.35099851
              17.52735801                5.08129846               60.81736649                0.00010000                4.86316666                1.88487987              -10.54314037              -26.98314745               20.17624651               -4.45037051
              18.56134633                4.40282915               60.58857256                0.00010000                2.05507909               11.13043718              -13.16242864              -18.47126245               10.99680501              -10.32379888
              19.56845960                3.85469885               60.24953090                0.60216158                0.71132700               14.63297240              -15.52473059               -8.37094484                4.88548642              -11.59046062
               9.62822249               10.30062260               62.31875735                0.87554962                0.01027426               -0.10291942                0.66718139               -0.04730362                0.00245011                1.03416355
              10.62832523                9.90094671               61.93941607                0.28292300                0.30132268                0.09219946               -0.70469257               -0.22002630               -0.09822842               -0.75460590
              11.63424895                9.49609196               61.55816183                0.00010000                1.93063755               -0.00618550               -2.45802351               -3.92304412               11.27733473               -3.55801921
              12.66693799                9.02218522               61.40770997                0.00010000                3.76473397               -1.11597125               -4.01982108               -7.63252509               23.72097053               -3.29975195
              13.70954362                8.52008135               61.27583627                0.00010000                4.55670045               -1.14864555               -5.18707831               -9.94502642               25.75880491               -1.45781456
              14.75807199                7.97824081               61.16251167                0.00010000                5.12122738               -1.54226732               -6.46136425              -14.12291901               27.31112101                0.28589716
              15.81196817                7.38855732               61.05723159                0.00010000                5.55282410               -1.33338411               -8.12086861              -19.34601076               27.78927228                0.93572044
              16.86912848                6.75685989               60.94315917                0.00010000                5.73588678                0.02429579              -10.55910397              -23.59095822               26.13036552                0.84885506
              17.92668591                6.10714373               60.78977229                0.00010000                5.56202766                2.98410025              -14.19400922              -23.43916936               20.82964698                0.22032636
              18.98036903                5.49141814               60.55779695                0.00010000                5.27563670                7.84068161              -18.57599620              -15.01561944               11.24526101               -2.38062718
              20.03219864                4.97020466               60.21048649                0.58666649                5.18296123               10.51536794              -21.68010164               -6.05000024                5.76338953               -5.73450933
              10.02641927               11.29993522               62.20831543                0.87863528                0.09636520               -0.04098593                0.39230117               -0.05792693               -0.02007508                1.09832068
              11.02738292               10.90237330               61.81944441                0.34254578                0.30080709                0.21146494               -1.01461724               -0.35523166               -0.71991567               -0.89510729
              12.03243541               10.49719051               61.41678316                0.00010000                2.49766782                0.36841436               -2.88440902               -4.95435761               11.16810281               -3.94322939
              13.07733628               10.01017488               61.26983258                0.00010000                5.06517259               -0.10071749               -5.46561664               -7.42256440               26.09459080               -7.14745118
              14.13373886                9.51581343               61.16586656                0.00010000                5.42592421                0.13766593               -7.29479071               -8.15090498               29.44434036               -2.08545678
              15.18585476                8.97174002               61.08965267                0.00010000                4.87045528                0.04858251               -7.57782523              -12.36579920               31.20466768                0.01454459
              16.23114797                8.38668539               61.01543788                0.00010000                4.39113300                0.89166617               -9.58920280              -16.72433106               31.81915967                0.94074158
              17.27367742                7.76947904               60.93598199                0.00010000                4.64342077                2.76099464              -13.43664587              -20.54828395               31.31105178                2.62140805
              18.32401638                7.14098046               60.83469992                0.00010000                6.21477906                5.22777049              -19.09924215              -19.84595105               25.59924151                5.63789188
              19.39797300                6.55964278               60.62626531                0.00111246                8.29350772                8.32811435              -27.46466844              -12.48299993               14.29336074               11.48720227
              20.48988654                6.06500621               60.27672817                0.58100258                9.19135355               10.90145570              -32.97962941               -4.73904858                7.94830919                7.50612619
              10.42218779               12.29980288               62.09809050                0.82855568                0.17775159                0.00239792                0.13190245               -0.04774832               -0.05077089                1.05918869
              11.42396531               11.90517601               61.69844779                0.45718307                0.25862102                0.35468514               -1.35821751               -0.31308815               -1.17528714               -0.91260094
              12.42736021               11.50346025               61.27679372                0.10019329                3.79492355                0.72979744               -2.93895077               -4.56775908                8.28545688               -2.59062657
              13.49986378               11.02017087               61.07153532                0.00010000                7.88000820                2.28265601              -17.02186150               -5.24212819               25.25456614               -6.31098435
              14.58496038               10.52283467               61.05111234                0.00010000                7.00101329                0.52887411               -8.10110765               -4.97782425               35.41196618               -1.14264848
              15.63988405                9.97921246               61.01782725                0.00010000                4.73910782                1.11464878               -8.73389423               -7.70725951               35.50474379                0.06616478
              16.67974254                9.40639064               60.97541088                0.00010000                3.19918397                2.73967946              -10.96430369              -10.22328171               37.04015309                0.66415467
              17.70386773                8.81207979               60.94773794                0.00010000                2.99303073                5.37406571              -16.22273753              -13.01583767               39.71564068                2.49852007
              18.73960315                8.21169914               60.92455615                0.00010000                5.14077805                9.91252437              -29.97264568              -12.11358488               42.52289984                6.48281974
              19.80668329                7.65798042               60.93034967                0.07597219                9.35438322               11.72047054              -41.56993907               -7.18561373               29.26115389               15.46692719
              20.92669081                7.18823378               60.60594997                0.58009180               12.00075269               12.67720712              -45.74071376               -2.88361321               18.33763473               10.46886164
              10.81471804               13.29998318               61.98588366                0.91057900                0.27457510                0.01802973               -0.13824553                0.20140658                0.47280559                1.00566684
              11.81746379               12.90946700               61.57960253                0.81946643                0.56836675                0.42909887               -1.62647274               -0.05998823                0.14197010               -0.89696399
              12.82608537               12.51178646               61.16680674                0.59947613                6.78277542                0.83262095               -3.04014995               -2.80943456                7.71429121               -1.46165030
              13.95311930               12.05582800               60.91443955                0.36696681               12.45277087                3.56571281              -18.02025408               -3.94422609               24.82546602               -3.50763905
              15.07514079               11.52639091               60.95366475                0.36057445                9.75171486                0.35562425               -9.48700939               -4.07170893               40.39209970               -0.93311331
              16.14815359               10.99403300               60.94742565                0.36539412                5.93371080                1.48205423               -9.73544560               -3.41864191               39.63068979               -0.08336314
              17.19381500               10.44147898               60.93197246                0.38095717                2.99492900                3.50883359              -12.20610324               -4.44638533               42.19017965                0.32408421
              18.20805217                9.87696035               60.94345840                0.40812163                2.10145209                6.48805690              -17.89250678               -4.69395691               46.70247529                1.54971518
              19.23584405                9.33923095               60.97728757                0.51751810                3.48369574               12.75318111              -35.67254131               -4.52131862               53.32759072                4.69577782
              20.27772609                8.79405219               61.09309261                0.57081173                6.79317592               13.60717650              -41.48088228               -3.92975004               36.82202971               14.65128021
              21.37170756                8.31855035               60.74865031                0.79165361                9.39814774               13.03165709              -44.32828462               -3.04850896               21.44887517                8.31754923
               7.11642444                3.45030548               64.11705762                1.00000000               -0.56494427               -0.71233816                2.47636617               -0.23342137               -0.54512731                0.64169236
               8.11077500                3.02561854               63.76648671                1.00000000               -0.39387743               -0.33792554                1.26526227               -0.18225491               -0.67686106                0.09498696
               9.10854689                2.60026407               63.41270924                1.00000000               -0.05493682                0.02431137                0.06640463               -0.18000263               -0.65507004               -0.10180128
              10.10967626                2.17355404               63.06235383                0.60046257                0.19170717                0.42915596               -1.15955308               -0.30115222               -0.16910062               -0.56119790
              11.11238104                1.74335680               62.71843808                0.51009619                0.47870829                0.90394355               -2.55309789               -0.32836821                0.43489780               -0.17351617
              12.11925043                1.31023133               62.38035571                0.35785179                0.79298950                1.32013977               -3.95245928               -0.46513885                0.90589275               -0.53925732
              13.12824083                0.87119815               62.04692300                0.00010000              -15.30230696                1.75511771               -5.17545631              -25.96470066               13.77174367               -0.98568179
              13.81320429               -0.08152789               61.96925409                0.00010000              -20.09978303                7.10715669               -3.75550016              -24.66893639               20.43956870                4.41682025
              14.72624517               -1.01148148               61.72221401                0.00010000                3.14935217                3.10817546               -4.81199032              -19.47750661                3.51840022               17.68269094
              15.87619133               -1.92630781               61.27590037                0.85137994                8.36839352                1.87492098               -5.60094153              -20.06942504               -3.21978634                0.69837029
              16.89361304               -2.45057776               60.89208365                1.00000000                1.74217035                2.28793790               -6.92364593                0.12606559               -1.03948773                0.03624793
               7.53877717                4.44318210               64.00272888                1.00000000               -0.48040157               -0.66507224                2.20906933               -0.04562983               -0.01824175                0.89525613
               8.53397315                4.02223928               63.65200250                1.00000000               -0.29990268               -0.30146744                0.99607009               -0.00053600                0.01948111                0.14756225
               9.53277912                3.60050719               63.30154762                1.00000000                0.05726109                0.05947692               -0.20149319                0.01170474                0.07385167               -0.26767152
              10.53511838                3.17784560               62.95178848                0.50030571                0.39897950                0.46051914               -1.42544501               -0.07033763                0.82905446               -0.64622899
              11.54075871                2.75239624               62.61671996                0.48491486                0.77799949                0.88807600               -2.87458360               -0.09036385                1.45539207               -0.26741744
              12.55067837                2.32343273               62.28001455                0.34867231                1.18573631                1.31489321               -4.29816366               -0.24800857                1.55473410               -0.64185680
              13.56447343                1.88874933               61.94807959                0.00010000               -2.14118142                1.59672587               -5.59228715              -23.30085855               16.58243530               -0.96322964
              14.50785474                0.98954368               61.91376129                0.00010000               -5.53066881                2.31975102               -5.44044338              -33.12174782               28.96413991                8.21331896
              15.45386006                0.01960028               61.79262011                0.00010000               -5.64047558                4.02321433               -5.78100845              -31.30880676                2.35632868               19.80751747
              16.39504523               -0.90755860               61.17825497                0.09751160               -1.73582029                5.70418910               -7.86562035              -18.94598364              -10.61216527               56.98022416
              17.41914365               -1.42769838               60.79429542                1.00000000                2.40984248                5.88597225               -9.18128665                0.70765726               -0.55495984               55.51171886
               7.95739748                5.43700404               63.89270345                1.00000000               -0.39582842               -0.56065917                1.93310881               -0.05332887                0.17502601                1.07196222
               8.95343919                5.01958919               63.53826672                1.00000000               -0.21114022               -0.22774954                0.71740861               -0.01200229                0.36313710                0.06582640
               9.95317467                4.60145361               63.18721320                0.60897850                0.14706335                0.14653544               -0.48596211                0.00536802                0.73360204               -0.63133913
              10.95638046                4.18276442               62.84014854                0.00010000                0.59059766                0.55545952               -1.63440786               -0.13268021                1.97912589               -0.82800052
              11.96498663                3.76111832               62.51435612                0.00010000                1.07783537               -1.15822677               -3.16651707               -0.95038741                2.54462666                3.55346217
              12.97793717                3.33652920               62.17923050                0.00010000                1.55630432               -2.74048685               -4.54415758               -1.08293684                2.37393037                7.57944135
              13.99611271                2.90313267               61.85120964                0.00010000                2.09906062               -8.88017507               -5.79316649              -24.05019202               24.14999988               15.24434041
              15.01991838                1.96486713               61.95229924                0.00010000                0.05292946               -2.13131966               -5.73082097              -41.84924784               40.58687099               11.95530964
              15.99717130                1.06898281               61.91344701                0.00010000               -3.76740285                4.03207478               -5.85464733              -37.17058438               53.11296376               19.94557158
              16.94457032                0.18777598               62.22805304                0.45979210               -2.45627706                5.41294538               -1.68748549              -16.99259687               35.68936216               59.86897441
              17.94804576               -0.33285832               61.83221486                0.95778312                0.34754373                5.30547097               -1.48305260                0.84891743                0.19784349               59.06229104
               8.37254029                6.43196892               63.78110747                1.00000000               -0.32567506               -0.44279538                1.65582801               -0.04875091                0.29732535                0.91338051
               9.36928354                6.01768429               63.42190316                0.56800673               -0.14145202               -0.16357358                0.44032120                0.03078334                0.62454596               -0.37898327
              10.36971125                5.60343789               63.06900703                0.00010000                0.17582636                0.22038189               -0.80780963                0.08939834                1.45772875               -1.23074783
              11.37280006                5.18895479               62.72659631                0.00010000               -0.08625318               -0.86602665               -1.87799103               -2.33455902                7.22921140                2.75929801
              12.36798618                4.72923170               62.49029446                0.00010000                0.71026109               -3.13324773               -2.87094524               -4.18486829               12.31393970                6.85629359
              13.38700528                4.26862300               62.24512771                0.00010000                4.35727403               -7.36835171               -4.00087611               -7.72695986               16.13756882               13.38255257
              14.45513166                3.71114582               62.07895556                0.00010000                5.90071760              -15.12045872               -4.83207683              -20.65810469               24.62348581               21.13840123
              15.50501964                2.94691728               61.98997866                0.00010000                1.62039296               -3.04071590               -5.52668159              -33.34658400               34.64968080               10.02079432
              16.48753952                2.10024177               62.00940953                0.00010000               -2.39926093                2.42452555               -5.34266377              -37.62914554               43.54060373                9.58171907
              17.45703442                1.20070031               62.07532332                0.32277646               -0.50744653                1.61672174               -6.78378607              -19.01347672               23.95504494               -4.25461425
              18.47739059                0.67841103               61.67832916                0.96985038                2.03561730                1.19045929               -6.49438900                0.28261445               -0.24476501               -4.05669722
               8.78499171                7.42814813               63.66700828                0.91930293               -0.24058241               -0.31593098                1.38838832               -0.01830301                0.08629247                0.80420748
               9.78258588                7.01631772               63.29914686                0.33908332               -0.06497813               -0.12915768                0.15518416                0.13432563                0.67943037               -0.69127603
              10.78369214                6.60586125               62.94296442                0.00010000                0.06547959                0.08387823               -1.08781732               -1.15085468                6.26719204               -2.06915565
              11.78389547                6.16544389               62.68691078                0.00010000                0.89644553               -2.07959515               -1.78450711               -3.54243459               12.75315461                3.93160815
              12.80162105                5.69845337               62.45660131                0.00010000                2.87941865               -3.43995086               -3.01935453               -5.32812802               16.12087112                5.41983932
              13.84148385                5.18916216               62.26440105                0.00010000                5.15176387               -7.05546211               -4.10589565               -9.93387881               20.19106819                8.34027984
              14.90465633                4.60072349               62.10963492                0.00010000                6.12034516               -9.05820628               -5.04641012              -19.46061933               24.79453019                8.40452577
              15.96389075                3.90405281               62.00181460                0.00010000                4.30745147               -4.46102530               -5.64902054              -28.33841922               29.10657449                5.63045246
              16.99080536                3.11747332               61.92690257                0.00010000                1.11203888                0.89173579               -5.75175438              -34.27676505               31.02314264               -2.01902968
              17.98613153                2.22011041               61.85222213                0.19116258                0.37356217                3.47710307               -5.10118496              -18.38927887               16.36484312               -9.41336871
              18.99827660                1.69095087               61.46417994                0.83459409                1.21450768                1.78503453               -5.41411475               -0.92339850                0.24934600               -6.80864990
               9.19583505                8.42565030               63.55229786                0.88542271               -0.15781181               -0.20522549                1.13367027               -0.02042097                0.03333256                0.87289445
              10.19425693                8.01510114               63.17669023                0.28862357                0.08664674               -0.09664522               -0.09876303                0.08921733                0.43395019               -0.66851582
              11.19756798                7.60511546               62.80903224                0.00010000                0.75511624               -0.18137668               -1.48787048               -2.09095983                8.75037358               -2.71435486
              12.20935925                7.14736289               62.59944496                0.00010000                2.00686822               -1.68239237               -2.37445136               -4.80968467               17.49773404                0.68534795
              13.23770535                6.66043268               62.40485202                0.00010000                3.83491646               -3.39314555               -3.49025362               -7.62389554               19.59009670                3.14541552
              14.28605758                6.12751375               62.23321300                0.00010000                5.66616417               -5.24435956               -4.67355999              -12.57420399               22.22463137                4.43171273
              15.35102863                5.52998170               62.08551889                0.00010000                6.77219195               -5.95971256               -5.74532108              -19.46485211               24.49222654                4.32799734
              16.42150142                4.85769678               61.95281539                0.00010000                6.74589953               -4.13940003               -6.59520563              -25.87899099               25.17006221                1.79840108
              17.48594662                4.11807649               61.81417922                0.00010000                4.71349365               -0.44582997               -6.99037426              -32.43806176               22.83778778               -3.42988216
              18.51577129                3.27024237               61.63805259                0.06591961                1.56475450                9.06203880               -5.35738093              -21.41778931               11.35095304              -13.45638745
              19.51724171                2.71411173               61.26469072                0.69939080                0.14704153                7.36974113               -6.84473515               -7.35057240                2.77063691               -8.83509345
               9.60568160                9.42404362               63.43854431                0.87787087               -0.07765351               -0.12725605                0.87251907               -0.03117261                0.01158818                0.98829382
              10.60490507                9.01438481               63.05479935                0.29019957                0.19647994               -0.03222228               -0.35509050               -0.07516616                0.10930658               -0.66971237
              11.60961120                8.60223371               62.67305487                0.00010000                1.37397449               -0.24310042               -1.82698329               -3.04141672               10.27475444               -3.03889975
              12.63238456                8.13179604               62.49353932                0.00010000                2.96905380               -1.40201279               -2.95869739               -6.48269397               20.98954720               -1.33268923
              13.66899228                7.63059045               62.32498490                0.00010000                4.40330978               -2.29529317               -4.27494802               -9.42633330               22.59663305                0.74393095
              14.72045075                7.08427497               62.17397840                0.00010000                5.80919950               -3.34274224               -5.58624326              -14.32839839               24.35128716                2.23053311
              15.78517627                6.48152924               62.03422566                0.00010000                6.88826934               -3.77303052               -6.86873933              -20.22862243               25.23406630                2.55722915
              16.85821614                5.82126481               61.89108317                0.00010000                7.21611311               -2.77974284               -8.15403176              -25.92772751               24.13244895                1.24597900
              17.92949853                5.10855672               61.71874152                0.00010000                5.17621834                0.18768123               -9.11248060              -28.37824244               19.41327533               -2.47241287
              18.96174051                4.40135119               61.46704073                0.00795767                1.70139624                9.91503561              -10.09126723              -19.68980587               10.69594162              -11.36970886
              19.96352645                3.83834569               61.10413277                0.63556515                0.17859477               10.30423537              -12.25550688               -9.84995277                5.04059293              -11.54314987
              10.01452920               10.42310518               63.32518593                0.87498089                0.00343055               -0.05819695                0.60152374               -0.03746239                0.00445539                1.06065064
              11.01456351               10.01445669               62.93274515                0.32463235                0.23996076                0.04789057               -0.61278772               -0.23502986               -0.28444636               -0.74530380
              12.01932842                9.60025345               62.53469538                0.00010000                1.83925621               -0.07233877               -2.06746191               -3.94941398               10.70775088               -3.39095424
              13.05134863                9.11932263               62.36479164                0.00010000                3.86856642               -0.46456429               -3.95689283               -7.23375567               23.42094171               -3.51896355
              14.09669975                8.61452682               62.22262320                0.00010000                4.86010979               -0.57570638               -5.68934347              -10.16334241               25.75774406               -1.57992620
              15.14855083                8.06065891               62.09640877                0.00010000                5.63832979               -1.47426563               -6.75575918              -14.97077306               27.25844701                1.11331546
              16.20946634                7.45452109               61.97498489                0.00010000                6.36842798               -1.59289250               -8.35879285              -20.22083329               27.53256242                2.06078602
              17.27591939                6.80210192               61.83763267                0.00010000                6.44145251               -0.61393913              -10.39618821              -24.78496406               25.47136360                1.92395629
              18.33829539                6.12183011               61.65342322                0.00010000                5.81334099                2.18091532              -12.74838193              -25.44247083               19.79431319               -0.34844061
              19.39218621                5.46854309               61.38413087                0.00010000                5.39791282                5.62949128              -16.00505197              -16.63268416               10.17599619               -5.09539964
              20.44625365                4.92019643               61.00718674                0.61579265                5.40674413                6.26896233              -18.71366123               -6.68051009                4.49040076               -8.77893159
              10.42222932               11.42287968               63.21197837                0.87883408                0.08268766                0.01013593                0.32116398               -0.04024590               -0.01927540                1.12818522
              11.42305619               11.01534263               62.80986487                0.42531608                0.17638333                0.14154853               -0.87129005               -0.32033394               -0.83292083               -0.89170376
              12.42575698               10.60078694               62.39183210                0.04437489                2.51899397                0.21539834               -1.97517142               -4.01118124               10.30701421               -3.31814240
              13.47343607               10.12250476               62.21569535                0.00010000                4.93160829                2.18922345               -9.22406799               -9.51005100               24.40988138              -13.26695832
              14.52438915                9.61907633               62.08806222                0.00010000                5.38024744                0.60692916               -7.23856507              -10.33226000               29.43059164               -1.56689558
              15.58104102                9.05478966               62.01220465                0.00010000                5.74637196               -0.02896854               -8.09353021              -13.87168051               31.61128673                0.71534726
              16.63931659                8.44967139               61.91656034                0.00010000                5.70834042                0.54808788              -10.14579050              -17.65100798               31.17361146                1.90423011
              17.69520783                7.80898603               61.80055524                0.00010000                5.74456782                2.11375806              -13.44471203              -21.16912576               29.39100164                2.60371088
              18.75420795                7.15217503               61.63411667                0.00010000                6.77563363                4.74918821              -18.92060866              -21.96719750               22.84624057                2.70439868
              19.83072050                6.51394101               61.36499779                0.01172990                8.62008062                6.77653061              -25.26684657              -14.68309514               11.62029970                1.26915992
              20.92660956                5.96372494               60.97233782                0.61276456                9.58890542                6.67129752              -29.31944601               -4.80419819                5.82638176               -4.15599098
              10.82879840               12.42330789               63.09908619                0.82614121                0.14511765                0.05898097                0.03420922               -0.02527373               -0.09444053                1.07839199
              11.83024957               12.01728766               62.68568711                0.60343122                0.15721345                0.25075084               -1.11839902               -0.26388491               -0.98449790               -0.87260104
              12.83194266               11.60456142               62.25506410                0.24858937                0.63043271                0.40342315               -1.59391627               -1.80367880               -0.19004291               -2.00890848
              13.84285823               11.16310710               61.85927101                0.00010000                6.29134892                2.59607493              -12.75793503               -9.09468493               23.44925429              -11.27903994
              14.95776964               10.62666540               61.97381475                0.00010000                9.88319654               -0.07482139               -8.76541502               -8.88041002               41.35039284               -0.66227034
              16.04052216               10.06007954               61.92574633                0.00010000                7.22400870                0.69519852               -9.50542721               -9.03688126               35.18639527                0.51537570
              17.10224982                9.46548285               61.86109342                0.00010000                5.47555392                2.23794229              -11.98854064              -10.94358596               35.82119712                1.35881666
              18.15003324                8.84437708               61.77531838                0.00010000                4.58733208                4.81962081              -17.05870716              -12.96344045               35.37400817                2.01591204
              19.19399646                8.21681388               61.64786120                0.00010000                6.84705813                8.13543302              -26.15829618              -14.05200499               31.17446094                2.90150809
              20.28697440                7.60407370               61.44131501                0.06095833               12.83026910               12.82546129              -46.52221348               -9.65230612               19.09288856                4.12193155
              21.45060184                7.05362238               61.03852274                0.61481537               16.36274425               13.87911863              -54.16056304               -2.01925613                9.93133462               -2.08255641
              11.23376430               13.42405930               62.98398858                0.90832288                0.27606700                0.07514054               -0.28248444                0.12642503                0.48637754                1.01462995
              12.23652497               13.02035764               62.56460859                0.91508156                0.50498352                0.30699781               -1.28785627               -0.13265478                0.34255517               -0.83450776
              13.24386397               12.60885540               62.14240492                0.69739395                1.64567083                0.42939847               -1.95629201               -1.10443852                0.27860321               -1.10402837
              14.26943839               12.17442625               61.72586767                0.36669880               10.29722691                1.13191551              -10.74807774               -6.90575880               21.98066710               -1.74937122
              15.44980851               11.61757990               61.85787826                0.36072015               14.60237826               -0.90855038              -10.09074912               -6.08274430               44.34273055               -2.02927217
              16.56148595               11.06869363               61.84482326                0.36514751                9.31694076                0.86140938              -10.78018543               -4.06110341               39.24366181               -0.00755686
              17.63614733               10.49443024               61.80324941                0.37997601                6.15610172                2.89473899              -13.71374561               -4.77600839               40.40726625                0.41579399
              18.68460799                9.90537844               61.74677787                0.40582660                3.86619510                6.10013634              -19.68416570               -5.51985198               41.90880097                0.80440837
              19.71347123                9.31488369               61.66047116                0.47435863                5.81289437                9.80698101              -30.54228772               -4.79893326               40.04342564                0.09066265
              20.80086588                8.77045024               61.52557824                0.55313569               13.68279184               16.63765409              -56.55889012               -2.28967113               27.90280052                3.84618690
              21.98712707                8.24130731               61.13096124                0.81053378               18.62611888               18.76849258              -63.75116405                0.73822946               18.35502948               -1.92390833
               7.46771388                3.57233332               65.14118422                1.00000000               -0.53521957               -0.67189672                2.34269933               -0.22104508               -0.52434675                0.62931789
               8.46236168                3.14237890               64.77884832                1.00000000               -0.37382199               -0.32228693                1.20552113               -0.17345803               -0.64772795                0.09048090
               9.46023744                2.71177889               64.41343196                1.00000000               -0.05444374                0.01611826                0.08144530               -0.17031234               -0.63397672               -0.09569627
              10.46127281                2.27992207               64.05117654                0.59764287                0.18017100                0.39510486               -1.06796077               -0.28184892               -0.24472676               -0.54375652
              11.46384086                1.84481009               63.69377285                0.49967828                0.44270348                0.83778545               -2.36604677               -0.31753838                0.26666606               -0.19944446
              12.47012688                1.40673348               63.34208620                0.33608470                0.68063468                1.23222430               -3.68077509               -0.51063728                0.81010680               -0.56956173
              13.47745355                0.96178515               62.99677454                0.00010000              -14.09072085                1.67456217               -4.82905998              -24.69323528               14.65762423               -1.08614941
              14.18831246                0.02916301               62.92558508                0.00010000              -18.16152245                6.15443023               -4.73483024              -23.42819467               21.90977149                4.78469306
              15.11422310               -0.89265184               62.67629328                0.00010000                3.89113346                3.01635998               -4.67060854              -18.45199447                4.46154423               18.64841335
              16.26613513               -1.81330509               62.23442217                0.98610182                8.07821292                1.01311800               -3.28369705              -19.87782424               -2.45994328                0.35470356
              17.27578736               -2.34179174               61.84070258                1.00000000                0.96522320                1.24126620               -4.06675989                0.03933028               -0.55713064                0.02279264
               7.89545784                4.56561435               65.02424170                1.00000000               -0.45535269               -0.62386987                2.08794489               -0.04607155               -0.00681365                0.88194629
               8.89090432                4.13915603               64.66173180                1.00000000               -0.28475581               -0.28740791                0.94910522               -0.00437250                0.04009623                0.13914865
               9.88976273                3.71194007               64.29964439                1.00000000                0.05171983                0.04898820               -0.17528858                0.00857890                0.08792187               -0.27158709
              10.89193871                3.28387312               63.93800292                0.51274765                0.37485206                0.42578808               -1.32297976               -0.06625121                0.71883481               -0.60651224
              11.89725977                2.85318795               63.58890054                0.49204344                0.72971294                0.82248716               -2.67531370               -0.08729970                1.23790586               -0.28500415
              12.90653297                2.41905572               63.23836697                0.34617777                1.10233309                1.22302404               -4.00954348               -0.27975867                1.38986084               -0.63499509
              13.91930643                1.97853077               62.89372346                0.00010000               -1.26419817                1.49629441               -5.24641016              -22.44528301               17.10464476               -0.95427991
              14.88124901                1.09070731               62.85974421                0.00010000               -3.41846128                1.44805515               -5.45318241              -31.51210965               29.96871782                9.05557493
              15.85093721                0.13751176               62.73986199                0.00010000               -4.46610882                3.47410374               -5.16033901              -30.71527095                2.92526931               21.57412442
              16.79192683               -0.80317391               62.12192063                0.11457336               -2.31349454                8.75229264               -4.40711217              -19.55276393              -10.77396261               59.85984381
              17.80466732               -1.32937908               61.72811980                1.00000000                1.27404819                9.23455738               -5.18591136                0.89163013               -0.29251400               59.47507267
               8.31970909                5.55985592               64.91151187                1.00000000               -0.37605724               -0.51626585                1.82307632               -0.05287181                0.18036836                1.05632307
               9.31594852                5.13663074               64.54526776                1.00000000               -0.20085803               -0.21842022                0.68311047               -0.01399982                0.37558006                0.05492000
              10.31569193                4.71275865               64.18251640                0.55553729                0.13756948                0.13173387               -0.44771546                0.00598719                0.77665989               -0.66573582
              11.31869991                4.28843783               63.82430110                0.00010000                0.56101673                0.53258264               -1.52727062               -0.14705070                1.86309560               -0.78188220
              12.32691226                3.86125983               63.48371458                0.00010000                1.02444853               -1.19854006               -2.94908238               -0.83886694                2.30339665                3.77657765
              13.33918888                3.43119396               63.13522435                0.00010000                1.49920185               -2.80210014               -4.23967414               -0.82515641                2.24406405                7.94306129
              14.35689630                2.99171104               62.79496375                0.00010000                2.99502037               -8.96477886               -5.43032482              -22.96538567               24.66834882               15.85516944
              15.39908928                2.05812411               62.89622244                0.00010000                1.84513022               -2.77937269               -5.66365150              -40.32688538               41.36099777               13.82855373
              16.39379890                1.17683023               62.85949800                0.00309395               -2.85593003                3.62040391               -5.23742671              -33.28126439               55.37081070               22.66923537
              17.34197068                0.36174077               63.21055553                0.47292778               -2.38843000                8.66526218               -1.85769586              -13.37163796               37.48184839               63.42298562
              18.34603030               -0.15710059               62.81797845                0.94637427                0.40596208                8.97330108               -1.52510848                1.29348986                0.37434719               63.72857532
               8.74085077                6.55528904               64.79720191                1.00000000               -0.31291736               -0.39534792                1.55744120               -0.04192638                0.30350555                0.90323550
               9.73772159                6.13478763               64.42621339                0.55137689               -0.13876926               -0.16420609                0.42269487                0.04518089                0.61229674               -0.38947951
              10.73807538                5.71457475               64.06111947                0.00010000                0.13874609                0.18111068               -0.75971329                0.13637884                1.51722531               -1.26784241
              11.74049652                5.29452477               63.70838394                0.00010000               -0.01745388               -0.85201196               -1.75683895               -2.20385436                7.35176157                2.83603771
              12.73772630                4.82921715               63.46142823                0.00010000                0.95410621               -3.11328777               -2.90512635               -3.94940607               12.32565179                7.32189781
              13.75957864                4.36301372               63.20506985                0.00010000                4.76711293               -7.36234087               -4.03543966               -7.36849128               16.14684572               14.09424976
              14.83306856                3.79923520               63.03047664                0.00010000                6.50067354              -15.07171367               -4.92825145              -19.84580077               24.56869326               22.51934376
              15.88959211                3.03511986               62.93557920                0.00010000                2.43133516               -3.26169225               -5.46117309              -31.95383058               34.97864286               12.32658910
              16.88169527                2.20991983               62.95894543                0.00010000               -1.55836072                2.04883642               -4.86157050              -33.95329271               43.71334591               13.00802226
              17.85842490                1.37013134               63.02429593                0.44024795               -0.67377197                0.79374453               -3.70194060              -16.07381323               23.41495677               -1.80866824
              18.86821983                0.85008694               62.63180229                1.00000000                0.97949306                0.68452212               -3.27395305                0.01307478               -0.30997869               -1.24572113
               9.15987338                7.55194896               64.68048351                0.91248854               -0.23069537               -0.26538941                1.29986471               -0.00486008                0.07971773                0.80385935
              10.15756642                7.13334662               64.30073470                0.33965544               -0.05955089               -0.14171121                0.16498436                0.15599044                0.65769238               -0.68598254
              11.15868236                6.71638086               63.93233481                0.00010000                0.12069981               -0.01718406               -1.02278171               -1.01219618                6.39267180               -2.14857305
              12.15998042                6.27139759               63.66726797                0.00010000                1.03764179               -2.01007259               -2.01962984               -3.27508558               12.80632623                4.15421309
              13.17943519                5.79899408               63.42582250                0.00010000                3.09102900               -3.31721700               -3.16757970               -5.14971461               15.98581333                5.75044424
              14.22180100                5.28394714               63.22267311                0.00010000                5.42194740               -6.92815605               -4.28345563               -9.77030522               20.02731182                8.97861976
              15.28787414                4.69027677               63.05891517                0.00010000                6.37635172               -8.87220973               -5.16278583              -19.18675071               24.74290121                9.57888702
              16.34932803                3.99289027               62.94662639                0.00010000                4.59237147               -4.38076727               -5.48260908              -27.49348865               29.44292192                7.74130229
              17.37972157                3.21780696               62.87437631                0.00010000                1.54996370               -0.04551483               -4.83816853              -31.26332192               32.37725858                1.40506982
              18.38032731                2.37761566               62.81605540                0.28794005                0.33295054                0.73658532               -2.60405825              -15.99698853               16.86112086               -4.04693621
              19.38638058                1.85658985               62.42886655                0.92867341                0.60532755                0.54017874               -2.49351928               -0.23890085               -0.01888243               -2.79744248
               9.57795825                8.54998125               64.56325408                0.88255151               -0.15487487               -0.15387753                1.04865279               -0.00969029                0.03021041                0.87153048
              10.57640950                8.13195340               64.17586886                0.30485691                0.09111171               -0.11332430               -0.06219784                0.08058898                0.33946117               -0.63965143
              11.57978049                7.71423107               63.79460131                0.00010000                0.79860425               -0.27538870               -1.34904967               -1.87112650                8.73978099               -2.74450353
              12.59238159                7.25432332               63.57546638                0.00010000                2.12009893               -1.54518816               -2.43656426               -4.47508014               17.49819207                0.79960248
              13.62218246                6.76287281               63.36893987                0.00010000                4.02541303               -3.15501538               -3.70305506               -7.45596801               19.35279856                3.46035537
              14.67288985                6.22445060               63.18552999                0.00010000                5.91039788               -4.99734421               -4.90767563              -12.41543564               21.93601134                5.02934925
              15.74039042                5.62179100               63.02779796                0.00010000                6.96511478               -5.76225536               -5.85342523              -19.02781975               24.33029766                5.43416060
              16.81219214                4.94750451               62.88902107                0.00010000                6.56565094               -4.18974223               -6.24151225              -24.99466917               25.37131700                3.60980628
              17.87170344                4.20900954               62.75167459                0.00010000                4.37550449               -1.26003774               -5.52836504              -30.13485432               24.34350749               -0.87352458
              18.89970223                3.38486304               62.60254837                0.15301973                1.68949904                2.58705119               -2.51232513              -16.92862057               11.93755681               -6.98180894
              19.90549342                2.86089052               62.22244838                0.78022784                0.57911872                1.23749858               -2.94592450               -1.96191235                0.54500133               -4.73399249
               9.99573526                9.54887141               64.44688023                0.87813558               -0.08068741               -0.07898463                0.78401651               -0.01738276                0.01265192                0.97445592
              10.99492838                9.13108014               64.05157322                0.32400604                0.15773259               -0.04891441               -0.28516086               -0.06404853               -0.00382740               -0.62467432
              11.99888991                8.71087309               63.65599246                0.00010000                1.34543457               -0.23677110               -1.51294808               -2.70046599               10.04269619               -2.80007416
              13.02183708                8.24049383               63.46330345                0.00010000                3.06493235               -1.23366978               -3.02415224               -5.99659548               20.66184472               -1.09351355
              14.06018856                7.73589377               63.28134400                0.00010000                4.63685067               -1.87336532               -4.50737700               -9.27973300               22.15229033                0.76336781
              15.11457409                7.18400026               63.11665135                0.00010000                6.20376366               -3.10848634               -5.87713345              -14.14363572               23.89946839                2.81415238
              16.18426383                6.57503166               62.96504657                0.00010000                7.38210121               -3.71763169               -7.00464126              -19.69498672               24.89145863                3.54780533
              17.26221611                5.90909542               62.81160085                0.00010000                7.77010630               -3.08187871               -7.75699307              -24.72500877               24.06246067                2.72989020
              18.33966596                5.19260620               62.63511688                0.00010000                6.38289002               -1.21048848               -7.70545156              -28.76841069               19.54475192               -0.17086785
              19.38987391                4.42935668               62.38674722                0.08658440                2.77107133                5.33450207               -5.27687649              -19.04215950               10.08442389              -10.51948448
              20.39508738                3.88133982               62.00442076                0.70666890                0.52134694                3.27652272               -6.21029831               -6.28161088                3.54649760               -9.25137317
              10.41319315               10.54840155               64.33078782                0.87731389               -0.00662971               -0.01363756                0.50588038               -0.01636926                0.01108937                1.03091366
              11.41312686               10.13097512               63.92716031                0.38463248                0.15821584                0.02585663               -0.49554150               -0.14817634               -0.33508404               -0.67130691
              12.41635747                9.70949564               63.51681259                0.01426810                1.71510700               -0.02070750               -1.48147807               -3.37349406               10.31323825               -2.74683745
              13.44742900                9.22964993               63.32857211                0.00010000                3.83619535                0.49312565               -3.98856014               -6.83117195               22.40333551               -6.97047151
              14.49308138                8.72540550               63.16204940                0.00010000                5.17251255               -0.13049012               -6.06486975              -10.08581109               24.89843999               -1.34767991
              15.55087925                8.16228087               63.02739649                0.00010000                6.41570716               -1.36454247               -7.05301499              -15.14794200               26.92169007                1.49628709
              16.62139552                7.54743837               62.89005574                0.00010000                7.46190880               -1.81850985               -8.59615824              -19.72040801               26.87810121                2.83033558
              17.70011742                6.88586694               62.73523541                0.00010000                7.73392253               -1.26139352              -10.06597083              -24.04567961               24.93417838                2.88830790
              18.77607397                6.18479977               62.53480465                0.00010000                6.50040014                0.40121206              -10.95233182              -25.87405815               19.24819116                0.40669467
              19.83012543                5.49155308               62.23769591                0.07016019                4.99104744                4.92425817              -12.08723506              -17.80474329               10.25700621               -8.74870928
              20.87589492                4.92642097               61.83621327                0.68473145                4.57694936                3.46052823              -12.94633122               -6.68087503                2.70668330               -9.90589841
              10.83026075               11.54859866               64.21473871                0.88132572                0.06100168                0.04794785                0.21830387               -0.00493974               -0.01564609                1.06444925
              11.83087077               11.13159727               63.80201861                0.52781378                0.12422331                0.10025802               -0.68265958               -0.14845696               -0.63556089               -0.75105496
              12.83274522               10.71045894               63.37727973                0.14155822                1.92165060                0.16068121               -1.12973332               -2.38114709                5.35685698               -2.34673841
              13.86930378               10.25035634               63.08535122                0.00010000                4.65480857                2.73839120              -11.60970041               -8.72528730               21.54430111              -12.40206649
              14.92584139                9.73328397               63.02109526                0.00010000                6.01392993                0.71838610               -6.64712426              -12.06176997               32.28494428               -2.64243910
              15.98958238                9.15670941               62.92778206                0.00010000                7.02141053               -0.26897569               -8.55290579              -14.45842374               30.88765890                0.89109197
              17.06626960                8.53866146               62.81252207                0.00010000                7.71793704               -0.02802338              -10.55026931              -17.38214701               30.01251841                2.35626626
              18.14394112                7.88386755               62.66708775                0.00010000                7.51145241                1.01542313              -13.14416756              -20.67841671               27.38116829                2.77893661
              19.21649865                7.20063045               62.45628775                0.00010000                7.41083606                2.92875199              -16.10037835              -21.75019711               20.16158403                0.99920023
              20.29215784                6.52784184               62.12092838                0.07964224                8.76177276                4.41427581              -21.70344575              -14.11629816               10.53467896               -9.08119397
              21.39173410                5.95055039               61.69033925                0.68350908                9.95762622                3.07691296              -22.42459361               -4.97878991                1.51160047              -12.03717868
              11.24709715               12.54936051               64.09877468                0.82584950                0.12002918                0.09361701               -0.10130217                0.00921694               -0.09470520                0.94845401
              12.24829744               12.13298028               63.67607981                0.75586290                0.14391523                0.16683085               -0.78760414               -0.08117307               -0.53433484               -0.63292974
              13.24997545               11.71270927               63.24491540                0.40113093                0.09003904                0.22826636               -0.77655338               -0.54546944               -0.83168726               -1.33280233
              14.25009822               11.28441775               62.81637662                0.00010000                4.77587303                1.86454584               -2.51213686               -8.24902696               23.21139159               -7.46796434
              15.34549291               10.73977322               62.87580404                0.00010000               10.31175298               -0.78027664               -8.76790488              -10.51589899               40.96729585               -2.08330171
              16.45633328               10.15690136               62.82771871                0.00010000               10.05507606               -0.04907034              -10.04335991               -9.74110119               35.13281145                0.50986274
              17.54659443                9.54687790               62.73564007                0.00010000                8.41234126                1.34107045              -12.73495549              -10.84949148               33.67111513                1.52460340
              18.62458011                8.90617540               62.60656379                0.00010000                7.52506524                3.31309922              -16.62839202              -12.92188841               31.03726068                1.96186023
              19.69709574                8.24337481               62.40139022                0.00010000                8.66497081                5.75969211              -22.56612654              -14.24616333               20.67125109                0.39442204
              20.79787952                7.57983860               61.99990540                0.10528607               11.69031480                8.73038043              -36.10104988               -9.11406981                8.53793937               -8.83703967
              21.93090204                6.98795923               61.52273871                0.68248319               13.30225136                7.23223998              -36.28801902               -2.37253390               -2.74764004              -11.53455370
              11.66320556               13.55047100               63.98023397                0.90749259                0.26929888                0.11104908               -0.43147837                0.05712981                0.48162491                0.83366153
              12.66589855               13.13493388               63.55384541                1.00000000                0.35963961                0.19536092               -0.89186761               -0.01222550                0.45975905               -0.52449913
              13.67039836               12.71502427               63.12768090                0.78766980                0.56803682                0.23149997               -1.17885870               -0.32204085                0.12866169               -0.71246648
              14.67725929               12.28764726               62.69947799                0.36642011                8.63207234                0.32295111               -1.75031437               -7.15118466               22.96367871               -0.37063550
              15.84303980               11.71767844               62.75184977                0.36070215               15.51981938               -2.20947837               -9.19177911               -6.84127399               42.72795342               -2.05735237
              16.98765568               11.15572800               62.73182194                0.36489014               12.84829613               -0.11733556              -11.57622234               -4.47753864               38.42792009               -0.17992492
              18.10000573               10.56548287               62.65769755                0.37910868               10.06753841                1.86049708              -14.86728842               -4.93879402               37.29775825                0.34109798
              19.18900645                9.95012954               62.54977508                0.40361318                7.89532294                4.39541359              -19.84564221               -6.04029519               35.86583399                0.26007252
              20.25791218                9.31582429               62.36644181                0.44656551                8.81427879                7.24494801              -27.60013113               -6.30235979               25.55468373               -1.34173185
              21.36529202                8.70244945               61.96191481                0.56547324               13.50649889               12.26108516              -49.31449093               -4.29020515                9.46139133              -11.50821044
              22.52804216                8.09519519               61.47362703                0.84320610               16.27501415               10.72359537              -49.96191141               -1.01141389               -2.79823138              -14.35990709
               7.83060931                3.69677688               66.16391161                1.00000000               -0.50366050               -0.62835082                2.19777468               -0.20642984               -0.50257119                0.61423664
               8.82557270                3.26166120               65.79059713                1.00000000               -0.35350872               -0.30583857                1.14309689               -0.16261156               -0.61759432                0.08567050
               9.82353913                2.82592528               65.41433815                1.00000000               -0.05659317                0.00657163                0.10228098               -0.15902190               -0.61065777               -0.08966552
              10.82444084                2.38902616               65.04099462                0.59632277                0.16327861                0.35646417               -0.96223872               -0.26082987               -0.30667298               -0.52457429
              11.82680471                1.94911252               64.67111714                0.49082630                0.40050175                0.76418916               -2.15366293               -0.30257359                0.11804502               -0.22257029
              12.83245087                1.50627855               64.30674021                0.31513188                0.55448629                1.13161255               -3.37373070               -0.55658139                0.72581829               -0.59062930
              13.83789443                1.05557731               63.95034180                0.00010000              -13.02849512                1.58971971               -4.44323385              -23.29207686               14.95170981               -1.19310033
              14.57188097                0.14584770               63.87455748                0.00010000              -16.56277389                5.41701102               -5.29208760              -22.14043734               22.51500430                4.56220186
              15.50663895               -0.76565062               63.62880184                0.00010000                4.53510979                3.35286671               -4.91584123              -17.64790938                6.21602765               18.60857771
              16.66258317               -1.69421063               63.21022643                1.00000000                8.16353266                0.77155589               -2.31157732              -20.09278718               -1.01737124                0.18174019
              17.66990961               -2.22495635               62.81074845                1.00000000                0.73264389                0.94835489               -2.87609594                0.02396979               -0.18593775               -0.04088131
               8.26366069                4.69049338               66.04448778                1.00000000               -0.42883073               -0.58033012                1.95695665               -0.04486884                0.00385882                0.86377203
               9.25937239                4.25860281               65.67098460                1.00000000               -0.26971307               -0.27275995                0.90111913               -0.00644086                0.05897556                0.13022834
              10.25826643                3.82599100               65.29804185                1.00000000                0.04332669                0.03692663               -0.14191055                0.00616961                0.10120025               -0.27388238
              11.26023892                3.39259080               64.92532888                0.52717959                0.34431697                0.38597990               -1.20448793               -0.06166183                0.62042038               -0.56757326
              12.26515277                2.95675441               64.56321368                0.50098294                0.67068714                0.75048324               -2.44981218               -0.08347605                1.04222785               -0.29548685
              13.27365266                2.51759468               64.19982368                0.34462509                1.00181575                1.12044942               -3.68135368               -0.30807475                1.23215274               -0.61956578
              14.28518909                2.07147451               63.84315139                0.00010000               -0.62810497                1.39527784               -4.84633170              -21.34948487               17.34563270               -0.94152609
              15.26109056                1.20001781               63.80469764                0.00010000               -1.75000295                0.98777568               -5.63600132              -29.64366744               30.43379214                9.19161958
              16.25018903                0.26787805               63.68941333                0.00010000               -3.48912022                3.44673462               -5.33214320              -30.14487105                4.08214438               21.91138655
              17.19130816               -0.68649508               63.09011273                0.13788752               -2.46470056               12.40355118               -3.08552634              -20.51035869               -9.82180983               61.11540597
              18.20089502               -1.21547280               62.69057720                1.00000000                0.95868572               13.14935255               -3.64841713                0.64109058                0.02931421               61.39136407
               8.69349306                5.68517028               65.92916498                1.00000000               -0.35467950               -0.47156936                1.70371994               -0.05009071                0.18422657                1.03262851
               9.68994626                5.25620600               65.55192893                1.00000000               -0.19092602               -0.20875221                0.64971540               -0.01334687                0.38464448                0.04517714
              10.68967454                4.82666382               65.17825889                0.49740625                0.12489635                0.11358172               -0.39866966                0.00792633                0.81111279               -0.69624613
              11.69244419                4.39674576               64.80960313                0.00010000                0.52283854                0.50589357               -1.40463785               -0.16270084                1.75764270               -0.73472266
              12.70013131                3.96412219               64.45537447                0.00010000                0.95625463               -1.15963375               -2.70722544               -0.76988430                2.08593485                3.86775719
              13.71156928                3.52868754               64.09443701                0.00010000                1.41751461               -2.72677263               -3.89996757               -0.66990986                2.11473376                8.11767513
              14.72848160                3.08348287               63.74260315                0.00010000                3.55174021               -8.69466171               -5.01831021              -21.61386148               24.88879795               16.19265230
              15.78260409                2.16560322               63.83902621                0.00010000                3.08864113               -2.84863520               -6.00673464              -38.25828293               41.50707386               14.89735159
              16.79025442                1.30328407               63.80869848                0.02547629               -2.34386222                3.88229314               -5.60933758              -29.44210728               57.05440598               24.11073349
              17.73572684                0.55386039               64.19089912                0.44276937               -2.47837788               12.27610761               -2.43367552              -10.20424161               38.88195056               64.52661057
              18.74068686                0.03803070               63.80171269                0.89713067                0.49600233               12.90406583               -2.02060143                1.18119528                0.33775118               65.36025381
               9.12058745                6.68106199               65.81225629                1.00000000               -0.29755290               -0.34985653                1.44988587               -0.03389085                0.30688256                0.87942493
              10.11761192                6.25442777               65.43035706                0.54141032               -0.13511217               -0.16317043                0.40682131                0.05714028                0.59144589               -0.39072514
              11.11788520                5.82826263               65.05381277                0.00010000                0.09573088                0.13720652               -0.69134022                0.18093386                1.56086872               -1.29543834
              12.11952653                5.40270867               64.69145953                0.00010000               -0.00359493               -0.76500253               -1.61183188               -2.03053878                7.33998191                2.78730094
              13.11781330                4.93356174               64.43219193                0.00010000                1.06836246               -2.90857906               -2.91220078               -3.69242895               12.10127033                7.50181190
              14.14089378                4.46305923               64.16441892                0.00010000                4.90914400               -7.02065589               -4.08946167               -6.93061655               15.86680083               14.43922206
              15.21599618                3.89758128               63.98039053                0.00010000                6.76149602              -14.42514792               -5.11099965              -18.64673203               24.23559909               23.41773670
              16.27612370                3.14304511               63.88075520                0.00010000                2.85467641               -3.00831190               -5.67522063              -29.86866994               35.15257195               14.08305170
              17.27308971                2.34552391               63.91217812                0.00010000               -1.18235023                2.47807454               -4.87233466              -30.26754665               44.95630483               15.32250913
              18.25247670                1.55902708               64.00128450                0.55861041               -0.84557083                0.35294259               -1.53220864              -13.48892632               24.21489121               -0.39671348
              19.25617829                1.04260852               63.61285009                1.00000000                0.37015961                0.31626120               -1.20780307               -0.06236564               -0.14203678                0.08488810
               9.54608368                7.67817315               65.69300557                0.90760703               -0.21952576               -0.21889017                1.20174776                0.00805567                0.07525029                0.77876040
              10.54388842                7.25294259               65.30244655                0.34881274               -0.05356854               -0.14790931                0.17787274                0.16609001                0.61817733               -0.66391266
              11.54501231                6.82940795               64.92250878                0.00010000                0.13229433               -0.08474444               -0.92635822               -0.83080004                6.34344652               -2.15413402
              12.54653431                6.38144571               64.64651818                0.00010000                1.04599329               -1.76946123               -2.08281617               -2.89996722               12.63262335                4.13626281
              13.56593217                5.90595061               64.39324972                0.00010000                3.12015515               -2.97217234               -3.31366165               -4.81434382               15.60223889                5.85664856
              14.60893741                5.38827442               64.17873194                0.00010000                5.48144503               -6.44683619               -4.51047087               -9.29723782               19.57706649                9.31481941
              15.67556108                4.79497991               64.00637920                0.00010000                6.41753203               -8.25238801               -5.40952311              -18.23450664               24.51371071               10.42538860
              16.73728805                4.10543698               63.89216242                0.00010000                4.66802234               -3.90633341               -5.56676588              -25.66034570               29.97543385                9.45191386
              17.76892152                3.35284556               63.83013920                0.00010000                1.57878278               -0.28292410               -4.28919382              -27.91589888               34.23308022                4.10062581
              18.76886371                2.56091924               63.80014097                0.39785727                0.16775735                0.04436527               -1.20280079              -13.86088486               17.93852015               -1.79741934
              19.77227667                2.04435593               63.41430955                1.00000000                0.34129610                0.06345706               -1.08578959               -0.04815974               -0.06993171               -1.11409167
               9.97120968                8.67668419               65.57327091                0.88223626               -0.15107574               -0.10870796                0.95186476                0.00178792                0.02873738                0.82872262
              10.96969892                8.25146958               65.17544627                0.32934228                0.07782028               -0.11713558               -0.02312239                0.08557130                0.25509840               -0.58784373
              11.97276608                7.82656775               64.78205125                0.00010000                0.76428044               -0.26935008               -1.12862644               -1.52137741                8.53684445               -2.57049692
              12.98498453                7.36731945               64.55071367                0.00010000                2.09658128               -1.23128341               -2.49894280               -3.93569286               17.09344710                0.84523039
              14.01469771                6.87411829               64.33079092                0.00010000                4.04675947               -2.66011613               -3.90155215               -7.02194662               18.75137942                3.50958451
              15.06591972                6.33412250               64.13505949                0.00010000                5.97228928               -4.47914506               -5.18262190              -11.78923166               21.33279716                5.29646350
              16.13414350                5.73253352               63.96845039                0.00010000                6.95657088               -5.23761706               -6.06717666              -17.83546019               24.04090715                6.13070637
              17.20505114                5.06491844               63.82798515                0.00010000                6.25729883               -3.78943490               -6.10024167              -23.02805498               25.98946445                4.89714899
              18.25928947                4.33986543               63.70361192                0.00010000                3.93487508               -1.54181308               -4.51798771              -26.43391890               26.79608992                1.22194328
              19.28374864                3.55991438               63.58780608                0.26672705                1.45261274               -0.25526390               -1.10405376              -13.53631900               13.51845663               -3.36463110
              20.28834173                3.04387766               63.20577223                0.88755901                0.45930882               -0.24012960               -1.18941140               -0.26204022                0.02171641               -2.61875780
              10.39654864                9.67599899               65.45422464                0.88081954               -0.08323556               -0.04096120                0.68387947               -0.00009473                0.01423589                0.90034483
              11.39571629                9.25059988               65.04909613                0.36399787                0.10931253               -0.04422059               -0.21321598                0.00800440               -0.04531289               -0.54291553
              12.39873489                8.82402094               64.64279591                0.00010000                1.22768083               -0.12691582               -1.14326831               -2.11822701                9.64148229               -2.32790046
              13.42026991                8.35682004               64.43305628                0.00010000                2.99776469               -0.47270079               -2.96139610               -5.10393270               19.83033997               -1.31615280
              14.45869019                7.85274828               64.23483736                0.00010000                4.72338242               -1.31481657               -4.73524400               -8.84910263               21.24620873                0.55429559
              15.51473755                7.29869152               64.05643574                0.00010000                6.46828722               -2.73342848               -6.11561845              -13.47310688               23.08105079                2.98085772
              16.58805593                6.69022757               63.89413284                0.00010000                7.73287435               -3.44406118               -7.17567901              -18.19986461               24.28987310                4.02011451
              17.66939504                6.02964828               63.73594331                0.00010000                7.85956354               -3.02686305               -7.46636060              -22.17076798               23.98365743                3.58375695
              18.74524720                5.32200930               63.56463249                0.00010000                6.23650289               -1.55361463               -6.32305918              -25.61625365               21.40583084                1.07390657
              19.79412510                4.55581396               63.36150320                0.20721454                2.69310535               -0.02633219               -1.53910900              -13.51434472               10.29039009               -5.97287493
              20.79910931                4.03955334               62.97992680                0.81781939                0.49842124               -0.38588386               -1.42121810               -0.87551933                1.20411546               -4.87624700
              10.82200601               10.67586496               65.33530354                0.88156530               -0.01689528                0.00914047                0.40247635                0.01241898                0.01702190                0.92223239
              11.82183706               10.25058517               64.92283432                0.44466435                0.10876873                0.04010748               -0.37880124                0.01260699               -0.25547617               -0.53790344
              12.82418138                9.82402943               64.50506582                0.06803869                1.61707406                0.08642109               -0.99272952               -2.09465604                9.30099213               -2.02455013
              13.85417854                9.35786543               64.28502044                0.00010000                3.58313946                1.49194380               -4.65457515               -6.79854059               20.69054619               -9.52602683
              14.89584417                8.84782196               64.10132581                0.00010000                5.23998777               -0.01376919               -5.75880938              -10.47222484               24.02233040               -1.51518542
              15.95897829                8.27945393               63.95534847                0.00010000                7.16726359               -1.32011229               -7.26161646              -14.57699158               25.97022372                1.47312352
              17.03918945                7.66365229               63.80306173                0.00010000                8.54378759               -1.95075963               -8.72022013              -18.14337072               25.65749284                3.04880834
              18.12985405                7.00438118               63.63631326                0.00010000                9.08046360               -1.82059527               -9.61550490              -21.25943383               23.99848231                3.24520046
              19.22079872                6.30879314               63.43437658                0.00010000                8.30318333               -0.82179241               -9.26505230              -24.33208242               18.52012227                1.53075085
              20.29591771                5.55938774               63.14238617                0.20165652                4.12769389                0.71468392               -5.49696299              -12.96978336                8.97656292               -8.18992379
              21.30335260                5.03615998               62.74826012                0.80449598                0.74348832               -0.15487058               -4.46259211               -1.37724963                1.59619650               -7.14253439
              11.24735661               11.67618180               65.21634445                0.88629158                0.04473556                0.04583768                0.11612953                0.03642433               -0.01837129                0.89629963
              12.24780396               11.25140203               64.79621168                0.61426322                0.11024532                0.11085497               -0.49840661                0.05763351               -0.37009641               -0.51022463
              13.24956151               10.82574937               64.36923744                0.22126047                0.63513005                0.17373858               -0.68253407               -0.69561963                1.34209618               -1.55135963
              14.26050656               10.38665892               63.98350134                0.00010000                3.90478398                2.08778042               -6.44232203               -7.56287979               19.71506145              -10.62704873
              15.32765719                9.85247290               63.95511974                0.00010000                7.34304135                0.32114505               -6.50908772              -12.22201694               33.55105449               -2.98846362
              16.40736739                9.27228928               63.84114653                0.00010000                8.63020399               -0.66085091               -8.56446371              -13.84482281               29.35891504                0.55315169
              17.50026127                8.65121238               63.70555495                0.00010000                9.58490658               -0.64264272              -10.62952300              -16.07076556               27.92299302                2.35208236
              18.59906552                7.99323638               63.53767189                0.00010000               10.16688633               -0.17271136              -12.41155558              -18.52323365               24.98642387                2.77201545
              19.70359900                7.30557345               63.31210910                0.00010000               10.41485328                0.28775600              -13.28465305              -21.49237897               16.22560618                0.82457658
              20.80736259                6.57010764               62.93092887                0.21787989                5.72104168                1.34793689              -10.82971989              -11.43252700                6.84031240               -9.32862688
              21.81801983                6.03645592               62.52384595                0.81202182                1.06572453                0.17417731               -8.32046183               -1.03368020                0.56795564               -7.31992434
              11.67229404               12.67678172               65.09706015                0.82706628                0.11281207                0.08160764               -0.19781975                0.04292172               -0.03989328                0.73142280
              12.67342216               12.25280227               64.66993503                0.85293851                0.13590321                0.14672170               -0.51857731                0.05958756               -0.21022047               -0.33012274
              13.67501211               11.82750420               64.23953304                0.49672040                0.13876240                0.16628514               -0.47377063               -0.09690587               -0.38851044               -0.82073997
              14.67619741               11.39962104               63.80902827                0.00010000                4.53806837                0.70759460               -0.52829541               -6.46114043               20.69052601               -2.98631442
              15.76577347               10.85424486               63.79845665                0.00010000               10.35724739               -1.40657484               -6.92997134               -9.45088443               38.13990112               -2.39163197
              16.88334236               10.26623691               63.72487914                0.00010000               11.55267813               -0.77003044              -10.01566211               -9.33081169               33.21622268                0.11906166
              17.99682704                9.65079944               63.60639431                0.00010000               11.08429691                0.29624326              -12.77565769              -10.07109412               30.39267914                1.43492841
              19.10502830                9.00092695               63.44275054                0.00010000               10.86264184                1.54604702              -15.62819548              -12.10681491               26.20982528                1.74828632
              20.21407987                8.31454826               63.19653867                0.00010000               11.56782034                2.61862115              -18.31634132              -15.28771486               12.63096310               -0.05506479
              21.33638470                7.58634648               62.71929401                0.22657186                6.79512769                2.30797882              -15.77239285               -9.96794138                3.13283895              -10.12411938
              22.34998243                7.03964353               62.31276236                0.80340166                1.35977231                0.79383017              -10.79888233               -0.18438655                0.05347234               -7.00931470
              12.09617393               13.67781395               64.97535901                0.90704348                0.20992970                0.10322393               -0.47478959                0.04023974                0.44670247                0.59373342
              13.09827323               13.25433646               64.54677124                1.00000000                0.23153465                0.15341931               -0.62612821                0.04816226                0.42339769               -0.19843340
              14.10080462               12.82907507               64.11882774                0.83188703                0.31349327                0.15708692               -0.75872538               -0.09703105                0.32093591               -0.41392892
              15.10454309               12.40081081               63.69086138                0.36620000                8.56095030                0.11897660               -0.69093344               -7.40211512               20.65549434               -0.30360415
              16.27202363               11.82434140               63.67404268                0.36067486               15.98267426               -2.99034590               -7.09670168               -6.57109132               39.14761041               -1.40496437
              17.42419658               11.25688867               63.61329882                0.36474319               14.60628607               -0.93482464              -11.43802273               -4.27478593               35.13524968               -0.38591552
              18.56414935               10.65713724               63.50590365                0.37812426               13.44919133                0.63378052              -15.02287970               -4.90433614               32.30334181                0.26490463
              19.69318040               10.02415732               63.34986502                0.40148642               12.41379138                2.32303628              -19.17373546               -6.14435747               28.39442929                0.05685469
              20.81242518                9.35794588               63.10846854                0.43311981                9.48640414                4.33976212              -23.80561043              -10.55997436               10.27028885               -1.27139662
              21.88290849                8.61626722               62.53928842                0.61451427                4.76564093                2.99207418              -24.60961072              -10.62828911               -3.37744386              -14.46425842
              22.90773800                8.05233253               62.13172301                0.89695445                2.48295093                1.26889993              -18.98640845               -0.61791201               -3.29541672              -10.80423062
               8.20429141                3.82346572               67.18513971                1.00000000               -0.47081559               -0.58292921                2.04437292               -0.18983965               -0.48011199                0.59630473
               9.19958325                3.38331737               66.80171026                1.00000000               -0.33323084               -0.28885627                1.07892386               -0.14972624               -0.58708013                0.08061776
              10.19762679                2.94257818               66.41547758                1.00000000               -0.06114501               -0.00365038                0.12748047               -0.14619950               -0.58585263               -0.08385046
              11.19836035                2.50076206               66.03193177                0.59611763                0.14146857                0.31510862               -0.84594366               -0.23913599               -0.35409181               -0.50348466
              12.20045617                2.05616560               65.65069959                0.48345560                0.35291166                0.68552799               -1.92400368               -0.28506764               -0.01089627               -0.24359717
              13.20541859                1.60875396               65.27461158                0.29504279                0.41071567                1.02136419               -3.03953018               -0.61110835                0.64551662               -0.60120069
              14.20867048                1.15230396               64.90790986                0.00010000              -12.26330432                1.51349397               -4.02604448              -22.16389725               14.80135168               -1.30651656
              14.96015250                0.26012673               64.81974333                0.00010000              -15.28978871                4.99442471               -5.47652535              -21.34932087               22.48833047                3.84552947
              15.90287470               -0.64170327               64.57797646                0.00010000                5.18442953                3.75461180               -5.10344009              -17.04945002                8.46585475               17.58107449
              17.06384109               -1.56944287               64.18819063                1.00000000                8.40749295                0.79044000               -2.14736111              -19.97961094                0.68261812                0.10536292
              18.07102456               -2.10226685               63.78318066                1.00000000                0.71834715                0.97508138               -2.70556196                0.04761234               -0.11017139               -0.09025488
               8.64254137                4.81763643               67.06338083                1.00000000               -0.40116072               -0.53628715                1.81877998               -0.04204698                0.01343756                0.84026728
               9.63852976                4.38042880               66.67975418                1.00000000               -0.25494567               -0.25777652                0.85276431               -0.00652558                0.07546780                0.12088645
              10.63744245                3.94254168               66.29680618                1.00000000                0.03227624                0.02423127               -0.10255033                0.00487617                0.11328713               -0.27386452
              11.63917528                3.50391314               65.91391316                0.54390410                0.30835406                0.34253413               -1.07367993               -0.05719843                0.53481146               -0.52971041
              12.64360953                3.06302088               65.53990430                0.51149968                0.60315199                0.67355635               -2.20414528               -0.08023115                0.87057208               -0.30065674
              13.65123832                2.61896761               65.16473990                0.34364237                0.88677940                1.00991295               -3.32311751               -0.33728470                1.08355711               -0.59698737
              14.66134512                2.16743890               64.79679682                0.00010000               -0.37877074                1.30104923               -4.40544390              -20.37420222               17.20237412               -0.92881992
              15.64366291                1.31007098               64.74702418                0.00010000               -0.70900581                0.99434284               -5.78689926              -28.43065654               30.14672971                8.67878282
              16.64716501                0.39584285               64.63321912                0.00010000               -2.46680684                3.89916913               -6.48755656              -29.57350216                4.79828709               20.51469221
              17.59432677               -0.56153847               64.06021010                0.14850765               -2.14201716               15.52720372               -3.07054710              -21.28022483               -8.33634710               61.59383763
              18.60432466               -1.09251604               63.65515146                1.00000000                0.99978905               16.50492185               -3.62791202               -0.09107564                0.11654403               62.44311036
               9.07786572                5.81273997               66.94558627                1.00000000               -0.33182283               -0.42997420                1.57873167               -0.04553751                0.18653913                1.00014371
              10.07454749                5.37816183               66.55826207                1.00000000               -0.18128701               -0.19866481                0.61764981               -0.01064426                0.39006394                0.03600147
              11.07423998                4.94306281               66.17454301                0.43673171                0.10948462                0.09372048               -0.34073196                0.00993678                0.83515045               -0.71778609
              12.07673718                4.50761274               65.79620834                0.00010000                0.47785503                0.47213010               -1.26679010               -0.18421882                1.66035347               -0.67751183
              13.08379708                4.06963673               65.42957008                0.00010000                0.87588460               -1.08213752               -2.44448500               -0.77388645                1.89412609                3.84273982
              14.09425487                3.62895222               65.05722500                0.00010000                1.31429919               -2.57321865               -3.53152027               -0.69170218                1.99292963                8.08704064
              15.11008306                3.17832495               64.69459755                0.00010000                3.44402758               -8.18125151               -4.56853192              -20.44197476               24.56579065               16.19866671
              16.16313543                2.28001359               64.77608775                0.00010000                3.64655253               -2.32131478               -6.21799348              -36.24258945               40.77438882               15.33218057
              17.18301411                1.43628011               64.74731125                0.00010000               -1.82699729                4.95432242               -7.98492401              -26.28926680               56.60090375               24.68505246
              18.12659548                0.74110120               65.16188202                0.32076347               -2.59279685               15.72468478               -5.94898464               -8.03622760               40.74546189               62.65236511
              19.13115818                0.22783159               64.77756642                0.77514116                0.45626959               16.58519425               -4.79590644                0.56920111               -0.00127305               63.95422293
               9.51078690                6.80903694               66.82619963                1.00000000               -0.27928564               -0.31152113                1.33807986               -0.02660804                0.30708037                0.84219252
              10.50799404                6.37645551               66.43434981                0.53636419               -0.12983059               -0.15913398                0.39235484                0.06292066                0.56577031               -0.38465881
              11.50819029                5.94441609               66.04729266                0.00010000                0.04614728                0.09984448               -0.60661154                0.20699567                1.59264388               -1.30251246
              12.50891699                5.51335574               65.67614730                0.00010000               -0.06989822               -0.63720169               -1.40076273               -1.89415946                7.22563143                2.65671613
              13.50679232                5.04137813               65.40318421                0.00010000                0.98995383               -2.60543317               -2.79757063               -3.51916889               11.57248473                7.40444617
              14.52871606                4.56750323               65.12328062                0.00010000                4.73259707               -6.46746306               -4.10597766               -6.58031449               15.27898302               14.35287388
              15.60144426                4.00381387               64.92825665                0.00010000                6.60699463              -13.38001360               -5.34384414              -17.46118680               23.55487797               23.65196876
              16.66085596                3.26364468               64.82207478                0.00010000                2.94238974               -2.26574949               -6.16115925              -27.34716452               35.02792376               15.41856940
              17.66029206                2.49492930               64.86149874                0.00010000               -0.94026046                3.60527822               -6.00353205              -26.86494706               47.29696013               17.08713067
              18.64205075                1.75295522               64.99365175                0.62314315               -0.90220723                0.70222457               -0.51383473              -11.37047846               26.13589848                1.24242743
              19.64224791                1.23918785               64.60764622                1.00000000                0.01971661                0.67771503               -0.33014356               -0.10240750               -0.02494080                1.46028085
               9.94249643                7.80650955               66.70451846                0.90486208               -0.20696728               -0.18501576                1.10165929                0.01672998                0.07162427                0.72981544
              10.94042676                7.37497916               66.30429215                0.36178855               -0.05083874               -0.14542818                0.18907924                0.16436196                0.57212873               -0.62931767
              11.94147965                6.94505970               65.91380765                0.00010000                0.07325966               -0.09410428               -0.80231839               -0.65253829                6.15859820               -2.06077019
              12.94189195                6.49486870               65.62561164                0.00010000                0.88932790               -1.43329565               -2.03273684               -2.54688769               12.17361205                3.91732991
              13.95926621                6.01752807               65.35954927                0.00010000                2.91604477               -2.49506383               -3.35782462               -4.45969124               14.93679567                5.66882762
              15.00021284                5.49960296               65.13246369                0.00010000                5.27258323               -5.74135795               -4.70118400               -8.68165672               18.80139516                9.25201176
              16.06471788                4.91072468               64.95072471                0.00010000                6.24319338               -7.35811898               -5.75714082              -16.90328623               24.01887511               10.79480913
              17.12507671                4.23469860               64.83529107                0.00010000                4.58433779               -3.09890359               -6.03892476              -23.31875260               30.58933990               10.57669241
              18.15640463                3.50838568               64.78859243                0.00010000                1.49253233                0.20129093               -4.37543187              -24.60203297               36.49192342                6.02632873
              19.15492736                2.75514569               64.79199939                0.47342638                0.01200699                0.16264826               -0.70801964              -12.05697376               19.46124431               -0.83565834
              20.15664477                2.24138589               64.40715075                1.00000000                0.17174135                0.18551351               -0.61523625                0.01139722               -0.08471348               -0.37568245
              10.37418229                8.80533663               66.58229137                0.88327541               -0.14511572               -0.08319323                0.85770717                0.01005998                0.02813166                0.74741165
              11.37273113                8.37354694               66.17540642                0.35233897                0.05338395               -0.10726922                0.00960064                0.11107418                0.21104451               -0.52200010
              12.37524997                7.94253400               65.77202878                0.00010000                0.63898647               -0.18795924               -0.89117890               -1.12886785                8.17195837               -2.26784170
              13.38551086                7.48468983               65.52548753                0.00010000                1.88071344               -0.75023493               -2.49468277               -3.32733367               16.34169136                0.75304210
              14.41286424                6.99147686               65.29090883                0.00010000                3.81877280               -2.05416369               -4.00721309               -6.47733468               17.85400880                3.21887731
              15.46188632                6.45267607               65.08187755                0.00010000                5.77093312               -3.81372682               -5.38649346              -10.90692917               20.41759406                5.17066845
              16.52828290                5.85665149               64.90645443                0.00010000                6.74667914               -4.49510311               -6.36619020              -16.25868084               23.53649193                6.31034481
              17.59681990                5.20166661               64.76701624                0.00010000                5.97607010               -3.11280706               -6.30438096              -20.56917398               26.71267269                5.54763364
              18.64780430                4.49895511               64.66131483                0.00010000                3.55455791               -1.25329994               -4.37587041              -22.98201887               29.38374757                2.58461966
              19.66791106                3.75620819               64.58046730                0.36003788                1.10955812                0.00867012               -0.64445135              -11.52984738               15.21853969               -1.70902426
              20.66999547                3.24289812               64.19866015                0.98024506                0.20844053               -0.00294480               -0.57965630               -0.04712069               -0.06219449               -1.22300127
              10.80627700                9.80484569               66.46055782                0.88522581               -0.08261336               -0.03051142                0.59663626                0.01329472                0.01449107                0.77720378
              11.80545086                9.37283377               66.04730890                0.39508846                0.07412061               -0.02227224               -0.15655336                0.09893709               -0.02911087               -0.44513213
              12.80775941                8.94130051               65.63312709                0.01586554                1.04757798                0.00145537               -0.85924673               -1.40142714                9.12470446               -1.86629292
              13.82640242                8.47986401               65.40407553                0.00010000                2.69869333                0.19972497               -2.89202116               -4.26933268               18.63188805               -2.04996797
              14.86173328                7.97644479               65.18663912                0.00010000                4.52486006               -0.83287229               -4.73359929               -8.30999333               19.98862644                0.27768258
              15.91689962                7.42332842               64.99433898                0.00010000                6.44102236               -2.28217649               -6.21455673              -12.44803476               21.94229108                2.71474728
              16.99055372                6.82082261               64.82153299                0.00010000                7.72449934               -2.98295353               -7.32038043              -16.27941384               23.36865421                3.94410559
              18.07138961                6.17244246               64.66227364                0.00010000                7.58344779               -2.63121240               -7.37344077              -19.27753112               24.08644677                3.69566080
              19.14222268                5.48331968               64.50865569                0.00010000                5.44988982               -1.55084704               -5.36493209              -21.22620828               23.90676423                1.44225348
              20.18038741                4.75531909               64.35596504                0.32514337                2.00499081                0.10603747               -0.51749366              -10.70653013               11.74713041               -2.01597277
              21.18232250                4.24132699               63.97599640                0.93275140                0.19350875               -0.16234913               -0.31330769               -0.09543567                0.10343760               -1.78535894
              11.23847202               10.80472640               66.33883735                0.88772135               -0.02169695               -0.00388215                0.32926472                0.03160302                0.01191383                0.75974065
              12.23825505               10.37310150               65.91958429                0.48018455                0.08595862                0.07291508               -0.29596332                0.14808507               -0.15755688               -0.39034246
              13.24019119                9.94256311               65.49695800                0.09708356                1.33624398                0.18320088               -0.74270928               -0.99395460                7.70259306               -1.49049391
              14.26497993                9.48868433               65.23548061                0.00010000                3.15043804                1.69717656               -3.96421781               -5.82117079               18.65502226               -9.23883294
              15.30319995                8.97481941               65.04687321                0.00010000                5.17839368               -0.00304694               -5.19652192              -10.20838889               23.20701981               -2.06689207
              16.36854780                8.40703254               64.88216416                0.00010000                7.51903201               -1.25433222               -7.19369532              -13.42005722               24.33814002                1.13160759
              17.45358059                7.79699242               64.71565133                0.00010000                9.01122058               -1.92260446               -8.63761926              -16.01699011               24.02403458                2.77716450
              18.54877222                7.14904236               64.54292531                0.00010000                9.34114533               -1.97859359               -9.06279633              -18.16642062               22.70132904                3.07067419
              19.64040350                6.46793817               64.34950360                0.00010000                7.35004646               -1.41798975               -7.42546289              -19.25911564               19.76780671                1.25864128
              20.69577315                5.75832894               64.12775665                0.34989146                2.78337292                0.45211888               -0.98377162               -9.57236015                8.86440669               -1.74400721
              21.69607096                5.23965114               63.74696143                0.94749445                0.02978137               -0.08386662               -0.06657492               -0.12095156                0.51428712               -1.51188963
              11.67015886               11.80476804               66.21706130                0.89246225                0.04169938                0.01240030                0.06585496                0.05627801               -0.02585092                0.69647613
              12.67057585               11.37429207               65.79205048                0.64468563                0.10693132                0.13583837               -0.38563974                0.17807886               -0.19645399               -0.29386080
              13.67229749               10.94496453               65.36362905                0.24590085                0.35734277                0.20705259               -0.55247226                0.12181330                0.70223590               -1.03751811
              14.67772271               10.51380754               64.95650478                0.00010000                3.34598998                1.43235448               -1.58941111               -6.42877415               18.51061365               -8.94868382
              15.73921728                9.97638385               64.89091351                0.00010000                7.43013800               -0.09008855               -5.71150007              -11.31628179               31.53146506               -2.99373443
              16.82632547                9.39824178               64.75649279                0.00010000                9.44934088               -0.99511179               -8.21223429              -12.49205302               27.18422090                0.18594732
              17.92820410                8.78237052               64.59993161                0.00010000               10.53949900               -1.08823242              -10.24117389              -14.11875868               25.24824749                2.00604242
              19.03711545                8.13287058               64.41885664                0.00010000               10.97748452               -1.00471812              -11.22167677              -15.87753048               21.98186787                2.57560861
              20.14775379                7.45495988               64.19059469                0.00010000                9.00558975               -1.10120486              -10.02941580              -16.78705421               16.21903126                0.98445302
              21.21722724                6.76436147               63.90433398                0.39594251                3.47526360                0.53338642               -1.56454171               -8.33853779                6.09663843               -1.58990308
              22.21725906                6.23964966               63.52393001                0.98248739                0.00318218                0.01223722                0.06279315               -0.02299042                0.84987830               -0.92901722
              12.10054953               12.80497440               66.09481829                0.82993351                0.10706166                0.04899502               -0.20163616                0.04220114                0.01681815                0.54225047
              13.10162014               12.37581827               65.66570826                0.84819743                0.12812342                0.15003608               -0.41628970                0.10258406               -0.04735416               -0.12537618
              14.10311199               11.94670416               65.23543998                0.49057967                0.16824910                0.15958727               -0.42952309                0.09713001               -0.07230803               -0.49910406
              15.10498513               11.51733142               64.80581071                0.00010000                4.46640401                0.20507146               -0.26440364               -5.81274974               18.03636083               -1.66662507
              16.19244007               10.97301764               64.73720462                0.00010000               10.38674747               -1.89883819               -5.53698957               -8.29319112               33.72603922               -1.98147684
              17.31272007               10.38713031               64.62740547                0.00010000               12.20682709               -1.35357263               -9.28956733               -8.28078141               29.72529969               -0.14117785
              18.43657662                9.77522777               64.48012692                0.00010000               12.29560869               -0.53041158              -12.07293780               -8.84400272               26.35384435                1.15928998
              19.55863225                9.12894800               64.29399988                0.00010000               11.82974564                0.20835369              -13.78310099              -10.60495035               21.23312640                1.58935103
              20.67317153                8.44591408               64.03506340                0.00010000                9.28401829                0.57883714              -12.95008000              -11.69052834               12.29634238                0.63806090
              21.74431261                7.76899666               63.68445754                0.41002646                3.59316237                0.44069908               -1.97285380               -7.43783833                2.81686328               -1.84257208
              22.74503478                7.23989588               63.30676106                0.98053805                0.07221630                0.07698087               -0.29540056                0.09020112                0.79162547               -0.59934374
              12.52931516               13.80574795               65.97073818                0.90735841                0.15826154                0.07735408               -0.41977719                0.03104826                0.39103370                0.42193019
              13.53089778               13.37729279               65.54132284                1.00000000                0.17058854                0.14745288               -0.55169824                0.04817982                0.38921805               -0.01727489
              14.53272693               12.94815628               65.11250639                0.80875498                0.21282305                0.14521136               -0.62042207               -0.00769777                0.48337017               -0.22338781
              15.53515424               12.51790897               64.68565932                0.36596010                8.54138217                0.05775466               -0.44550449               -7.47054813               18.02623211               -0.18420068
              16.70355457               11.93840709               64.60991574                0.36075084               16.16727341               -3.46105489               -5.84603148               -6.22548197               33.77783254               -1.00915490
              17.85849970               11.37117033               64.50306149                0.36442507               15.29758907               -1.59599799              -10.43352578               -3.75427685               30.11122324               -0.41793467
              19.00950636               10.77176229               64.35723995                0.37718633               14.79152169               -0.34654816              -14.09457862               -4.41365957               26.29088491                0.23162257
              20.15433014               10.13703766               64.16630037                0.39931122               13.21941028                0.80896584              -16.85810312               -5.69149431               20.20573857                0.30827062
              21.27389456                9.46653663               63.89032960                0.42796346                6.00792670                2.06225492              -17.37507856               -8.12080707                7.40198334               -0.56265792
              22.27448867                8.77317545               63.46972259                0.69698255                0.16850469                0.41787890               -3.88743766               -8.24976163               -1.56172060               -3.01518333
              23.27726466                8.24118928               63.09389886                0.97727264                0.27759827                0.12933959               -2.11738407                0.02437008               -0.53002539               -1.01367336
               8.58786598                3.95222075               68.20479907                1.00000000               -0.43727438               -0.53685780                1.88551034               -0.17182753               -0.45795066                0.57660569
               9.58349324                3.50718571               67.81217561                1.00000000               -0.31327066               -0.27169775                1.01408518               -0.13516773               -0.55755784                0.07555135
              10.58160057                3.06159107               67.41688776                1.00000000               -0.06781217               -0.01427942                0.15604477               -0.13233801               -0.56125739               -0.07859042
              11.58213699                2.61499369               67.02407575                0.59747603                0.11532001                0.27263377               -0.72175102               -0.21799173               -0.38950566               -0.48197146
              12.58390697                2.16583116               66.63263707                0.47736320                0.30069708                0.60396302               -1.68306484               -0.26673763               -0.11803274               -0.26101859
              13.58815093                1.71399791               66.24594961                0.27577590                0.24413777                0.90436052               -2.68634059               -0.67987109                0.57443791               -0.60450976
              14.58878972                1.25167305               65.86982091                0.00010000              -11.82849766                1.45373731               -3.57312345              -21.47381088               14.38550085               -1.42099735
              15.35158098                0.36819658               65.76502697                0.00010000              -14.06404885                4.90524754               -5.32340802              -21.20718770               22.30546649                3.15607996
              16.30750875               -0.52451446               65.52673304                0.00010000                5.97251716                3.33515612               -4.86565251              -17.67093347               11.11423915               15.14489510
              17.47103132               -1.43614232               65.16727921                1.00000000                8.51086805                0.78326001               -2.00535449              -19.14767287                2.50735704                0.07426870
              18.47772611               -1.97070303               64.75663721                1.00000000                0.66947820                0.97066851               -2.56888081                0.10563511               -0.10785940               -0.09069839
               9.03118274                4.94685217               68.08086338                1.00000000               -0.37263483               -0.49331946                1.67615039               -0.03803120                0.02156812                0.81320556
              10.02745640                4.50446873               67.68803989                1.00000000               -0.24047738               -0.24276554                0.80456496               -0.00531629                0.08910119                0.11157699
              11.02637320                4.06144828               67.29599084                1.00000000                0.01903181                0.01152688               -0.05843245                0.00410028                0.12337486               -0.27194814
              12.02783703                3.61772002               66.90385529                0.56297137                0.26821408                0.29838471               -0.93421781               -0.05451452                0.46178741               -0.49413683
              13.03173748                3.17187079               66.51913078                0.52341860                0.52971230                0.59329544               -1.94456538               -0.07941513                0.72536652               -0.30091242
              14.03843128                2.72304152               66.13336133                0.34277419                0.76074023                0.89448597               -2.94649551               -0.37054490                0.95003612               -0.57204391
              15.04695228                2.26621042               65.75504251                0.00010000               -0.54142092                1.21616648               -3.93402538              -19.68237628               16.77008956               -0.92220674
              16.02760286                1.41724905               65.68895965                0.00010000               -0.69917130                1.44998265               -5.67426529              -28.17880721               29.08520555                8.26195666
              17.03296886                0.50883710               65.55966220                0.00010000               -1.24769881                4.66099839               -8.23646930              -30.82946455                5.45248652               17.19799482
              18.00264888               -0.42830972               65.02870178                0.13042801               -0.98128401               15.48041764               -3.24981606              -21.02419348               -5.97509622               59.15980399
              19.01334318               -0.96099635               64.61801895                1.00000000                1.06942930               16.76617154               -3.81334866               -1.69033868                0.11382811               61.22538560
               9.47187223                5.94235436               67.96073961                1.00000000               -0.30814336               -0.39392608                1.45156299               -0.04009912                0.18738747                0.96211595
              10.46879080                5.50233040               67.56428192                1.00000000               -0.17204786               -0.18821083                0.58732497               -0.00774260                0.39243613                0.02700044
              11.46843128                5.06182161               67.17144425                0.37546837                0.09166953                0.07497330               -0.27726164                0.00991913                0.85025405               -0.72957537
              12.47062419                4.62096138               66.78426733                0.00010000                0.42829475                0.43598339               -1.11675314               -0.19069798                1.57311639               -0.57343939
              13.47699717                4.17769707               66.40648477                0.00010000                0.78881058               -1.00996609               -2.16794434               -0.93407741                1.72850036                3.78210975
              14.48640040                3.73188763               66.02380661                0.00010000                1.19687464               -2.40817558               -3.14654897               -0.93654802                1.88046732                7.86682010
              15.50093466                3.27599638               65.65123251                0.00010000                2.94888787               -7.58584679               -4.09364884              -19.66720546               24.05224407               15.82107201
              16.54537816                2.39719623               65.71466634                0.00010000                1.77717784               -1.25179413               -6.69914010              -34.57268217               38.35771969               14.91415862
              17.53647822                1.56870551               65.64900000                0.00010000               -1.24986267                6.85741200               -8.06523791              -25.46235511               54.38993358               25.92336237
              18.52038091                0.87346604               66.07191943                0.07101422               -1.35928103               19.10339876              -31.90029232               -8.88434067               41.83007764               53.52660684
              19.50929260                0.36462040               65.70579457                0.55621167               -1.10883058               20.16130764              -29.44571125               -0.16719618                6.88692844               49.00696395
               9.91042868                6.93897365               67.83901789                1.00000000               -0.25943930               -0.28383189                1.22654817               -0.02208578                0.30444010                0.79727284
              10.90783429                6.50070451               67.43820415                0.53116354               -0.12440450               -0.15153799                0.37972190                0.06125536                0.53948817               -0.37543782
              11.90794059                6.06294774               67.04168053                0.00010000                0.01566617                0.08174084               -0.51346120                0.20843425                1.65464203               -1.28278927
              12.90814761                5.62643969               66.66344427                0.00010000               -0.29054571               -0.52546500               -0.81141774               -1.88177687                6.57028994                2.59550254
              13.90212968                5.15167147               66.37624052                0.00010000                0.66266959               -2.30472639               -2.61937158               -3.53714106               10.71388245                7.03049712
              14.92140101                4.67487801               66.08229936                0.00010000                4.30849492               -5.85849518               -4.02991689               -6.48942543               14.38190988               13.87972392
              15.98829958                4.11449349               65.87351364                0.00010000                6.10195417              -12.16590322               -5.54259292              -16.52441525               22.53527925               23.12602757
              17.04344009                3.39221317               65.75753201                0.00010000                2.95761843               -1.25834290               -6.93831896              -25.13395885               34.14984346               15.67293620
              18.04745195                2.64598534               65.79210748                0.00010000               -0.71964532                5.24252693               -8.67010044              -21.64407256               50.97022092               19.24272239
              19.02904718                1.95375826               65.99100781                0.57433249               -0.98807058                4.19622464               -0.34331797               -9.23030857               29.27683500                6.15669371
              20.02769053                1.44222980               65.60624722                1.00000000               -0.13566479                4.06039791               -0.19556374                0.39650763                0.16188490                5.51869931
              10.34796879                7.93667772               67.71503876                0.90402370               -0.19269765               -0.16902910                1.00606461                0.01786870                0.06750400                0.66942904
              11.34604181                7.49929964               67.30622813                0.36858833               -0.05520023               -0.13458426                0.19426263                0.15634117                0.53472266               -0.59131324
              12.34686478                7.06345643               66.90646241                0.00010000               -0.08884400               -0.05281369               -0.66863575               -0.53320020                5.91796943               -1.90563598
              13.34426493                6.61045208               66.60586344                0.00010000                0.54756277               -1.12616450               -1.81776900               -2.35315960               11.61494864                3.39593433
              14.35781604                6.13160254               66.32609323                0.00010000                2.47624721               -2.01327409               -3.24774412               -4.12380854               14.04917924                5.13166931
              15.39378987                5.61471773               66.08470826                0.00010000                4.76475806               -4.96087091               -4.74409785               -8.07996141               17.73058348                8.81706939
              16.45311120                5.03267832               65.89123639                0.00010000                5.87086279               -6.32806752               -6.12286711              -15.56266463               23.07506460               10.64713567
              17.51120713                4.37202937               65.77138393                0.00010000                4.44702405               -2.16623100               -7.00980695              -20.90590853               30.96452879               10.92746101
              18.54205168                3.67355605               65.74263056                0.00010000                1.41615721                1.27546095               -5.30816778              -21.42887094               39.00328361                7.72452236
              19.53953027                2.95739053               65.78598057                0.45942538               -0.08860067                0.40049944               -0.57644557              -10.30003802               21.34892257               -0.33081737
              20.54027967                2.44582835               65.40200483                1.00000000                0.07493920                0.41710919               -0.47242519               -0.00513758               -0.06926343                0.09994977
              10.78554222                8.93559306               67.59042506                0.88613775               -0.13598170               -0.08403135                0.77858955                0.01035145                0.02564766                0.65424389
              11.78418241                8.49801283               67.17563828                0.36211132                0.02909605               -0.08901349                0.02880256                0.14106973                0.20515800               -0.45929807
              12.78612414                8.06189147               66.76422767                0.00010000                0.43779510               -0.08452824               -0.71090346               -0.82494241                7.72085542               -1.97894639
              13.79293831                7.60391640               66.50082002                0.00010000                1.46318587               -0.23122427               -2.38900382               -2.76773891               15.38126242                0.38408496
              14.81538786                7.11140599               66.25064666                0.00010000                3.28938469               -1.46324948               -3.93119493               -5.89362903               16.79660932                2.66485700
              15.85872600                6.57566059               66.02732962                0.00010000                5.21733910               -3.10089333               -5.40165085               -9.92871061               19.25665025                4.69704923
              16.91973464                5.98793214               65.84112659                0.00010000                6.28590931               -3.63827696               -6.64829181              -14.61944415               22.66592794                6.03129530
              17.98444419                5.34888855               65.70189753                0.00010000                5.68893624               -2.21884710               -6.99930947              -18.18217190               27.05894992                5.72229615
              19.03351337                4.67149456               65.61609451                0.00010000                3.31649635               -0.54452222               -5.17276047              -19.97404426               31.95075408                3.15971746
              20.05077411                3.96176825               65.57491706                0.36780624                0.85993828                0.54073136               -0.60714291               -9.93629233               17.08305909               -1.00526255
              21.05071213                3.45057199               65.19417910                0.99077365               -0.00619811                0.48582628               -0.44955096               -0.07784274               -0.05398961               -0.46647278
              11.22333629                9.93499709               67.46615737                0.89082590               -0.07714910               -0.05183888                0.54198197                0.01263675                0.00948419                0.65133406
              12.22256480                9.49751937               67.04596507                0.40222662                0.05630344                0.00119613               -0.12780678                0.15758150                0.00883467               -0.36208715
              13.22446236                9.06176586               66.62561097                0.00010000                0.84154188                0.09130614               -0.70715654               -0.77394948                8.46636214               -1.54682066
              14.23939563                8.60582760               66.37521586                0.00010000                2.18684565                0.83715616               -2.79700912               -3.75014215               17.30354804               -2.36700107
              15.26819927                8.10233755               66.14016537                0.00010000                3.96469374               -0.45981272               -4.44287002               -7.76072864               18.74412816               -0.20144912
              16.31868951                7.55269986               65.93214460                0.00010000                5.96475423               -1.78641574               -6.08238972              -11.20939016               20.56276905                2.15861210
              17.38749435                6.95991278               65.74772523                0.00010000                7.26558792               -2.35675906               -7.35083353              -14.29365465               22.18297751                3.49990558
              18.46400127                6.32765243               65.58847449                0.00010000                7.10983695               -1.98384406               -7.64802225              -16.58315017               24.09100530                3.43745372
              19.52969109                5.66266560               65.45733385                0.00010000                4.88628663               -0.97337962               -5.60640094              -18.08185626               26.45202783                1.69870564
              20.56172700                4.96820516               65.35115333                0.35969912                1.57121195                0.71852008               -0.61618318               -9.10734081               13.75072100               -1.16492652
              21.56111533                4.45554488               64.97366065                0.97273278               -0.06116679                0.37082969               -0.30059004               -0.04019530               -0.00842577               -0.76845016
              11.66075041               10.93455629               67.34188883                0.89466743               -0.01851431               -0.04333540                0.30954938                0.02429404               -0.00065042                0.61531338
              12.66056527               10.49803675               66.91691506                0.47692074                0.07932579                0.09407358               -0.26697820                0.19518240               -0.08163171               -0.28146469
              13.66233692               10.06371759               66.49021163                0.08690534                0.83992550                0.23755804               -0.67028156               -0.13438272                6.93715974               -1.17033170
              14.67736378                9.62065953               66.20573609                0.00010000                2.54820490                1.57637690               -2.09958879               -4.87345608               17.28390810               -8.44108450
              15.71330102                9.10220973               65.99739537                0.00010000                4.97995986               -0.00353736               -4.62603543               -9.53140202               21.64376176               -2.33244711
              16.77696297                8.53993227               65.81147457                0.00010000                7.28039809               -1.09664743               -6.79197892              -11.90342917               22.44759966                0.56424475
              17.85890898                7.94079696               65.63030934                0.00010000                8.65326933               -1.65275677               -8.31325830              -13.76762941               22.24288334                2.25487818
              18.95002836                7.30921167               65.45505733                0.00010000                8.62072652               -1.69892267               -8.66493252              -15.23657266               22.02448523                2.66817674
              20.03132351                6.65202697               65.28586732                0.00010000                6.28598311               -1.14814425               -6.32876776              -16.01309150               21.85070451                1.55965155
              21.07574802                5.97613865               65.12271074                0.41677448                2.19526337                0.67017636               -0.50688247               -7.99026773               10.75392614               -0.70094067
              22.07522878                5.45798858               64.74692862                1.00000000               -0.05192396                0.12655325               -0.04228248               -0.07950657                0.09845742               -0.49993657
              12.09686124               11.93413038               67.21766155                0.89964286                0.04458958               -0.03032190                0.08923593                0.03204791               -0.02834048                0.55189614
              13.09730714               11.49940084               66.78849889                0.61057635                0.11453421                0.14928150               -0.37706077                0.18373790               -0.08203316               -0.16474609
              14.09915193               11.06651702               66.35818799                0.20530925                0.30636181                0.24635910               -0.60028734                0.45404331                1.06830018               -0.73305326
              15.10343437               10.63735513               65.95171312                0.00010000                2.95732778                0.82372358                0.45697205               -5.32270000               16.77908284               -7.73859508
              16.15829848               10.10226680               65.84088974                0.00010000                6.92996636               -0.32983179               -4.47479004              -10.05948688               28.25364288               -3.01990491
              17.24203370                9.53076691               65.67690185                0.00010000                9.22819453               -1.15438061               -7.53646954              -10.87230414               24.49277517               -0.23491554
              18.34286237                8.92685764               65.50073147                0.00010000               10.30030506               -1.20600296               -9.46597917              -11.93462078               22.63504279                1.56044126
              19.44803980                8.29367397               65.31323836                0.00010000                9.98199542               -1.19707138               -9.94457373              -13.12144694               20.52210272                2.32796961
              20.54250228                7.63970272               65.11152079                0.00010000                7.39601155               -1.22262044               -7.22398266              -13.69198726               17.99912970                1.73130656
              21.59596003                6.98160868               64.89963804                0.50282183                2.66615291                0.39838862               -0.37228055               -6.81752435                8.26075774               -0.31773846
              22.59582534                6.45807594               64.52510181                1.00000000               -0.01346945               -0.01503882                0.08589722               -0.05431792                0.13705818               -0.10149869
              12.53085046               12.93394985               67.09302742                0.83339464                0.10029262                0.01411966               -0.12484067                0.00545495                0.06764641                0.42521765
              13.53185338               12.50102238               66.66160923                0.74542671                0.13065182                0.16804837               -0.47693965                0.08385832                0.09894407               -0.02253490
              14.53346349               12.06864478               66.23094257                0.38617611                0.16533050                0.19787391               -0.54248912                0.15476193                0.31574296               -0.30012754
              15.53515999               11.63713400               65.80374020                0.00010000                4.26180054                0.00372221               -0.05167386               -5.44038318               15.82872392               -1.44995248
              16.61869950               11.09561310               65.68771686                0.00010000                9.98830288               -2.17653678               -4.34228976               -7.42048515               29.35225182               -2.07663331
              17.73492605               10.51684466               65.53908779                0.00010000               11.93050010               -1.67744889               -8.29827448               -7.09365378               25.85228299               -0.36717206
              18.85730951                9.91667690               65.36493555                0.00010000               11.99141465               -0.96570087              -10.78104836               -7.38543158               22.59291095                0.90233522
              19.97475434                9.28527024               65.16708852                0.00010000               10.61197766               -0.39761129              -11.56066465               -8.64683070               18.89160641                1.54966369
              21.06954906                8.62757456               64.93753707                0.00010000                7.31349814               -0.17712036               -8.46518341               -9.33117366               14.34727187                1.56920900
              22.12102431                7.98410642               64.67983693                0.55244336                2.58294209                0.19123847               -0.32484677               -5.88709844                5.90893730               -0.21930685
              23.12120790                7.45768780               64.30685435                1.00000000                0.01835947               -0.01462401                0.01493820                0.00611911                0.11940461                0.06083929
              12.96282528               13.93441278               66.96696347                0.90792990                0.14640991                0.04629282               -0.31572801                0.03238497                0.36648484                0.32137567
              13.96428938               13.50276181               66.53573727                0.94440612                0.16551345                0.17394254               -0.65029299                0.04668563                0.45682722                0.07556091
              14.96613555               13.07047450               66.10641930                0.72658024                0.16845061                0.18297257               -0.68785931                0.00059404                0.80446470               -0.09145189
              15.96765839               12.63742958               65.68195129                0.36572559                8.20212839                0.02955808               -0.21844886               -7.33708200               15.79123607               -0.14132909
              17.13017812               12.05873607               65.55712205                0.36074105               15.57192175               -3.68770279               -4.70692270               -5.86272103               28.65806109               -1.22566842
              18.27909682               11.49721794               65.40462830                0.36433819               14.82750236               -1.96267253               -9.15980441               -3.14254484               24.87527129               -0.36231948
              19.42672816               10.90754362               65.22401207                0.37631392               14.25543509               -0.91332729              -12.28991247               -3.63294371               20.92319712                0.30004739
              20.56420553               10.28572175               65.01270296                0.39731954               11.51572313                0.04515098              -13.67541731               -4.62404745               16.18663044                0.62503574
              21.65704263                9.63616031               64.76096697                0.42588903                4.19496469                0.85857507              -10.77808762               -6.26505824                9.88910695                0.62305588
              22.64810482                8.98543345               64.46153967                0.76831958               -0.41288340                0.13270313               -0.53428568               -6.21079093                3.67472684               -0.30890371
              23.64878496                8.45778346               64.08937533                1.00000000                0.06801370                0.00956605               -0.27959220               -0.00729329               -0.08038949                0.02624170
               8.98037932                4.08286921               69.22284992                1.00000000               -0.40359106               -0.49092198                1.72385792               -0.15290017               -0.43732104                0.55694705
               9.97634341                3.63309983               68.82199196                1.00000000               -0.29389044               -0.25458009                0.94941762               -0.11935860               -0.53047838                0.07082395
              10.97450151                3.18280021               68.41859847                1.00000000               -0.07612372               -0.02539910                0.18710027               -0.11750933               -0.53803110               -0.07384132
              11.97482093                2.73156355               68.01749675                0.60023484                0.08600700                0.22752736               -0.59239051               -0.19710386               -0.41348912               -0.46141106
              12.97622165                2.27795781               67.61703829                0.47284121                0.24512879                0.51971222               -1.43399324               -0.24724307               -0.20438126               -0.27527093
              13.97972351                1.82184033               67.22088477                0.25715245                0.05407411                0.78293957               -2.32118382               -0.76546932                0.52298458               -0.60115811
              14.97730313                1.35344081               66.83644739                0.00010000              -11.51869040                1.41423571               -3.09322034              -20.93832271               13.84424298               -1.54746260
              15.74934970                0.47538297               66.71327517                0.00010000              -12.71979392                5.02877779               -4.88919633              -20.76546203               22.70330443                3.18101973
              16.72290725               -0.40466369               66.48066341                0.00010000                6.73671794                2.21994732               -4.41216794              -18.95274553               13.46607206               11.45997079
              17.88408406               -1.29080265               66.14808354                1.00000000                8.36220578                0.78200411               -1.83040340              -17.87062711                4.14640189                0.05327127
              18.89015137               -1.82684430               65.73180305                1.00000000                0.60673089                0.96786252               -2.38946514                0.17738685               -0.09749094               -0.08900559
               9.42861970                5.07795999               69.09690384                1.00000000               -0.34353814               -0.45207179                1.53124630               -0.03312058                0.02797143                0.78566441
              10.42518432                4.63055403               68.69584548                1.00000000               -0.22625732               -0.22811231                0.75680198               -0.00328039                0.09972929                0.10341813
              11.42409456                4.18254622               68.29563753                1.00000000                0.00433869               -0.00093040               -0.01106091                0.00214685                0.13106416               -0.26858516
              12.42527109                3.73383882               67.89522880                0.58463153                0.22581346                0.24957088               -0.78725985               -0.05266134                0.40111255               -0.46148663
              13.42861082                3.28315493               67.50101299                0.53709477                0.45281106                0.51056854               -1.67534496               -0.07814659                0.60515163               -0.29880223
              14.43432732                2.82966973               67.10580999                0.34178043                0.62688805                0.77551277               -2.55830275               -0.40893961                0.83277595               -0.54590392
              15.44114859                2.36758317               66.71811632                0.00010000               -0.67899925                1.14172216               -3.44594044              -19.05169504               16.19191299               -0.92440002
              16.42074733                1.52567074               66.63353888                0.00010000               -1.23379896                1.71707164               -5.48074279              -28.34373795               27.32377201                7.27025409
              17.41647261                0.61753578               66.46848974                0.00010000               -0.21396185                6.34828855               -9.46081364              -30.90004554                8.13372029               17.28313410
              18.41646809               -0.28298261               65.99521378                0.08609048                0.57471397                7.00649821               -3.45360777              -20.61915253               -2.81474642               34.13107484
              19.42796689               -0.81716568               65.57888449                1.00000000                1.14987925                2.32934497               -4.01120218                2.13144833                0.10118771               38.04240466
               9.87452884                6.07382778               68.97461753                1.00000000               -0.28372710               -0.36383704                1.32410825               -0.03484586                0.18752086                0.92386375
              10.87169157                5.62853758               68.57000857                1.00000000               -0.16345946               -0.17767421                0.55829480               -0.00546656                0.39264962                0.01978183
              11.87125965                5.18278161               68.16899778                0.00010000                0.07337119                0.05979592               -0.21109245               -0.00170830                0.86125419               -0.73275400
              12.87315899                4.73655496               67.77387328                0.00010000                0.37840785                0.49154303               -0.96294667               -0.70603587                1.50124835               -0.09998023
              13.87882781                4.28816918               67.38621119                0.00010000                0.69787443               -1.03876587               -1.88096268               -1.28001613                1.58659861                3.65024212
              14.88711648                3.83735059               66.99429402                0.00010000                1.07202017               -2.27368352               -2.75059563               -1.35700534                1.77832926                7.51023516
              15.90026821                3.37627525               66.61272457                0.00010000                2.27029221               -7.06263118               -3.60890008              -19.59287881               22.70574453               15.11263621
              16.93252233                2.50972440               66.64210494                0.00010000                0.66457427               -0.26424631               -7.02523390              -32.47307575               37.82023073               13.80498107
              17.91355970                1.72230208               66.58600649                0.00010000               -1.30599294                8.43086987               -9.71799280              -31.53245075               33.57780943               23.74119521
              18.90640247                0.84932731               66.52387617                0.00010000                4.37933840               22.25052802              -45.92750800              -25.27899368               20.82675232               62.06798644
              20.00114647                0.21974260               66.18865220                0.27630302                9.47439981               23.52586242              -46.21290236              -13.60647650                8.98746253               61.81366592
              10.31850318                7.07068325               68.85073059                1.00000000               -0.23820171               -0.26684057                1.11722693               -0.02132527                0.30154452                0.75440836
              11.31612116                6.62700054               68.44194425                0.51989275               -0.12300861               -0.14094100                0.36776922                0.05324337                0.51787305               -0.36800449
              12.31604301                6.18374214               68.03702344                0.00010000               -0.51791810                0.08091170               -0.41628512                0.28066078                2.09275381               -1.25024373
              13.30576280                5.74366968               67.65991895                0.00010000               -0.69140639               -0.55716593                0.26462531               -1.99807041                6.20795432                1.53145227
              14.30221488                5.26237962               67.35079678                0.00010000                0.66591689               -2.12069325               -2.49322186               -3.84482261                9.66936045                6.70820449
              15.31908114                4.78419606               67.04268228                0.00010000                3.73511591               -5.32182458               -3.77453595               -6.67421007               13.42743358               13.13017233
              16.37691720                4.22633054               66.81740479                0.00010000                5.30889258              -11.01104034               -5.52615433              -16.22674735               21.10731520               21.96000374
              17.42525899                3.52038582               66.68330841                0.00010000                3.46517414               -0.04210489               -7.94848137              -23.98632901               31.66565079               14.97649952
              18.44622068                2.78615318               66.68809673                0.00010000               -0.59056431                5.82935055              -12.43688982              -17.50219547               53.61627901               18.35841252
              19.41344770                2.16202795               66.98678539                0.40859614               -1.56069473               15.76463928               -1.37804931               -5.83362652               34.10070052               33.04347516
              20.41500679                1.65335157               66.60373495                1.00000000                0.15590823               21.78552043               -0.86155946               -4.76441149                0.47853357               31.15504121
              10.76146776                8.06849097               68.72463975                0.90467323               -0.17702082               -0.16901808                0.91769866                0.01106041                0.06104252                0.61677420
              11.75969755                7.62571876               68.30817740                0.36357184               -0.06320143               -0.11882480                0.19268884                0.14096954                0.51306377               -0.56137738
              12.76020373                7.18439984               67.90043493                0.00010000               -0.25687199                0.00321886               -0.54895876               -0.59323898                5.74427435               -1.76216617
              13.75456011                6.72541165               67.58925626                0.00010000                0.06006254               -1.03252816               -1.67447470               -1.88450957               11.02965831                2.37896860
              14.76140498                6.24575532               67.29459439                0.00010000                1.75606220               -1.58388835               -2.96211655               -3.72128011               13.06342300                4.49053387
              15.78968135                5.73091410               67.03758174                0.00010000                3.90692618               -4.25076699               -4.55977430               -7.61213067               16.54705627                8.17587773
              16.83954350                5.15605445               66.82826737                0.00010000                5.16458784               -5.27709947               -6.24226863              -14.59577213               21.59177021               10.01851002
              17.89297311                4.50888230               66.69509494                0.00010000                4.11650773               -1.06819251               -8.29183596              -18.96966853               30.26619819               10.65387965
              18.92187366                3.83888909               66.68242908                0.00010000                1.47792176                3.06464995               -7.84700152              -18.83415132               41.72854946                9.52684839
              19.92253155                3.16462010               66.78047048                0.34217470                0.06686666                0.44511158               -0.72416726               -8.26980669               23.91044500               -0.33533658
              20.92321099                2.65545300               66.39770225                0.98020373                0.06794456                0.42806371               -0.46282570               -0.14746901               -0.10818639                0.16948166
              11.20426880                9.06730289               68.59786316                0.89086385               -0.12371191               -0.10411857                0.71624884                0.00129185                0.02060026                0.58423227
              12.20303168                8.62462405               68.17598247                0.35425257                0.01082721               -0.07017542                0.03363298                0.14900148                0.21902809               -0.41554842
              13.20448534                8.18380652               67.75781071                0.00010000                0.18427254               -0.00098501               -0.60230041               -0.69863988                7.26297579               -1.78527757
              14.20671713                7.72301912               67.47770745                0.00010000                0.89007417                0.10981350               -2.16058293               -2.48728979               14.43421955               -0.18229114
              15.22228683                7.23070185               67.21228493                0.00010000                2.49111323               -1.00441109               -3.63072878               -5.27781432               15.79764970                2.00468367
              16.25653940                6.69918072               66.97384453                0.00010000                4.23733608               -2.42791896               -5.14522890               -8.94997512               18.03374153                4.01612083
              17.30703355                6.12078855               66.77348859                0.00010000                5.32457899               -2.72082387               -6.70172817              -13.09094341               21.33204446                5.50087674
              18.36303097                5.49902197               66.62703005                0.00010000                5.33831551               -1.04252861               -7.94923421              -16.13571940               26.52549785                5.53157348
              19.41379986                4.84744618               66.55785962                0.00010000                3.42283400                0.43159450               -7.50273117              -17.06905240               34.04473999                3.15795456
              20.43148766                4.17093018               66.56832444                0.26856312                0.82958652                0.98033915               -1.06554162               -8.44949241               19.41621886               -0.89917563
              21.43039159                3.66191284               66.18966913                0.88855652               -0.10960663                0.88777311               -0.58738172               -0.20531593                0.01752551               -0.25864393
              11.64685129               10.06640860               68.47139746                0.89757427               -0.06773328               -0.08872022                0.51676663               -0.00244604                0.00178498                0.57561729
              12.64617395                9.62431525               68.04475277                0.38459288                0.04922876                0.01571680               -0.12611328                0.16197399                0.05565254               -0.31634131
              13.64783586                9.18438014               67.61898396                0.00010000                0.58725148                0.13864696               -0.65300138               -0.55396613                7.82536369               -1.37539986
              14.65791898                8.72760792               67.34813535                0.00010000                1.59256165                1.01731311               -2.41106839               -3.09779089               16.11840000               -2.25027355
              15.67968709                8.22566710               67.09778172                0.00010000                3.13380822               -0.16278734               -3.95899798               -6.86011588               17.67820593               -0.76941136
              16.72059515                7.68235572               66.87269118                0.00010000                4.90981451               -1.28102630               -5.64324271               -9.79913471               19.18855738                1.45156548
              17.77788338                7.10163797               66.67451632                0.00010000                6.15029759               -1.58524060               -7.15277155              -12.32510185               20.73585475                2.87295233
              18.84360110                6.48803173               66.50931320                0.00010000                6.53505072               -1.06899699               -8.08957099              -14.17220117               23.44996431                3.09092708
              19.90858440                5.84752098               66.39652768                0.00010000                4.77369661               -0.12509560               -7.66087963              -15.39202634               28.17876234                1.79595944
              20.93907503                5.18422688               66.34364137                0.27208622                1.42774722                1.24476146               -1.35798551               -7.80048994               15.97940731               -0.94357630
              21.93713934                4.67320847               65.96998460                0.88717804               -0.19356882                0.81491954               -0.59476038               -0.14120325                0.09322389               -0.44514167
              12.08840656               11.06552849               68.34502834                0.90310378               -0.01069480               -0.08706104                0.32880804               -0.00570637               -0.00986274                0.55284988
              13.08829962               10.62493838               67.91424472                0.43819434                0.08533972                0.09938610               -0.28523135                0.16428806                0.00280777               -0.23577039
              14.09011336               10.18657946               67.48355237                0.00010000                0.75873705                0.25961928               -0.70109548                0.05201972                7.04283831               -1.01988646
              15.10347436                9.74336538               67.19348883                0.00010000                2.01116751                1.67118019               -1.31969283               -4.32248595               16.50826174               -7.48831184
              16.13033671                9.22744610               66.95435250                0.00010000                4.05557354               -0.00014152               -3.77951751               -8.51954361               19.84778480               -2.65664349
              17.18458583                8.67356019               66.74632458                0.00010000                6.22593949               -0.82127344               -6.09499287              -10.13091368               20.66594634               -0.11503555
              18.25485550                8.08908374               66.54938617                0.00010000                7.45590564               -1.13424175               -7.73435273              -11.46165493               20.52211368                1.59377896
              19.33370394                7.47764203               66.36962666                0.00010000                7.74543416               -1.03164697               -8.52442871              -12.54861929               21.31541598                2.44313087
              20.40976418                6.84494427               66.22292825                0.00010000                5.80432147               -0.48023601               -7.44678213              -13.45321566               24.05663032                1.94409952
              21.44979037                6.19582541               66.11761900                0.33395373                1.99200839                0.83268151               -0.80817319               -6.84733454               13.22236078               -0.40938424
              22.44960435                5.67821124               65.74611578                0.94661011               -0.01860208                0.22427436               -0.19995589               -0.16475045                0.08828715               -0.27032942
              12.52791737               12.06466737               68.21884602                0.90792793                0.04913760               -0.06758254                0.15432647               -0.01982619               -0.01762936                0.51269601
              13.52840874               11.62630297               67.78450926                0.53227512                0.12659451                0.15953992               -0.44733147                0.11447050                0.05953020               -0.12750650
              14.53044926               11.18957253               67.35162330                0.00010000                0.10969368                0.29454225               -0.75745820                0.59555350                2.49436573               -0.58266267
              15.53060262               10.76103152               66.96564422                0.00010000                2.43260759                0.73644081                3.43537231               -5.12986499               16.89972217               -8.61247951
              16.57910141               10.22566427               66.80141771                0.00010000                6.28683082               -0.60967222               -3.63227798               -9.06502280               24.95360292               -3.15221415
              17.65633923                9.66593025               66.60576340                0.00010000                8.27335189               -1.07498892               -6.50026531               -8.93749596               22.02981561               -0.79981263
              18.74456845                9.07895313               66.41061203                0.00010000                9.02144776               -0.95449321               -8.43357154               -9.64764235               20.51518068                1.06287038
              19.83676819                8.46739879               66.21996516                0.00010000                8.83841284               -0.85826792               -9.12043575              -10.54389784               19.80435763                2.27150780
              20.92133671                7.83791626               66.04611503                0.00010000                6.60465908               -0.85460956               -7.09199524              -11.44569549               20.99747851                2.24743986
              21.96886137                7.20088051               65.89688837                0.43337849                2.38679879                0.34417435               -0.36427053               -5.84192958               11.05223067               -0.04189864
              22.96907268                6.67769395               65.52564795                1.00000000                0.02113099               -0.06860429                0.02409545               -0.12947128                0.01894627               -0.01478912
              12.96473884               13.06417684               68.09232148                0.83705432                0.09450354               -0.01820007               -0.01222195               -0.04577169                0.10876179                0.40314233
              13.96568388               12.62812918               67.65616947                0.59209454                0.12785219                0.21224780               -0.64858719                0.02316040                0.33896530               -0.00948343
              14.96729588               12.19247030               67.22459020                0.00010000               -0.04492793                0.29006298               -0.81112921                0.10589811                1.16857050               -0.18914872
              15.96478532               11.75809420               66.80477724                0.00010000                3.84208202               -0.11856564                3.40953829               -5.37720276               17.00841159               -3.99968672
              17.04413752               11.21525266               66.65035882                0.00010000                9.38808613               -2.52904633               -3.41787515               -6.55482042               26.66434526               -2.57071304
              18.15254704               10.65206041               66.46143998                0.00010000               10.81482922               -1.65436677               -6.97243937               -5.62414537               22.49956707               -0.60589225
              19.26043411               10.06999388               66.26450595                0.00010000               10.56579090               -0.96714667               -9.21822664               -5.81282758               19.86331525                0.63852116
              20.36386286                9.46047667               66.06278659                0.00010000                9.34672216               -0.45446536               -9.90964567               -6.89010695               18.05584958                1.63120479
              21.44736855                8.82785208               65.86575973                0.00010000                6.46556135               -0.28891530               -7.21455420               -7.81322441               18.00463986                1.90527220
              22.49317408                8.20270890               65.67796061                0.51453853                2.30097415                0.13556957               -0.20931132               -5.01497239                9.13973365                0.03044870
              23.49338803                7.67683915               65.30705982                1.00000000                0.02139500               -0.05109018                0.02078339               -0.04133121               -0.00035556                0.05901348
              13.39909725               14.06430337               67.96442362                0.90876229                0.14812408                0.01265367               -0.17855609                0.06029635                0.37620515                0.30338076
              14.40057849               13.63054793               67.52831698                0.83577985                0.17524802                0.24187496               -0.88738041                0.04298172                0.70825713                0.08266188
              15.40260221               13.19537378               67.09874920                0.61805043               -0.01511401                0.29034824               -0.94668425               -0.06375395                1.66475744               -0.00206206
              16.40027621               12.75866021               66.68129034                0.36551874                7.57182893                0.05660107                3.43146980               -7.46543331               19.29844902               -4.28508557
              17.55403878               12.17508334               66.51577728                0.36077795               14.44194505               -4.01693200               -3.78943796               -5.30073862               25.38340263               -0.95574793
              18.68911511               11.63284291               66.31986540                0.36418635               13.29284270               -1.92175007               -7.51550407               -2.11685005               20.69547926               -0.31110423
              19.81989564               11.05961020               66.11144170                0.37552934               12.59963731               -1.03836773              -10.11321992               -2.78051840               17.27756161                0.39091928
              20.94110785               10.45830948               65.89279203                0.39524055               10.14721761               -0.21671875              -11.05410593               -3.64911268               14.81389380                0.93946561
              22.02283999                9.83213795               65.67476785                0.42361913                3.92334974                0.42858795               -8.29336376               -5.18873510               14.49993613                1.23453142
              23.01957485                9.20359190               65.45903688                0.75990176               -0.14272210                0.08830054               -0.25711680               -5.13321378                7.74809878                0.02509295
              24.01998555                8.67667215               65.08830701                1.00000000                0.04107006               -0.01669992               -0.09001892               -0.03222359               -0.00482464                0.04233567
               9.38083548                4.21525185               70.23927623                1.00000000               -0.37003614               -0.44540026                1.56162280               -0.13332949               -0.41953991                0.53884609
              10.37713512                3.76089515               69.83116396                1.00000000               -0.27501613               -0.23746643                0.88538534               -0.10256854               -0.50717984                0.06662064
              11.37533516                3.30603613               69.42062976                1.00000000               -0.08538621               -0.03588609                0.21938834               -0.10208943               -0.51750093               -0.06981090
              12.37542739                2.85030136               69.01222794                0.60400974                0.05480825                0.18124079               -0.46093476               -0.17734642               -0.42732298               -0.43910705
              13.37643132                2.39237634               68.60395720                0.46942945                0.18870669                0.43455030               -1.18415325               -0.22605106               -0.26884488               -0.28657320
              14.37920153                1.93212432               68.19952593                0.23911088               -0.15735660                0.65898728               -1.95262867               -0.87132576                0.49482052               -0.59292712
              15.37328419                1.45738594               67.80795650                0.00010000              -10.88852376                1.40592985               -2.60127830              -20.06399270               13.31883797               -1.67930284
              16.16143105                0.59128954               67.66724305                0.00010000              -11.56311877                4.25348116               -4.19354013              -20.19029958               23.13638831                3.14135131
              17.14202181               -0.27096770               67.43848968                0.00010000                7.06943357                2.01244032               -3.91755928              -16.83669047               15.82221425                7.33588274
              18.30281972               -1.12933737               67.13067114                1.00000000                8.31577275                0.78565124               -1.65905430              -16.46996752                5.67765706                0.02809535
              19.30833727               -1.66664602               66.70884791                1.00000000                0.55175456                0.96486162               -2.20261612                0.23795904               -0.09366396               -0.09237082
               9.83385889                5.21079785               70.11148830                1.00000000               -0.31415973               -0.41234877                1.38571854               -0.02748224                0.03211858                0.76015123
              10.83071729                4.75852048               69.70317593                1.00000000               -0.21238662               -0.21339433                0.70956525                0.00039256                0.10684839                0.09640703
              11.82961116                4.30567727               69.29576962                1.00000000               -0.01167339               -0.01277561                0.03793544                0.00248907                0.13819579               -0.26491957
              12.83048382                3.85211377               68.88811009                0.60859385                0.18240865                0.19851386               -0.63666219               -0.04735367                0.35392751               -0.43326071
              13.83325933                3.39672185               68.48562388                0.55216629                0.37498228                0.42708884               -1.40290342               -0.07612449                0.50801101               -0.29167592
              14.83798347                2.93871419               68.08219527                0.34050863                0.49011610                0.65478599               -2.16629400               -0.45122622                0.73106331               -0.51969403
              15.84306165                2.47144524               67.68612370                0.00010000               -0.71392948                1.07873436               -2.95371983              -18.54676990               15.39100883               -0.93874811
              16.82370488                1.63382435               67.57934480                0.00010000               -0.45466433                1.61183900               -5.23910528              -27.76093702               25.06379033                6.56308446
              17.83396836                0.74915670               67.37044593                0.00010000                0.61271641                4.74450615               -9.23153124              -28.55319223               10.36656790               13.90266302
              18.83595921               -0.12148086               66.95962963                0.07498524                0.70285746               12.62957585               -3.65927255              -18.73517909                0.57712208               18.28408104
              19.84802551               -0.65699741               66.53779491                1.00000000                1.20663058               12.13446360               -4.19833687               -0.99402819                0.09732966               20.65884882
              10.28484057                6.20700488               69.98722178                1.00000000               -0.25770213               -0.33791304                1.19721179               -0.02909320                0.18631064                0.89024338
              11.28226354                5.75662726               69.57544782                1.00000000               -0.15244563               -0.16724465                0.52936235               -0.00213195                0.38955464                0.01316752
              12.28179165                5.30578062               69.16722240                0.00010000                0.05860998                0.04142196               -0.14279824               -0.00729021                0.86267863               -0.72890186
              13.28343574                4.85427164               68.76500840                0.00010000                0.32583748               -0.52140070               -0.80328889               -0.84064820                1.43852253                0.90570790
              14.28830840                4.40091812               68.36886552                0.00010000                0.60089307               -0.96347435               -1.58903198               -1.47786854                1.46925515                3.41852777
              15.29545361                3.94522004               67.96879469                0.00010000                0.94651133               -2.22602304               -2.34938947               -1.82996458                1.67678372                7.13065755
              16.30723863                3.47896063               67.57905451                0.00010000                1.65236238               -6.66472391               -3.12067997              -19.74678052               21.30327096               14.23066209
              17.32850085                2.62352632               67.57416166                0.00010000                0.95122743                0.24644056               -7.03453607              -33.63409625               33.91029062               12.10110806
              18.32626318                1.82392242               67.45464014                0.00010000                0.28846969                8.37871530              -12.22034860              -25.89699995               20.35478223               20.13090034
              19.33427025                1.12325415               67.15336927                0.00010000                1.66133136               23.97571585              -39.92953918              -14.42077025                9.70736953               62.68475850
              20.35948981                0.57604325               66.78153652                0.06877977                2.52195583               25.66389901              -46.78990043               -6.95426098                3.15586341               68.86502837
              10.73403226                7.20403959               69.86136243                1.00000000               -0.21333488               -0.25621213                1.01026229               -0.02271135                0.29801348                0.72277904
              11.73189891                6.75517559               69.44555954                0.50187088               -0.11056398               -0.12966934                0.35409592                0.03552415                0.50203028               -0.36557406
              12.73182098                6.30650571               69.03335483                0.00010000               -0.66827739                0.08226059               -0.31415829               -0.73050412                3.05444676               -1.21620898
              13.71853336                5.84168575               68.66873678                0.00010000               -0.95337118               -0.70143422                0.17948535               -2.08952266                6.35017242                1.33962120
              14.71275355                5.37745236               68.32637608                0.00010000                0.24041534               -2.04965262               -2.12920917               -3.25207002                8.42955541                6.35607883
              15.72334167                4.89419373               68.00680864                0.00010000                2.85331026               -4.90735044               -3.34498710               -7.18485920               12.73596906               12.31549313
              16.76981976                4.33815076               67.76299056                0.00010000                4.13597497              -10.09979578               -5.17995175              -16.76228963               19.44059255               20.49948386
              17.80606116                3.63875317               67.59856239                0.00010000                2.32403903                0.89294968               -8.24989318              -24.37756133               27.46964240               13.22375560
              18.81630054                2.91673101               67.54336968                0.00010000               -0.53190962                8.52038513              -15.91667554              -15.78678768               54.11464287               18.40739304
              19.79542297                2.35803346               67.96344682                0.20698976               -0.64692231               12.29453015              -12.27429724               -4.61273394               39.42782165               44.14714624
              20.80336209                1.85628057               67.58901603                0.79677853                0.79391194               14.36202788               -7.32637547               -2.96715961                2.47201953               46.33346963
              11.18211434                8.20188063               69.73339273                0.90706554               -0.16064316               -0.17597901                0.83377657               -0.00050791                0.05185360                0.58742214
              12.18050790                7.75403387               69.31008191                0.34610705               -0.07214637               -0.10245479                0.18708742                0.11308569                0.50388735               -0.54581161
              13.18067141                7.30742583               68.89548324                0.00010000               -0.49046309                0.05655915               -0.45209014               -0.79766098                5.48248018               -1.66644421
              14.17069864                6.84024295               68.57237395                0.00010000               -0.49561933               -0.01471288               -1.52294173               -1.94428227               10.57707819                1.16453448
              15.17075902                6.35992507               68.26685090                0.00010000                1.01796872               -1.45700167               -2.60451288               -3.53598505               12.50440883                4.07259469
              16.19105802                5.84707303               67.99351277                0.00010000                2.83371911               -3.66600869               -4.13592415               -7.40524236               15.63157898                7.45001451
              17.22743340                5.27696472               67.76639101                0.00010000                3.56556840               -4.32250194               -5.98899710              -14.11587297               19.92976166                9.16187027
              18.26236938                4.64138532               67.60554721                0.00010000                3.19068623                0.32742960               -8.76589259              -17.90563218               28.27598038               10.08669688
              19.29124713                3.99433012               67.58569053                0.00010000                2.00483078                5.19120236              -12.75228005              -15.77136607               43.55213360               10.82739347
              20.30246600                3.36914475               67.77149723                0.17229541                0.62026296                1.12901886               -4.37232624               -5.95901521               26.96458036               -1.99297370
              21.30365239                2.86328381               67.39274831                0.79473086                0.11863873                0.84180922               -1.81179269               -0.33553597               -0.39466983               -1.55030311
              11.62971562                9.20052001               69.60475003                0.89607028               -0.11001966               -0.12681845                0.66242878               -0.01200013                0.01462836                0.55912297
              12.62861542                8.75312649               69.17631094                0.33173926               -0.00284696               -0.05517942                0.02979174                0.13501636                0.24381529               -0.39856713
              13.62965868                8.30763689               68.75218166                0.00010000               -0.07334716                0.05451849               -0.54074868               -0.74096782                6.90033500               -1.69536592
              14.62714848                7.84139149               68.45760836                0.00010000                0.27725460                0.23988948               -1.83459791               -2.35286683               13.68999735               -0.41954567
              15.63520377                7.34831233               68.17803208                0.00010000                1.55243461               -0.75216585               -3.16527850               -4.70347016               15.04884793                1.43519445
              16.65819717                6.82087356               67.92442504                0.00010000                2.89931214               -1.89109525               -4.65106890               -8.09717775               17.10021013                3.34679122
              17.69319001                6.25170073               67.70709202                0.00010000                3.61929721               -1.77452341               -6.40695771              -11.87078835               20.02561953                4.77606769
              18.73058311                5.64530176               67.54291285                0.00010000                3.99618838                0.27445229               -8.47591014              -14.12629312               24.99296147                5.32243158
              19.77311378                5.02055505               67.46603989                0.00010000                3.83529346                1.95930222              -10.78419793              -14.84984414               35.54665156                2.71046240
              20.80728898                4.38061384               67.55360622                0.11437751                1.76297405                1.54471594               -7.64592299               -7.10230362               21.98151823               -0.75636495
              21.80837326                3.87311676               67.18243147                0.72290142                0.10842782                1.34557962               -3.53698577               -0.41765966                1.48713712               -0.98595407
              12.07666136               10.19934426               69.47649270                0.90649937               -0.05700162               -0.11776454                0.49885989               -0.02115993               -0.00505830                0.56992603
              13.07609134                9.75293028               69.04344280                0.35155113                0.04628451                0.02191782               -0.13767589                0.13269509                0.11327368               -0.31344634
              14.07758705                9.30851620               68.61255094                0.00010000                0.34372644                0.15218144               -0.65070783               -0.67993211                7.47168925               -1.33164163
              15.08296587                8.84504074               68.32699449                0.00010000                0.98102514                0.59964617               -1.91165162               -2.70270252               15.26888190               -2.18606208
              16.09720755                8.34488175               68.06098541                0.00010000                2.13800943               -0.14357252               -3.35162334               -5.67862057               16.74414637               -0.98707544
              17.12572606                7.80925113               67.81927975                0.00010000                3.41909421               -0.81571058               -4.98541916               -8.31782195               18.09445123                0.78561349
              18.16558944                7.24147425               67.60466980                0.00010000                4.26315663               -0.75619519               -6.67028301              -10.47588007               19.52725131                2.14487802
              19.21098919                6.64687436               67.42668307                0.00010000                4.66743632                0.10602795               -8.29662151              -11.78732972               21.92936567                2.59539197
              20.25893816                6.03351617               67.30411626                0.00010000                4.84345142                1.03832730               -9.78743427              -12.77426449               29.39662975                1.72061471
              21.30785822                5.40003907               67.32399362                0.11596979                2.56775953                1.70450644              -10.32627383               -6.68010224               18.23157627                0.00444820
              22.31029335                4.89019540               66.96176544                0.72234272                0.24351321                1.19009400               -6.33091635               -0.40298175                3.58710257               -0.29758584
              12.52212038               11.19816472               69.34846499                0.91191622               -0.00229936               -0.11265503                0.34680060               -0.03394577               -0.01214786                0.58001942
              13.52209738               10.75356485               68.91121043                0.38469543                0.09146009                0.09978385               -0.31976495                0.10724634                0.10722895               -0.25450207
              14.52394958               10.31068052               68.47618972                0.00010000                0.73157469                0.26548682               -0.78986669               -0.49316006                7.12840156               -1.01786306
              15.53672888                9.85338442               68.17934223                0.00010000                1.67356963                0.43881998               -1.19117267               -2.82855543               15.82917849               -4.25006246
              16.55742097                9.34544088               67.92180502                0.00010000                2.92596778               -0.08327750               -2.96658593               -6.43906310               18.43354300               -2.87260825
              17.59524823                8.80455935               67.68957471                0.00010000                4.43141016               -0.47979321               -5.18385845               -8.05772124               19.07842335               -0.69450767
              18.64604918                8.23657682               67.47562229                0.00010000                5.37731830               -0.42394911               -6.95250200               -9.18811231               19.11858518                0.86814390
              19.70279460                7.64742232               67.28456876                0.00010000                5.92073029               -0.04650806               -8.33278768               -9.88102333               20.02833723                1.81623095
              20.76446378                7.04132160               67.13693168                0.00010000                5.71065531                0.41519314               -9.42852504              -10.30639338               25.61179846                2.63517997
              21.81700771                6.41470397               67.10654728                0.15569502                2.77685936                1.01950152               -6.60895079               -5.73947276               15.26657910                0.38133253
              22.82000097                5.89691864               66.74292950                0.76314707                0.29932629                0.33203570               -3.13612960               -0.35894584                1.68931366               -0.09466963
              12.96518218               12.19709116               69.22074808                0.91736850                0.05382862               -0.08648094                0.20396856               -0.05605386               -0.00445376                0.57594118
              13.96572047               11.75492596               68.77955226                0.44432010                0.13610516                0.17300696               -0.53033668                0.05006770                0.23401288               -0.19123918
              14.96790428               11.31382594               68.34303883                0.00010000                1.29569732                0.35276867               -0.97821611               -0.84156323                6.17109022               -0.60232827
              15.99163441               10.85381714               68.02042056                0.00010000                2.46735399               -0.59451395                3.01294902               -2.88895056               16.45822285               -5.12710060
              17.01725136               10.34321620               67.76824418                0.00010000                4.09006398               -0.78008078               -2.55279927               -5.81295904               20.36788113               -3.34559776
              18.07343569                9.79965526               67.54689654                0.00010000                6.08564302               -0.69672652               -5.31228100               -6.73494526               20.08970440               -1.21333028
              19.13896422                9.23299527               67.33206004                0.00010000                6.75941296               -0.39795881               -7.27792456               -7.32655192               18.73835333                0.44946997
              20.20862395                8.64594420               67.13082964                0.00010000                7.32822119               -0.11774222               -8.53094325               -7.96761393               18.88738874                1.81454271
              21.28552865                8.04182003               66.96968088                0.00010000                6.44238892               -0.21472058               -9.07589492               -8.77555211               22.96358936                3.21091415
              22.33747173                7.42042910               66.89235263                0.22794236                2.65782251                0.39314594               -2.39971769               -4.97363683               13.46885740                0.47069444
              23.33868510                6.89683611               66.52558372                0.83710959                0.12133674               -0.03548128               -0.53728975               -0.20922933               -0.00957852                0.00115594
              13.40532971               13.19643510               69.09278299                0.84233596                0.10342580               -0.04075298                0.06883988               -0.07198706                0.10288835                0.48690462
              14.40636396               12.75702499               68.64863749                0.44480650                0.14487156                0.25970273               -0.80901370               -0.01453653                0.62297819               -0.12497579
              15.40822714               12.31773590               68.21471999                0.00010000                2.15978207                0.41446583               -1.15234144               -1.84888986                5.69360572               -0.21777436
              16.44955961               11.84149414               67.87193097                0.00010000                4.35482664               -2.75577445                4.11107398               -2.14658770               16.86552432               -3.45583628
              17.49532367               11.32983926               67.61935936                0.00010000                6.06053296               -1.72160047               -2.21140244               -3.44247844               21.32670169               -2.50168830
              18.57077026               10.79062482               67.39963900                0.00010000                7.89527647               -1.27551268               -5.44892883               -3.86576591               20.01449425               -0.83661863
              19.65322920               10.22861765               67.18057102                0.00010000                8.19236463               -0.57523811               -7.61602377               -4.25843998               17.71076494                0.26137055
              20.73461756                9.64506747               66.96889560                0.00010000                8.06193200               -0.07220061               -8.80936444               -5.15285758               17.33223405                1.43566260
              21.81446784                9.03702719               66.79324599                0.00010000                6.39506645                0.05073338               -8.72317321               -6.36163679               20.37621119                2.66135865
              22.86251889                8.42256689               66.67565071                0.30221872                2.42672594                0.16768347               -0.79761350               -4.43811354               12.04400306                0.43824790
              23.86300236                7.89620901               66.30727002                0.90660528                0.04834719               -0.03501577               -0.05122215               -0.06263245               -0.25142293                0.02366668
              13.84256266               14.19627610               68.96339234                0.90990885                0.15662807               -0.01589936               -0.06738466                0.10768615                0.35786349                0.40021159
              14.84412894               13.76012002               68.51798966                0.73789076                0.19473399                0.30950271               -1.10048235                0.06845477                1.11068171               -0.07598990
              15.84645734               13.32211526               68.08748561                0.51931912                4.62351787                0.43793588               -1.28130362               -4.24789843                6.47771444               -0.01385834
              16.93659929               12.79870165               67.75058069                0.36528015                7.64068898               -4.27924874                3.62988945               -1.96258436               18.63963843               -3.22826724
              17.99927111               12.30878419               67.48133329                0.36082826                8.03713471               -2.10550688               -2.32185140               -0.83308761               19.71215614               -0.79715409
              19.09734199               11.77414501               67.25431822                0.36398319               10.00408262               -1.64798080               -5.64836924               -1.70751208               17.98051017               -0.23564452
              20.19935277               11.22149050               67.02174768                0.37457226                9.99076346               -0.71271423               -7.85959574               -1.86988421               14.70337252                0.34749832
              21.29715726               10.64450019               66.79162084                0.39315733                9.07218645               -0.05672836               -9.11913182               -2.67882031               13.68201166                1.09484150
              22.38079650               10.04283470               66.59509969                0.42043756                4.61851881                0.58075100               -9.19923540               -4.40300518               17.17586964                2.18135167
              23.38952763                9.42378277               66.45639733                0.66194800                0.46758489                0.12158847               -0.76921388               -4.63407027               11.36393855                0.54703977
              24.39014819                8.89613580               66.08757495                0.96019569                0.06205610               -0.00732143               -0.20858429               -0.05011365                0.02533225                0.03701836
               9.78821305                4.34922198               71.25408238                1.00000000               -0.33667792               -0.40045136                1.40069364               -0.11399137               -0.40573894                0.52356714
              10.78484627                3.89040830               70.83969967                1.00000000               -0.25627679               -0.22099932                0.82231866               -0.08551519               -0.48910639                0.06305536
              11.78308751                3.43112428               70.42298624                1.00000000               -0.09496188               -0.04690904                0.25163503               -0.08588031               -0.50104576               -0.06697851
              12.78294703                2.97101710               70.00827805                0.60857705                0.02296201                0.13760449               -0.33016102               -0.15672890               -0.43446680               -0.41813142
              13.78354675                2.50889300               69.59335523                0.46684345                0.13367943                0.35201067               -0.94068090               -0.20478867               -0.31537296               -0.29464392
              14.78562062                2.04464311               69.18183220                0.22184239               -0.37919900                0.53639733               -1.59285563               -0.98581847                0.49294300               -0.58315555
              15.77596277                1.56352035               68.78442182                0.00010000              -10.20381675                1.41898476               -2.10401846              -18.94618501               12.94309181               -1.81397686
              16.58154429                0.71400649               68.62940436                0.00010000              -10.00196658                3.60073304               -3.34782183              -18.65328173               23.51632831                2.93461048
              17.57592344               -0.12185853               68.40231222                0.00010000                7.28673415                0.12971087               -3.30964639              -16.34864156               17.93384552                4.07283636
              18.72727897               -0.94815772               68.11490245                1.00000000                7.80005537                0.81586073               -1.50427058              -14.89810144                6.93295235                0.04334718
              19.73192455               -1.48658572               67.68775073                1.00000000                0.46455807                0.99084123               -1.99801932                0.32303670               -0.05135769               -0.05501273
              10.24588682                5.34521747               71.12461821                1.00000000               -0.28468491               -0.37317328                1.24105133               -0.02242041                0.03396162                0.73865003
              11.24303997                4.88819831               70.71003679                1.00000000               -0.19812531               -0.19954883                0.66280400                0.00367430                0.11033177                0.09036654
              12.24192431                4.43065519               70.29639624                1.00000000               -0.02722913               -0.02529624                0.08757730                0.00299842                0.14369270               -0.26144565
              13.24249539                3.97239314               69.88249556                0.63478880                0.13807750                0.15126667               -0.48715362               -0.04513943                0.31886656               -0.40657448
              14.24468586                3.51241310               69.47295492                0.56855443                0.29766865                0.34472682               -1.13399096               -0.07531006                0.43248799               -0.28207008
              15.24844876                3.05000708               69.06248411                0.33894821                0.35666863                0.53536274               -1.78146064               -0.49301798                0.64356333               -0.49512619
              16.25181923                2.57771020               68.65904192                0.00010000               -0.53739244                1.02506435               -2.46724709              -17.74946864               14.48898908               -0.95998127
              17.23770091                1.75001382               68.52875677                0.00010000               -0.41500507                0.92612417               -4.78739250              -27.23367042               23.00300362                5.79723078
              18.24351913                0.87943858               68.28385911                0.00010000                1.14803199                3.69274307               -7.20188372              -26.22443207               11.65396237               11.40761844
              19.26066155                0.06000088               67.92202833                0.23221157                1.50318912                2.36815050               -3.80591059              -15.48706865                3.33011989               -0.22623849
              20.27358292               -0.47667731               67.49491775                1.00000000                1.29213651                1.62038815               -4.33233012                0.13241460                0.05125707               -2.61294221
              10.70180297                6.34175852               70.99856176                1.00000000               -0.23209308               -0.31247944                1.07154601               -0.02499841                0.18321214                0.86448084
              11.69948203                5.88641732               70.58059582                1.00000000               -0.14251592               -0.15716675                0.50030876               -0.00053817                0.38394860                0.00615592
              12.69895265                5.43061836               70.16614181                0.00010000                0.04021492                0.02509666               -0.07439118               -0.01722520                0.86034248               -0.71674571
              13.70028633                4.97404243               69.75780750                0.00010000                0.27369837               -0.46482962               -0.63582713               -0.87906066                1.38383777                1.11713135
              14.70442661                4.51578753               69.35443055                0.00010000                0.50884170               -1.04486458               -1.30072503               -1.53219045                1.37059668                3.34623653
              15.71046317                4.05535036               68.94730623                0.00010000                0.82700257               -2.21096219               -1.95132931               -2.15143047                1.58020625                6.78171621
              16.72096667                3.58402164               68.55031097                0.00010000                1.23396669               -6.43632439               -2.63768701              -20.03326608               19.37273328               13.36023651
              17.73514250                2.73252897               68.50141422                0.00010000                1.02405359                0.17307825               -6.57546554              -33.77267543               31.05745327               11.09211902
              18.74144774                1.95199633               68.34159952                0.00010000                1.92554920                7.19060361              -12.90156795              -35.66068598                4.30900547               16.67821825
              19.77365348                1.09920529               67.72528539                0.00010000                3.32407461               18.34210140              -26.15417256              -25.52390276               -9.45890866               47.86400905
              20.80792923                0.54582204               67.25285419                0.12673889                3.42757452               22.27432383              -29.42455600               -8.35203253               -3.45860117               55.49100692
              11.15606924                7.33896788               70.87093584                1.00000000               -0.18998704               -0.24533562                0.90446307               -0.02511545                0.29217603                0.70578020
              12.15416937                6.88505497               70.44902617                0.47687582               -0.10572678               -0.11831000                0.34027596                0.01959979                0.49566322               -0.36838173
              13.15395470                6.43115713               70.03074027                0.00010000               -0.72121842                0.08128824               -0.21944494               -0.66748890                3.21823667               -1.19068782
              14.13974500                5.96309655               69.66350865                0.00010000               -1.06102898               -0.71058391               -0.63154905               -2.25968140                6.30002498                2.16391914
              15.13273412                5.49151581               69.30821260                0.00010000               -0.12794761               -2.01181596               -1.69507712               -3.56904972                7.95714294                5.94589869
              16.13718605                5.00578784               68.97578254                0.00010000                2.06205923               -4.65261869               -2.87070494               -7.51112260               12.25744972               11.60850583
              17.17397531                4.44898371               68.71380576                0.00010000                2.85433331               -9.44156261               -4.64576355              -17.35874075               18.49476433               19.08068213
              18.19427271                3.75347538               68.51831054                0.00010000               -0.51731028                1.68684040               -7.91961134              -26.08411817               23.42737281               12.42702122
              19.16362910                3.02325065               68.36976322                0.00010000               -1.89574631                9.03852121              -14.90282889              -22.05569503               49.02354493               15.52695819
              20.15635779                2.42684291               68.74129945                0.05981702                2.48398282               21.76979677              -47.80011428               -8.66647975               44.82103589               52.44392199
              21.21330876                1.96880917               68.45720744                0.65106449                5.69509712               24.26047350              -50.05108744               -2.55906495               22.67386425               56.67527823
              11.60912647                8.33685181               70.74131528                0.91112064               -0.14416862               -0.17912509                0.74980055               -0.01155219                0.04170287                0.58466701
              12.60768479                7.88405112               70.31191915                0.32235913               -0.07825907               -0.08815808                0.18046156                0.08496535                0.50155604               -0.54458822
              13.60756129                7.43224412               69.89139313                0.00010000               -0.64753841                0.08371849               -0.37042989               -0.84902229                5.31863678               -1.63462969
              14.59473402                6.95983075               69.55879743                0.00010000               -0.86034792               -0.15444432               -1.21281388               -2.08856211               10.32439528                0.89620019
              15.59035433                6.47555122               69.24250413                0.00010000                0.40193989               -1.31222957               -2.27003325               -3.69098895               12.26151505                3.65640787
              16.60277282                5.96229799               68.95486325                0.00010000                1.78749867               -3.27191352               -3.65635888               -7.40316087               15.20428234                6.76669990
              17.62610431                5.39519039               68.70848743                0.00010000                1.82101919               -3.54762951               -5.54282029              -14.04746922               19.28263737                8.28880454
              18.63919320                4.76626578               68.51977708                0.00010000                0.04310022                1.54296757               -8.62696727              -17.63770030               25.60357183                9.25920232
              19.62696631                4.13276675               68.42738348                0.00010000                0.77860868                7.99895267              -15.49910663              -14.06270741               46.07180982               11.16214100
              20.65476537                3.53460122               68.69302395                0.01830577                2.29245554                8.82317897              -29.36388466               -5.16832931               36.22138440               -0.85470912
              21.67281542                3.03103151               68.36146640                0.62436970                1.80500478                5.21837364              -26.17208761               -0.89821642               13.90994369               -1.49832648
              12.06143955                9.33538538               70.61111174                0.90360711               -0.09631985               -0.13798234                0.60404362               -0.02318429                0.00776868                0.57478700
              13.06047636                8.88329181               70.17657830                0.30392292               -0.01224644               -0.04521434                0.02603656                0.10712569                0.26850111               -0.40569854
              14.06119463                8.43283150               69.74699574                0.00010000               -0.29048463                0.07475628               -0.50007655               -0.85637397                6.66854838               -1.70107521
              15.05466666                7.96000767               69.44101549                0.00010000               -0.23737601                0.11610244               -1.51111743               -2.37160701               13.22537809               -0.52644431
              16.05644711                7.46527122               69.14897936                0.00010000                0.74084963               -0.66992840               -2.69409087               -4.38638327               14.63072184                1.10674698
              17.06948366                6.94034957               68.88082316                0.00010000                1.63055134               -1.46898381               -4.13748557               -7.56065650               16.69573732                2.75701112
              18.08905813                6.37803112               68.64534944                0.00010000                1.72293412               -0.95925605               -5.97761483              -11.05470257               19.57731150                4.02146171
              19.10394234                5.78433474               68.45751185                0.00010000                1.24906893                1.60089388               -8.68904026              -12.56263307               24.07822456                4.51402885
              20.11403951                5.18322970               68.34217566                0.00010000                2.53920523                3.91373651              -12.92020652              -10.43940536               35.03448278                3.80179021
              21.15472644                4.60330649               68.41540598                0.00010000                4.42221695                4.83867851              -24.45277079               -5.93805307               26.86290268               -7.83951242
              22.20248385                4.07317664               68.11892941                0.57542975                4.77574070                3.78636014              -22.15755277                0.01313145               14.82701238               -5.72308279
              12.51284992               10.33409216               70.48137465                0.91552035               -0.04687380               -0.12559392                0.46559635               -0.03287312               -0.00940198                0.61253024
              13.51238118                9.88314684               70.04199925                0.31676712                0.04340181                0.02235361               -0.14431546                0.09450986                0.16723909               -0.34354508
              14.51371796                9.43373925               69.60596980                0.00010000                0.12404841                0.14514090               -0.66410411               -0.88195359                7.31674206               -1.39957445
              15.51486215                8.96215280               69.30990232                0.00010000                0.42834027                0.24651953               -1.56069658               -2.59053169               14.78101747               -1.79032128
              16.52228476                8.46215265               69.03074925                0.00010000                1.19688167               -0.12680239               -2.80962155               -4.84532528               16.11432201               -0.97390811
              17.53879978                7.93291832               68.77298280                0.00010000                1.93701623               -0.41481634               -4.36707592               -7.16470042               17.49964347                0.30545448
              18.56102509                7.37600527               68.54111066                0.00010000                2.19710857                0.05126275               -6.15519842               -9.07298168               19.10653952                1.35209500
              19.58274196                6.79828366               68.34338077                0.00010000                1.90906800                1.27426693               -8.32691973               -9.79724135               21.78702757                1.76340716
              20.59920645                6.21104148               68.20077899                0.00010000                3.16577095                2.44267682              -11.50452171               -9.04633733               26.76860649                1.40265550
              21.64605738                5.63137479               68.13711590                0.00010000                6.70656525                1.58932781              -22.01531546               -5.49425427               19.52292674               -0.19248634
              22.73333775                5.10675871               67.84336627                0.57212811                8.72803772                1.96614595              -20.42726692               -2.05449172               13.01108443               -0.33664620
              12.96267273               11.33287350               70.35196435                0.92222668                0.00467300               -0.11119767                0.33307818               -0.04496125               -0.01068357                0.65441138
              13.96271946               10.88373888               69.90784942                0.33663133                0.09384277                0.09521471               -0.33545284                0.06389400                0.19598072               -0.31891228
              14.96454959               10.43573431               69.46775504                0.00010000                0.58615836                0.26282231               -0.87941899               -0.97580141                7.49214271               -1.15610167
              15.97444263                9.96493806               69.16966538                0.00010000                1.21127496                0.18739829               -1.10237948               -2.66497836               15.41317976               -2.72273798
              16.98877509                9.46273517               68.89502078                0.00010000                1.89471989               -0.04773372               -2.53957002               -4.75932615               17.10200696               -2.25608913
              18.01233703                8.93205324               68.64264741                0.00010000                2.67290337               -0.06594825               -4.38541590               -6.40805624               18.00023422               -1.08426642
              19.04223316                8.37905638               68.41033613                0.00010000                3.03121319                0.34942657               -6.21927966               -7.39279206               18.50893719                0.04688008
              20.07296129                7.80982007               68.20297091                0.00010000                2.88942375                1.05395695               -8.12212901               -7.64099839               19.59079923                0.86600257
              21.10002163                7.23208324               68.03435774                0.00010000                3.80814180                1.73893735              -10.67882909               -7.74239842               25.23621565                1.16037676
              22.14912413                6.63509305               67.98543998                0.00010000                5.53022706                0.49080887              -18.96709358               -4.16526888               18.73006285                7.54550586
              23.21062617                6.11249956               67.68339318                0.58977383                6.15020432                0.33089218              -17.27893152               -3.80529026               11.30463297                5.84251003
              13.41021993               12.33186821               70.22292539                0.92773301                0.05783206               -0.08014206                0.20194453               -0.06096391               -0.00076059                0.67917842
              14.41079825               11.88505113               69.77390253                0.37059075                0.13914135                0.17266871               -0.56021278                0.03072304                0.36025314               -0.31713999
              15.41300276               11.43899569               69.33205898                0.00010000                1.18817367                0.39668568               -1.17794038               -1.29127169                7.50552763               -0.77855147
              16.43456172               10.96590077               69.02590320                0.00010000                2.34901480               -0.30603549               -0.18793502               -2.73919586               15.46079265               -2.57388036
              17.45998305               10.46119797               68.75036172                0.00010000                2.98778663               -0.53026976               -1.90798552               -4.00564914               17.85297331               -2.50158687
              18.49431746                9.93159935               68.49951778                0.00010000                3.77096803               -0.20734403               -4.31281376               -4.94579721               18.20067675               -1.46776910
              19.53540241                9.38299380               68.26505354                0.00010000                4.12888345                0.32386399               -6.25471693               -5.45384512               17.82952787               -0.32805277
              20.57689513                8.81936280               68.04934630                0.00010000                4.18415462                0.92893241               -8.04096250               -5.61511435               17.89919296                0.84592525
              21.61908551                8.24582023               67.86459714                0.00010000                5.27202766                1.17885989              -10.21627457               -6.50278926               24.93347258                2.18803559
              22.68233568                7.64119097               67.84889402                0.02876105                4.16667091                0.61680507              -15.87661122               -3.07688423               17.65973282                7.14470913
              23.70241892                7.11337656               67.51490216                0.62560561                2.00832457                0.14108484              -13.80281040               -2.05670212                7.37797362                4.90959507
              13.85508760               13.33127066               70.09369827                0.84820755                0.11188335               -0.03896597                0.07348426               -0.06584278                0.07057316                0.61411436
              14.85620644               12.88719226               69.63998920                0.33068867                0.13934582                0.26363241               -0.83855711                0.01489837                0.83609017               -0.31399719
              15.85787452               12.44366803               69.20154337                0.00010000                2.06249999                0.52848359               -1.42973461               -2.09060985                7.79410561               -0.37707865
              16.89745644               11.95881735               68.88699872                0.00010000                4.25445028               -1.45526726                0.30130306               -2.34393373               15.20641431               -1.48814138
              17.94296352               11.45212978               68.60613077                0.00010000                4.70844121               -1.30027929               -1.52821387               -2.31748318               17.72097993               -1.61437870
              18.99162526               10.92790636               68.35246140                0.00010000                5.12146409               -0.64138832               -4.18537507               -2.63013255               17.64077215               -1.04808282
              20.04539281               10.38553366               68.11218548                0.00010000                5.31036557                0.06065311               -6.21216158               -2.91247928               16.50642201               -0.26665320
              21.09783257                9.82839872               67.88659930                0.00010000                5.13724336                0.76965183               -7.91726910               -3.26861373               16.08950426                0.68934868
              22.14813767                9.25566044               67.69129627                0.00010000                6.10987737                1.31186751               -9.87444486               -4.92370941               23.05915510                2.36775134
              23.22003012                8.64742915               67.66200834                0.07050379                3.84916399                0.59242348              -13.15020253               -3.41482496               15.24735076                4.93681447
              24.22512095                8.11532126               67.30603538                0.66608469                0.50908346                0.17130473              -10.39191001               -0.42488743                3.95661632                4.11423600
              14.29705988               14.33108889               69.96307593                0.91164018                0.16389733               -0.01817737               -0.05153376                0.12071702                0.33177128                0.55330521
              15.29869885               13.89032378               69.50630734                0.66509329                0.12527974                0.31315221               -1.11378032                0.17306557                1.51143742               -0.32448140
              16.29956547               13.44956537               69.07312313                0.44511722                4.02612236                0.58973391               -1.57540208               -3.50732241                8.29777005               -0.17651826
              17.37922130               12.93679542               68.75388813                0.36498061                7.24894507               -2.20219225               -0.32787606               -2.54216266               14.58407669                0.16902202
              18.44454437               12.43519239               68.46934025                0.36082025                6.45448145               -1.69373916               -1.45236202               -0.74310700               16.78358895               -0.63558626
              19.50831093               11.91877158               68.20689801                0.36369514                6.60580468               -0.91347783               -4.00854744               -0.88070957               15.70523450               -0.30081551
              20.57666047               11.38420686               67.95424979                0.37377828                6.65425715               -0.13267974               -5.83887326               -1.07402130               13.55730544                0.09922380
              21.64139607               10.83475583               67.71040939                0.39114271                6.24602123                0.63571111               -7.35640672               -1.25111391               12.00124117                0.84226591
              22.70158089               10.27205758               67.49078314                0.41688365                5.64911458                1.63971445               -9.23794043               -3.74149781               18.73260782                2.04352638
              23.75437836                9.65303944               67.44365260                0.54510582                2.82780353                0.56102903              -12.63969962               -4.32792211               13.73047375                6.40263363
              24.75813696                9.11680265               67.08413533                0.84135589                0.37586007                0.14813966              -10.09510278               -0.32207770                2.53141707                6.41217448
              10.20148612                4.48465153               72.26729010                1.00000000               -0.30369907               -0.35600669                1.24247366               -0.09546605               -0.39631379                0.51209650
              11.19844913                4.02148202               71.84761033                1.00000000               -0.23751319               -0.20503545                0.76033858               -0.06907106               -0.47700483                0.06022667
              12.19673585                3.55787657               71.42566247                1.00000000               -0.10400279               -0.05837782                0.28319753               -0.06987683               -0.49009088               -0.06477351
              13.19636907                3.09350372               71.00562472                0.61434816               -0.00830674                0.09491136               -0.20213756               -0.13628446               -0.43883020               -0.39930629
              14.19656972                2.62728407               70.58514359                0.46530029                0.08123586                0.27210462               -0.70549478               -0.18223388               -0.34949064               -0.29889674
              15.19799379                2.15915739               70.16766882                0.20524896               -0.59979289                0.41802467               -1.24675678               -1.09349830                0.52219127               -0.57231522
              16.18457386                1.67186621               69.76587613                0.00010000               -9.20632846                1.44902562               -1.61820500              -17.19453254               12.75838872               -1.95938671
              17.01386722                0.85127693               69.60028661                0.00010000               -8.46866134                2.64821793               -2.68679520              -16.71549446               23.96293716                2.67885523
              18.01520063                0.04739524               69.37229675                0.00010000                7.10865243               -0.93734712               -2.86852161              -13.84241270               19.33211714                3.12864254
              19.15604027               -0.74272217               69.10058573                1.00000000                7.32064671                0.63336078               -1.71721419              -12.92750800                7.90169022               -0.27717802
              20.16161357               -1.28208032               68.66888752                1.00000000                0.55733008                0.77206089               -2.12108980                0.23000913                0.04049342               -0.42266122
              10.66370097                5.48109146               72.13630933                1.00000000               -0.25550700               -0.33373335                1.09833484               -0.01845061                0.03408470                0.72255443
              11.66114590                5.01943166               71.71643201                1.00000000               -0.18373663               -0.18605127                0.61633512                0.00573344                0.11130030                0.08606759
              12.66002623                4.55729279               71.29752117                1.00000000               -0.04217130               -0.03874469                0.13663218                0.00360682                0.14748315               -0.25853824
              13.66030247                4.09445283               70.87836702                0.66281594                0.09471538                0.10487256               -0.34014626               -0.04164877                0.29315828               -0.38235422
              14.66192054                3.63000512               70.46294406                0.58587783                0.22326319                0.26505504               -0.87281421               -0.07316515                0.37584642               -0.27196713
              15.66476773                3.16333764               70.04656606                0.33711727                0.23241118                0.41992693               -1.41017613               -0.52325649                0.56926694               -0.47247159
              16.66656877                2.68635647               69.63677876                0.00010000               -0.29099881                0.97676563               -1.99836793              -16.47835437               13.58389880               -0.99961871
              17.65894776                1.87775911               69.48359695                0.00010000                0.36036461                0.22690014               -4.19259335              -25.19202727               21.93378595                5.59502800
              18.67377606                1.03802177               69.22640825                0.00010000                1.62776056                1.20937178               -4.87734423              -22.03880947               13.29152827                8.26797485
              19.69150297                0.26361144               68.88351142                0.74763117                1.47478759                0.19926896               -3.24664187              -11.72921740                4.66992471               -2.11959254
              20.70327181               -0.27435971               68.45114831                1.00000000                1.17688398                0.28270090               -3.69250197               -0.11878402               -0.17930501               -2.52012256
              11.12443670                6.47797686               72.00865270                1.00000000               -0.20742320               -0.28448958                0.94728772               -0.02187962                0.17981547                0.84696025
              12.12236247                6.01776099               71.58545399                1.00000000               -0.13249403               -0.14735218                0.47060440               -0.00066745                0.37819327                0.00160152
              13.12178682                5.55710167               71.16573458                0.00010000                0.02306458                0.00739234               -0.00873914               -0.02414150                0.86186710               -0.70561812
              14.12282376                5.09560117               70.75229185                0.00010000                0.22173934               -0.52393133               -0.46940658               -0.88787159                1.34627540                1.12233360
              15.12622161                4.63258518               70.34285101                0.00010000                0.41767738               -1.08541838               -1.02034254               -1.51716277                1.29048120                3.24169113
              16.13117731                4.16755593               69.92976811                0.00010000                0.71818472               -2.22654085               -1.56383839               -2.15269418                1.48303580                6.45395234
              17.14058530                3.69140153               69.52630077                0.00010000                1.35920309               -6.23842593               -2.17290853              -19.05613604               17.85125403               12.51614010
              18.15836137                2.85581493               69.44265235                0.00010000                2.39934083               -0.44141916               -5.78598147              -33.00577240               26.87428143               10.89368138
              19.18857212                2.07158268               69.19660879                0.00010000                3.77380171                5.17322203              -12.80863385              -34.72726269                4.25938175               15.20472521
              20.23383740                1.26126321               68.63028581                0.07061944                2.33040339                8.77809527               -4.62789552              -21.75562421               -5.29018525               25.90408009
              21.23518019                0.72357370               68.19304540                0.64707535                0.13427817                7.77668221               -2.89356974                2.31862796               -0.58983370               27.27481532
              11.58369511                7.47540167               71.87945169                1.00000000               -0.16873750               -0.22893937                0.79863268               -0.02650716                0.28838084                0.70097035
              12.58200774                7.01648462               71.45236506                0.45133170               -0.09959430               -0.10855079                0.32614757                0.00688365                0.49363539               -0.37472050
              13.58170323                6.55744063               71.02896593                0.00010000               -0.74731016                0.06880521               -0.13974346               -0.70656841                3.19660341               -1.18144581
              14.56706153                6.08397421               70.65610580                0.00010000               -1.10403513               -0.74705262               -0.70584417               -2.29460460                6.19679755                1.97206445
              15.55962252                5.60829675               70.29247454                0.00010000               -0.20820174               -2.01493571               -1.49531186               -3.57327468                7.73076691                5.68982161
              16.56289750                5.11880682               69.94939455                0.00010000                1.87822587               -4.50947589               -2.53594122               -7.43628723               12.01174588               10.94020075
              17.59718704                4.56158795               69.67007529                0.00010000                2.78768287               -9.01022007               -4.30584181              -17.11445373               17.84427608               17.85739420
              18.61865116                3.86893073               69.44017016                0.00010000               -1.17022560                1.57765604               -7.82627495              -26.14591683               22.88971835               11.57407951
              19.57378253                3.14148621               69.24531310                0.00010000               -0.71258444                8.67889097              -12.85358735              -28.94465227               25.52462008               17.14377290
              20.60439947                2.43917334               69.00744454                0.00010000               12.56204311               20.83404156              -65.97974745              -20.06694592               19.81632705               31.10509012
              21.82502339                1.88117393               68.58799428                0.58243249               22.06239235               22.40108040              -73.70625294               -5.31063189                7.86307988               33.17243042
              12.04174066                8.47339807               71.74838874                0.91710903               -0.12794804               -0.17226456                0.66240425               -0.01867228                0.03075500                0.59879095
              13.04046118                8.01558998               71.31369114                0.29995807               -0.07873958               -0.07760981                0.17557459                0.05867047                0.50060778               -0.55412439
              14.04016587                7.55847778               70.88807464                0.00010000               -0.71928144                0.07990423               -0.29342499               -0.90203142                5.22588223               -1.65362427
              15.02607555                7.08066012               70.54811767                0.00010000               -1.01211853               -0.21082426               -1.01695142               -2.17902168               10.13196935                0.69543343
              16.01992350                6.59228646               70.22145023                0.00010000                0.15424080               -1.30473059               -2.02276968               -3.74528426               12.04613033                3.31353051
              17.02916037                6.07736641               69.92038560                0.00010000                1.41244128               -3.04562935               -3.37280180               -7.41224987               15.08426421                6.15631575
              18.04817232                5.51119713               69.65553461                0.00010000                1.31922032               -3.10406100               -5.36996486              -13.95689258               19.06921441                7.50191663
              19.05554477                4.88736806               69.43300786                0.00010000               -0.43679318                2.15239628               -8.73453431              -18.46832021               25.01791825                8.45946211
              20.03943646                4.24516050               69.27570840                0.00010000                1.86329982                9.08545653              -17.38163922              -13.36486196               33.83810744                9.05777853
              21.09281077                3.67794404               69.18421953                0.00010000               10.27649555               17.02791519              -43.79313037               -5.50856887               26.38190999               12.29199609
              22.24496637                3.17159530               68.86930656                0.51222358               15.21556014               19.77906477              -46.67138018               -6.99271117               17.22852776               16.37294149
              12.49893786                9.47195638               71.61683091                0.91257521               -0.08364165               -0.13279075                0.53341798               -0.02822221                0.00253364                0.60963860
              13.49810145                9.01493242               71.17683167                0.28020323               -0.01727022               -0.04008580                0.02887149                0.07310693                0.28194212               -0.42662368
              14.49859246                8.55903872               70.74218013                0.00010000               -0.42145153                0.06438176               -0.45714818               -0.96608719                6.52364457               -1.77538875
              15.48967242                8.07975772               70.42738601                0.00010000               -0.52909579               -0.00378459               -1.28153668               -2.45526778               12.94926205               -0.58573615
              16.48801054                7.58220214               70.12415026                0.00010000                0.30347117               -0.64621486               -2.39080963               -4.26867355               14.38362056                0.88786811
              17.49574184                7.05789424               69.84167533                0.00010000                1.00185033               -1.19152261               -3.85281665               -7.32491230               16.59239516                2.29078089
              18.50804755                6.49950673               69.58753973                0.00010000                0.97897704               -0.38338339               -5.86750418              -10.83828204               19.58542748                3.28488253
              19.51532138                5.91197865               69.36913204                0.00010000                0.39308788                2.46576966               -9.15977556              -12.23973740               24.32650933                3.66383851
              20.51590931                5.32319534               69.20763576                0.00010000                2.62359532                6.21133485              -15.19766975               -8.55541508               28.70396512                2.64367311
              21.56779329                4.77973165               69.06455081                0.00010000                9.09786661                7.41056508              -32.21496145               -4.17607051               20.84266181               -1.39326785
              22.69786664                4.27675523               68.73928041                0.48763984               13.00733528                7.37017010              -35.50059947               -4.64524593               12.60938547               -0.68188528
              12.95522413               10.47074226               71.48580463                0.92683084               -0.03831483               -0.11270880                0.40886891               -0.03546527               -0.01180659                0.66800578
              13.95484098               10.01478826               71.04055649                0.28952511                0.03973506                0.01754520               -0.13438707                0.05740074                0.19392944               -0.38819116
              14.95601883                9.55976541               70.59926886                0.00010000               -0.05171030                0.12152975               -0.65671450               -1.04099073                7.26561330               -1.54567421
              15.95380677                9.08058443               70.29578056                0.00010000                0.01973416                0.15855267               -1.37116113               -2.61744671               14.51678603               -1.57535265
              16.95641351                8.57936216               70.00479298                0.00010000                0.57753792               -0.07477579               -2.51508580               -4.42899617               15.71362772               -0.91813013
              17.96535753                8.05353596               69.73193823                0.00010000                1.04543768               -0.07775976               -4.03672957               -6.58184850               17.26566314               -0.04024915
              18.97732226                7.50352946               69.48156583                0.00010000                1.08519409                0.70324046               -6.00169839               -8.44978196               19.28593788                0.63707773
              19.98706141                6.93668345               69.26014468                0.00010000                1.16264505                2.33990910               -8.75611147               -8.94373369               22.08109492                0.87427132
              21.00057516                6.36938720               69.07402582                0.00010000                3.43340319                3.87578223              -13.83445677               -6.98591977               23.98228321                0.32236374
              22.05572948                5.82615534               68.88368731                0.00010000                7.87195622                3.70521597              -24.31609779               -3.78041259               16.80210894               -0.26185594
              23.15801429                5.31899871               68.55322010                0.48486162               10.22848137                3.27388635              -28.00032168               -3.09963413                9.02325157                0.84724817
              13.41013655               11.46970220               71.35512656                0.93467642                0.00897554               -0.09007264                0.28344707               -0.04245880               -0.00959700                0.72501180
              14.41022631               11.01528333               70.90450137                0.30253025                0.09199625                0.08275646               -0.31471833                0.03590387                0.22970655               -0.39373464
              15.41197648               10.56146931               70.45860134                0.00010000                0.37502091                0.23505814               -0.90897444               -1.11796097                7.68341811               -1.39545361
              16.41772673               10.08292877               70.15729464                0.00010000                0.72513017                0.22108854               -1.29695509               -2.60109689               15.27598659               -2.05728020
              17.42647908                9.58070663               69.87101362                0.00010000                1.11054239                0.13561547               -2.39079594               -4.11534966               16.41316663               -1.90915135
              18.43993758                9.05633904               69.60186639                0.00010000                1.47126704                0.34749638               -3.99063521               -5.48676026               17.45715333               -1.30091266
              19.45590442                8.51357154               69.35123669                0.00010000                1.53256961                1.05277022               -5.90167674               -6.45791040               18.53000681               -0.68157032
              20.47058897                7.95877684               69.12212618                0.00010000                1.54072977                2.12754313               -8.34627263               -6.64288759               20.25461215               -0.30728796
              21.48671902                7.40071099               68.92335510                0.00010000                3.59922782                2.96275124              -12.43420661               -6.04328269               21.76151483                0.43589514
              22.54257352                6.85383597               68.72720540                0.00010000                8.17341034                3.02997940              -24.02179465               -3.69230734               15.22420997                3.84174206
              23.65018723                6.34223295               68.39735087                0.49045564               10.76137017                2.66935560              -27.19857259               -1.34960145                9.05365011                5.22384671
              13.86321270               12.46894081               71.22478697                0.93928784                0.05792436               -0.05676755                0.15354035               -0.04860311               -0.00178746                0.75935399
              14.86379194               12.01644339               70.76834800                0.32264842                0.14007304                0.15284543               -0.51811704                0.02700624                0.37475953               -0.43438368
              15.86601416               11.56446657               70.31948002                0.00010000                0.93777887                0.38304277               -1.25266626               -1.31569723                8.05168766               -1.07621615
              16.88254752               11.08500620               70.01666186                0.00010000                1.73410443                0.04088022               -1.13887660               -2.55091682               15.61980341               -1.95872513
              17.90069625               10.58207447               69.73008447                0.00010000                2.01049439               -0.10667359               -2.12138823               -3.33594024               16.61887973               -2.02084631
              18.92275741               10.06048589               69.46064027                0.00010000                2.25150053                0.29719429               -3.78467650               -3.99480907               17.25779178               -1.61941047
              19.94572626                9.52458486               69.20696570                0.00010000                2.21534012                1.02583949               -5.69985613               -4.39681313               17.56635551               -1.07031858
              20.96706421                8.97923431               68.97001039                0.00010000                1.94620603                1.95072595               -7.95493420               -4.46173784               18.69950558               -0.43188239
              21.98465038                8.42864222               68.76535539                0.00010000                3.66485759                2.87426099              -11.44949037               -3.94782482               20.16252525                0.85615452
              23.04036136                7.88675493               68.57482041                0.00010000                8.47889507                3.63543124              -24.74009850               -2.30515704               13.45217577                5.68020652
              24.15422828                7.37238582               68.24952751                0.50273186               11.38669191                3.35138047              -26.06113983               -1.24224248                9.17334885                7.83973819
              14.31415932               13.46856685               71.09425267                0.85493595                0.10813427               -0.01769523                0.02105919               -0.04653352                0.05191959                0.70637709
              15.31524067               13.01834024               70.63186635                0.25899917                0.14702019                0.22753584               -0.74371448                0.05409260                0.87690832               -0.46543574
              16.31709973               12.56913017               70.18612530                0.00010000                1.69299119                0.54793995               -1.54059497               -1.78880402                8.62284712               -0.67484097
              17.34910049               12.08374638               69.87795703                0.00010000                3.35904280               -0.83514694               -1.13817549               -2.05204153               15.62314581               -1.21918210
              18.38428058               11.57857315               69.58879508                0.00010000                3.42152573               -0.62104835               -1.87945082               -2.01133439               16.35438669               -1.29934424
              19.41753101               11.06228293               69.31593150                0.00010000                3.24695772               -0.06152085               -3.49706454               -2.03525453               16.50358038               -1.14434514
              20.44921974               10.53408833               69.05632779                0.00010000                2.98829231                0.73807449               -5.33324556               -2.16151661               16.15755352               -0.81787347
              21.47729685                9.99779135               68.81055022                0.00010000                2.55110827                1.72455091               -7.42212938               -2.11538033               16.67033488               -0.30501746
              22.50024190                9.45819621               68.59575709                0.00010000                3.77149669                2.80446257              -10.68436799               -1.68458519               18.50768523                0.92144793
              23.55272679                8.92654459               68.41264666                0.00010000                7.69193466                5.08959943              -23.39418757               -0.92560431               12.29764796                5.12368122
              24.65408060                8.40926056               68.09943182                0.51827667               10.13538117                4.78967882              -23.30149836               -1.44926276                8.81187816                7.30806952
              14.76273526               14.46858690               70.96236167                0.91367383                0.15752171                0.00200500               -0.10777320                0.09831421                0.33492101                0.66073462
              15.76431048               14.02099411               70.49571406                0.62073401                0.10483385                0.26538709               -0.95864974                0.24890468                1.66887480               -0.50179686
              16.76483194               13.57542537               70.05597757                0.39845244                3.38766134                0.62952036               -1.78816565               -2.86132145                9.50209852               -0.57941494
              17.83206371               13.06830326               69.74402317                0.36481966                5.85505376               -1.54431207               -1.11406978               -1.99227183               15.41784452               -0.33444073
              18.88193301               12.56965351               69.45228605                0.36088726                4.72367181               -0.89196473               -1.72534989               -0.68714630               15.67382317               -0.38969501
              19.92653714               12.05925547               69.17414727                0.36355382                4.25272429               -0.30274536               -3.04299487               -0.61474412               15.10936209               -0.41739911
              20.96698750               11.53934635               68.90497021                0.37294560                3.70557927                0.52580211               -4.53127515               -0.49973108               13.79775030               -0.24661806
              22.00064873               11.01372533               68.64449271                0.38922332                2.76089709                1.59339748               -6.11787946               -0.39555645               13.21824293                0.08799186
              23.02220544               10.48473147               68.41034088                0.41323823                3.50680976                2.65352638               -8.67480225                0.93743313               13.89879646                1.01638663
              24.07078492                9.98854692               68.20360334                0.47090803                6.88028197                6.20023276              -20.87133809                0.97820978                8.95627057                4.90951631
              25.15981108                9.46817939               67.88567289                0.76367055                8.90261586                5.89188315              -20.69854877               -1.46370395                5.85125189                7.07588827
              10.61964630                4.62142545               73.27893185                1.00000000               -0.27124968               -0.31194914                1.08780865               -0.07791243               -0.39084911                0.50429257
              11.61693381                4.15396948               72.85490644                1.00000000               -0.21874947               -0.18934836                0.69929145               -0.05366930               -0.47026581                0.05818826
              12.61527132                3.68611141               72.42865019                1.00000000               -0.11222494               -0.06990959                0.31357595               -0.05439019               -0.48436298               -0.06280679
              13.61468931                3.21754637               72.00423530                0.62067655               -0.03792386                0.05325488               -0.07807600               -0.11522961               -0.44188155               -0.38194229
              14.61451284                2.74731412               71.57924533                0.46467973                0.03212964                0.19522179               -0.47993122               -0.15811118               -0.37519791               -0.30132979
              15.61533190                2.27540233               71.15689706                0.18983005               -0.80000400                0.30560350               -0.91590040               -1.17258787                0.57380439               -0.56413900
              16.59851276                1.78252736               70.75205772                0.00010000               -8.04747464                1.47658289               -1.15732200              -14.92661422               12.56223254               -2.11616481
              17.45438241                1.00096292               70.57566846                0.00010000               -6.81230456                1.85857228               -2.41650072              -14.26532945               23.86650691                2.14715294
              18.46226667                0.23249132               70.34494179                0.00010000                6.71697967               -1.20052772               -2.71888976              -11.30892255               20.05123123                2.81219475
              19.58872200               -0.51955266               70.08055817                1.00000000                6.69320817                0.74616085               -2.29695036              -10.54279317                8.46807381               -0.26113076
              20.59613083               -1.05956052               69.64532893                1.00000000                0.74088276                0.83228816               -2.59209528               -0.14156526                0.05768483               -0.38650984
              11.08632315                5.61830596               73.14658491                1.00000000               -0.22690140               -0.29350467                0.95824653               -0.01547773                0.03310270                0.71155499
              12.08405414                5.15207600               72.72236349                1.00000000               -0.16920911               -0.17265868                0.56993336                0.00682791                0.11068409                0.08318961
              13.08293897                4.68541231               72.29912888                1.00000000               -0.05592386               -0.05250897                0.18346864                0.00418674                0.15076337               -0.25616652
              14.08293566                4.21807892               71.87569264                0.69172382                0.05323898                0.06019760               -0.19780467               -0.03699415                0.27576916               -0.35920216
              15.08400375                3.74926633               71.45549864                0.60394622                0.15318698                0.18883804               -0.62332867               -0.06867063                0.33315952               -0.26247470
              16.08599940                3.27845836               71.03428058                0.33563327                0.12312861                0.30992989               -1.05622548               -0.53154556                0.50069444               -0.45434743
              17.08646632                2.79729319               70.61907456                0.00010000                0.03738686                0.92602760               -1.55339992              -14.61574877               12.73172102               -1.06402288
              18.08674714                2.01954864               70.44490491                0.00010000                1.14844547               -0.35667639               -3.49772450              -21.44347249               21.28809254                5.04685493
              19.10943523                1.22048604               70.18631223                0.00010000                2.12864261                0.23473316               -3.66034662              -17.74522254               14.11948893                5.57006830
              20.12931999                0.48790895               69.85709549                1.00000000                1.26439018                0.64532143               -2.06668743               -9.45162566                5.51614253               -0.32469811
              21.13472303               -0.05123764               69.42106771                1.00000000                0.54030449                0.70164441               -2.33866153               -0.19053035               -0.20059469               -0.53960691
              11.55179668                6.61555536               73.01750752                1.00000000               -0.18326610               -0.25273589                0.82417211               -0.01955639                0.17628944                0.83619280
              12.54996402                6.15051631               72.59000790                1.00000000               -0.12222736               -0.13762899                0.43949453               -0.00102177                0.37301834               -0.00136797
              13.54935213                5.68506123               72.16596703                0.00010000                0.00656955               -0.01120826                0.05333182               -0.02794634                0.86732100               -0.69710103
              14.55009541                5.21875032               71.74841937                0.00010000                0.17039275               -0.56834488               -0.30903992               -0.83668362                1.32034957                1.07052377
              15.55275998                4.75109088               71.33402370                0.00010000                0.32893631               -1.12766521               -0.75321172               -1.35462184                1.22560711                3.06619679
              16.55667413                4.28160092               70.91602946                0.00010000                0.61737605               -2.22419978               -1.19268606               -1.81110716                1.38486303                6.02393756
              17.56510750                3.80104791               70.50685280                0.00010000                2.28229885               -6.01977193               -1.72509281              -16.70763218               16.12846879               11.49871111
              18.60232011                2.99382939               70.38569459                0.00010000                3.69472015               -1.24735879               -5.50838685              -28.68899049               23.32653860                9.99946845
              19.63900191                2.23718598               70.08542684                0.00010000                3.45465286                3.32702252               -8.77399048              -25.15318641                7.28700767               13.69756848
              20.67141317                1.49335377               69.63272748                1.00000000                1.58057407                0.35510236                0.04246180              -10.10152267               -0.79475846                0.51189705
              21.67061339                0.95447237               69.19498279                1.00000000               -0.07997773                0.36171231               -0.00878043               -0.15074829               -0.06114543                0.29687441
              12.01601013                7.61325124               72.88690849                1.00000000               -0.14822929               -0.20534755                0.69214480               -0.02577764                0.28507377                0.70244428
              13.01452783                7.14932342               72.45554912                0.43036223               -0.09320487               -0.10071441                0.30992359               -0.00080363                0.49273093               -0.38136642
              14.01414603                6.68518815               72.02794540                0.00010000               -0.71777455                0.04481037               -0.06694761               -0.71555622                3.12559620               -1.18126795
              15.00017234                6.20671202               71.64939177                0.00010000               -1.00426585               -0.81455568               -0.63248427               -2.22863548                6.06445293                1.85607733
              15.99406071                5.72671303               71.27830636                0.00010000               -0.01760618               -2.04723861               -1.36856915               -3.32443133                7.51999610                5.33375698
              16.99982022                5.23397437               70.92506372                0.00010000                2.30122511               -4.42287001               -2.39586410               -6.80578432               11.54227676               10.19171258
              18.04008521                4.67689775               70.62768892                0.00010000                3.85045208               -8.66418171               -4.30800123              -15.48070387               16.57501128               16.40703916
              19.07682926                3.99460146               70.36178504                0.00010000                3.33809552                0.63318767               -7.62634674              -23.64067994               20.56461607               11.00581932
              20.10684712                3.28702649               70.11269147                0.00010000                6.65869436                5.72068450              -14.49798788              -29.30377955                4.71219730               14.53945985
              21.21000315                2.49501099               69.42170450                0.00010000                5.13118687               11.49905527              -29.21628805              -20.68188181               -4.26589805               22.57897398
              22.20947086                1.95599661               68.98308238                0.53375448               -0.05322857               12.63659223              -30.17350476               -5.07151192               -2.71648203               25.94891336
              12.47913677                8.61144841               72.75456337                0.92547396               -0.11257345               -0.15444905                0.57049303               -0.02071022                0.02064475                0.61698085
              13.47801104                8.14850202               72.31543064                0.28261780               -0.07421862               -0.07147166                0.17367641                0.03735835                0.49702755               -0.56663285
              14.47765240                7.68595744               71.88552463                0.00010000               -0.70066117                0.04706764               -0.21623870               -0.95378298                5.09887148               -1.70024609
              15.46399782                7.20245921               71.53845840                0.00010000               -0.93216935               -0.30409824               -0.94211660               -2.21509494                9.88515883                0.55509476
              16.45900901                6.71014610               71.20204874                0.00010000                0.31879532               -1.35135983               -1.92666891               -3.67730987               11.71819774                3.00717022
              17.47037372                6.19314352               70.88740722                0.00010000                1.79286579               -2.96809053               -3.33951981               -7.21299726               14.57306712                5.59446295
              18.49486633                5.62776428               70.60108813                0.00010000                2.45020248               -2.96001018               -5.52990331              -13.67128133               18.21158511                6.80100954
              19.51937777                5.00649314               70.34508640                0.00010000                2.88252280                1.79366138               -9.28353833              -19.13086877               21.06933329                7.74674687
              20.55251679                4.35159967               70.07975069                0.00010000                3.47138201                7.53796263              -17.62256648              -19.86526740               23.82545673                8.05890065
              21.58880541                3.72333487               69.81716134                0.00010000                4.73475665               19.04811826              -31.75165665              -15.72317879               16.40151329               25.01418234
              22.64721192                3.20720422               69.42803879                0.46001878                5.84065074               20.98143929              -37.06336792               -6.82599091                2.85461426               27.98242496
              12.94148870                9.61016226               72.62178010                0.92366412               -0.07227260               -0.11458916                0.45189547               -0.02816324               -0.00125015                0.64264338
              13.94076597                9.14789399               72.17715573                0.26595388               -0.01877592               -0.03943531                0.03969717                0.03758679                0.27568700               -0.44994672
              14.94111318                8.68612950               71.73785277                0.00010000               -0.45420979                0.02235587               -0.39711921               -1.05550860                6.37285089               -1.88273078
              15.93168178                8.20063006               71.41538476                0.00010000               -0.56414899               -0.08610449               -1.18134920               -2.53838661               12.65151001               -0.64340837
              16.92983020                7.69968583               71.10116317                0.00010000                0.31301600               -0.66097080               -2.29853232               -4.23134356               14.00346086                0.72699974
              17.93794210                7.17461256               70.80376682                0.00010000                1.17398847               -1.06106285               -3.84993335               -7.25109033               16.13634335                1.94627800
              18.95330997                6.61769755               70.52799935                0.00010000                1.62171981               -0.13572134               -6.12556811              -11.02333981               18.83885881                2.80511078
              19.97037649                6.03047469               70.27431634                0.00010000                1.96950380                2.81409032               -9.81024064              -13.36928560               21.91393456                3.07096578
              20.99270004                5.43778574               70.03822227                0.00010000                3.47792675                7.50848745              -16.72905693              -12.58543187               22.82050775                3.68376386
              22.03993503                4.87597336               69.77110675                0.00010000                5.62561562               12.00741021              -26.11793483               -7.40302414               15.51912661                1.71153360
              23.10521236                4.37562540               69.40891743                0.45218219                6.52773300               12.92145000              -29.75809919               -3.65853228                6.07711186                2.60790427
              13.40311006               10.60915663               72.48955203                0.93993847               -0.03145254               -0.08854325                0.33446330               -0.03220795               -0.01268460                0.70960153
              14.40279554               10.14771331               72.03931151                0.27519044                0.03480471                0.00893472               -0.10719173                0.01603817                0.18175786               -0.42870174
              15.40380616                9.68640455               71.59283551                0.00010000               -0.15608930                0.07422917               -0.60081043               -1.13323452                7.15665786               -1.71523210
              16.39967375                9.20073712               71.28247909                0.00010000               -0.17032559                0.11405442               -1.32095066               -2.68047778               14.25863694               -1.50279517
              17.40039965                8.69692669               70.98044754                0.00010000                0.38332233               -0.02125854               -2.44998161               -4.30891918               15.30095231               -0.90315069
              18.40734020                8.17192227               70.69224821                0.00010000                0.90688762                0.13601977               -4.03124991               -6.42809541               16.83779613               -0.24555741
              19.41853740                7.62504985               70.42107669                0.00010000                1.22818330                1.11637741               -6.22889228               -8.49418900               18.77838825                0.23443078
              20.43190386                7.06277495               70.16825854                0.00010000                1.83860410                3.16669533               -9.56675837               -9.38608965               20.67945250                0.42211896
              21.45530948                6.50176942               69.92408985                0.00010000                3.55007063                5.58429148              -15.00710724               -8.09096091               20.34036465                0.04112271
              22.50290528                5.96348308               69.65079394                0.00010000                5.97138603                7.24107156              -21.91791766               -4.82293398               13.28371639               -0.44763995
              23.57473720                5.46563322               69.28335984                0.45132853                7.18319235                7.25218407              -25.20851430               -2.47519196                5.86082980               -0.09536211
              13.86373116               11.60839140               72.35763329                0.94796906                0.01076457               -0.06137276                0.21257477               -0.03426940               -0.00719999                0.76734390
              14.86383881               11.14807268               71.90155506                0.28637435                0.08467612                0.06425852               -0.26351579                0.00137683                0.19868083               -0.45162916
              15.86542468               10.68761408               71.44957555                0.00010000                0.18556403                0.17714320               -0.84301312               -1.16225210                7.68638183               -1.65342516
              16.86755009               10.20291115               71.14372628                0.00010000                0.35209926                0.26633784               -1.37236400               -2.58369150               15.15477324               -1.91086092
              17.87246667                9.69926066               70.84720487                0.00010000                0.68534673                0.30364492               -2.42213596               -3.87977989               15.96339158               -1.76405007
              18.88125702                9.17733295               70.56283471                0.00010000                1.00534193                0.66118824               -3.96381272               -5.19918537               16.99999343               -1.42932699
              19.89257351                8.64002510               70.29230259                0.00010000                1.23390548                1.57232371               -6.04186218               -6.23511763               18.23234300               -1.12429350
              20.90593513                8.09380860               70.03604545                0.00010000                1.87995955                2.97630778               -8.99346583               -6.49809181               19.37840810               -0.90124094
              21.93017270                7.54947157               69.78567361                0.00010000                3.68387107                4.43859525              -13.88598632               -5.53986435               18.66318959               -0.48080947
              22.97961255                7.02079479               69.50500409                0.00010000                6.06177712                5.29353860              -20.56531467               -3.22503511               12.07175355                0.29891904
              24.05140824                6.52066908               69.13942173                0.45312471                7.17956878                5.12285798              -23.86554492               -1.92584718                5.09271315                1.48542739
              14.32306211               12.60792917               72.22599620                0.95245149                0.05382780               -0.02839500                0.08517225               -0.03469444               -0.00215743                0.79816917
              15.32360039               12.14899849               71.76354019                0.30255844                0.13302696                0.12224034               -0.43012810                0.00257082                0.28885175               -0.50976138
              16.32572265               11.68994742               71.30700565                0.00010000                0.63764779                0.30297847               -1.15006550               -1.20592571                8.19359606               -1.38319262
              17.33635334               11.20606388               71.00312567                0.00010000                1.13297969                0.20806273               -1.38472488               -2.36241755               15.72413629               -1.85311492
              18.34838224               10.70299959               70.70793396                0.00010000                1.31193553                0.23403239               -2.28349579               -3.06538634               16.20580879               -1.88414946
              19.36259205               10.18514603               70.42382425                0.00010000                1.44885774                0.70897517               -3.73310583               -3.67980619               16.76475493               -1.73431442
              20.37735940                9.65649633               70.15105642                0.00010000                1.49517484                1.55732922               -5.67543031               -4.07466398               17.42830586               -1.54663293
              21.39249555                9.12230110               69.89024761                0.00010000                2.00833008                2.70037302               -8.33344691               -4.00400832               18.11702394               -1.28129728
              22.41752600                8.59054133               69.63560733                0.00010000                3.73557597                3.98161644              -13.06447486               -3.34625049               17.49631493               -0.49250903
              23.46720707                8.06935385               69.35409205                0.00010000                5.94728418                5.01625224              -20.10604593               -1.98775753               11.38706279                0.84737923
              24.53647168                7.56809038               68.99367936                0.45716415                6.92646123                5.23340936              -23.57588226               -1.30734981                4.44552536                2.42808665
              14.78089864               13.60782350               72.09411946                0.86332421                0.09733321                0.00782046               -0.04710024               -0.03103051                0.04692538                0.74504497
              15.78187198               13.15051749               71.62511491                0.23276474                0.16710670                0.17969670               -0.59862381                0.03551050                0.76632558               -0.54636595
              16.78424078               12.69367365               71.17073147                0.00010000                1.26887966                0.41625480               -1.41562078               -1.39347005                8.92894878               -1.04073561
              17.80724957               12.20707240               70.86423521                0.00010000                2.39180046               -0.40447706               -1.39483983               -1.74079890               16.01499701               -1.27527569
              18.83207679               11.70394131               70.56854176                0.00010000                2.34572938               -0.12915218               -2.09146890               -1.80227295               16.12856406               -1.24207207
              19.85416416               11.19151245               70.28252011                0.00010000                2.09241844                0.44230130               -3.37504343               -1.87738361               16.19100855               -1.23080157
              20.87392516               10.67117168               70.00552056                0.00010000                1.88229050                1.27466652               -5.11223897               -1.93928783               16.30093411               -1.17094099
              21.89180997               10.14781606               69.73815671                0.00010000                2.11348941                2.31647962               -7.48454926               -1.70865374               16.57991980               -0.99815395
              22.91619494                9.62910390               69.47760891                0.00010000                3.52491932                3.63382029              -11.87255809               -1.18880172               15.86075569               -0.45408546
              23.96230835                9.12111984               69.19412459                0.00010000                5.57966242                4.99812710              -19.38210329               -0.64009730               10.40287065                0.53373249
              25.02778819                8.62533727               68.84000541                0.46232441                6.54798393                5.88739433              -23.43818802               -0.85069648                4.33374640                2.10088727
              15.23705352               14.60808558               71.96092046                0.91669541                0.14069213                0.02620818               -0.17473790                0.06617179                0.33929490                0.70085934
              16.23846044               14.15259242               71.48713434                0.60429703                0.21224065                0.20749319               -0.75827120                0.16819351                1.52194956               -0.57945403
              17.24129833               13.69827251               71.03735982                0.37866966                2.64046336                0.45988610               -1.73700436               -2.02514840               10.11381830               -1.09161758
              18.29126971               13.19797434               70.73160674                0.36450472                4.32991981               -0.90980651               -1.26915289               -1.49078442               16.14614672               -0.41851639
              19.32789673               12.70041654               70.43483326                0.36096312                3.32721499               -0.35247669               -1.80902100               -0.61711944               15.82904412               -0.48641683
              20.35781401               12.19399206               70.14603812                0.36338626                2.71866531                0.24796040               -2.84718385               -0.55635883               15.39491716               -0.51536138
              21.38227004               11.68198966               69.86362429                0.37209436                2.12881228                1.08179761               -4.19204210               -0.43357988               14.90970156               -0.53422990
              22.40039026               11.16863070               69.58805180                0.38732478                1.90880752                2.08146383               -5.96967751               -0.08056737               14.59358519               -0.50414228
              23.42044619               10.66321773               69.31728710                0.40968879                2.88907535                3.41138290               -9.51608786                0.45940914               13.72726925               -0.17869240
              24.45817176               10.16931639               69.02622584                0.44061032                4.52883538                4.81965553              -15.87736923                0.71736751                8.53261308               -0.73995917
              25.51102290                9.68583826               68.67016435                0.73303316                5.28511325                6.05009969              -19.70103458               -0.02434259                2.97686023                0.95436386
              11.04171996                4.75943127               74.28904627                1.00000000               -0.23944857               -0.26843743                0.93730475               -0.06136801               -0.38835730                0.49914284
              12.03932547                4.28773169               73.86159616                1.00000000               -0.20001134               -0.17376964                0.63897552               -0.03939768               -0.46754917                0.05674181
              13.03771973                3.81566305               73.43193398                1.00000000               -0.11945852               -0.08104279                0.34193589               -0.03981128               -0.48261805               -0.06084499
              14.03693630                3.34295021               73.00406320                0.62771988               -0.06578637                0.01345154                0.04046210               -0.09442907               -0.44474836               -0.36517362
              15.03640400                2.86875087               72.57554496                0.46462896               -0.01394091                0.12263924               -0.26607185               -0.13295370               -0.39551232               -0.30234376
              16.03665748                2.39310757               72.14935081                0.17551399               -0.96784429                0.20107231               -0.60314899               -1.20725955                0.64398654               -0.55949788
              17.01704712                1.89550924               71.74272969                0.00010000               -6.91720958                1.47716943               -0.72421368              -12.51484883               12.16689081               -2.30583587
              17.89831329                1.15574710               71.55195660                0.00010000               -5.28557838                1.29229803               -2.29250939              -11.81468357               23.20278652                1.58244891
              18.91133555                0.42089826               71.31791896                0.00010000                6.33506573               -1.19601762               -2.69779275               -9.57435549               20.00926547                2.11273846
              20.02501460               -0.30101943               71.05464672                1.00000000                6.09450971                0.59675889               -2.56874928               -8.90374340                8.70522903               -0.05478905
              21.03322574               -0.84128808               70.61704562                1.00000000                0.82111378                0.64823615               -2.75157357               -0.21789171                0.00902931               -0.08576933
              11.51280586                5.75674689               74.15547426                1.00000000               -0.19902536               -0.25270687                0.82146999               -0.01320238                0.03138634                0.70389978
              12.51081560                5.28599399               73.72783068                1.00000000               -0.15467515               -0.15918437                0.52348204                0.00717910                0.10900041                0.08122782
              13.50971235                4.81485262               73.30119054                1.00000000               -0.06837522               -0.06599589                0.22696182                0.00463924                0.15372106               -0.25386500
              14.50944810                4.34308472               72.87441092                0.72065600                0.01417148                0.01811506               -0.06258609               -0.03187891                0.26401715               -0.33615635
              15.50999578                3.86997726               72.45047749                0.62180919                0.08787994                0.11752617               -0.38906769               -0.06233879                0.30085293               -0.25371141
              16.51120570                3.39511829               72.02544155                0.33499412                0.02915403                0.20719909               -0.72332896               -0.51541684                0.43545549               -0.44066491
              17.51057886                2.91028094               71.60571076                0.00010000                0.31331225                0.86260750               -1.12873409              -12.50028934               11.98483761               -1.16326234
              18.51747194                2.16867008               71.41364246                0.00010000                1.66981946               -0.84114645               -2.79465761              -17.66690186               20.50493147                3.89892542
              19.54397525                1.40893809               71.15320132                0.00010000                2.47991987               -0.08717289               -2.98432556              -14.38890386               14.94157882                3.71683345
              20.56707034                0.70494816               70.84217767                1.00000000                1.36701108                0.39557822               -1.43605598               -8.01860613                6.36599392               -0.07808258
              21.57131547                0.16519429               70.40437508                1.00000000                0.42451351                0.43922940               -1.57882605               -0.16434233               -0.01955993               -0.15077282
              11.98296172                6.75437713               74.02513614                1.00000000               -0.15983891               -0.21760948                0.70253684               -0.01743952                0.17260746                0.82888702
              12.98136333                6.28454800               73.59424389                1.00000000               -0.11199686               -0.12797184                0.40723093               -0.00120791                0.36809366               -0.00304619
              13.98072178                5.81434313               73.16680122                0.00010000               -0.00946223               -0.02974736                0.11128277               -0.02876691                0.87550424               -0.69089613
              14.98117408                5.34331251               72.74611106                0.00010000                0.12009394               -0.60140026               -0.15768942               -0.73501002                1.30270944                0.97121889
              15.98312366                4.87110139               72.32778678                0.00010000                0.24356925               -1.15152013               -0.50388751               -1.08531207                1.17407208                2.79808624
              16.98604547                4.39725155               71.90591439                0.00010000                0.51829445               -2.19274886               -0.84271786               -1.25926105                1.28805388                5.43582121
              17.99348955                3.91276139               71.49179891                0.00010000                3.01363170               -5.73937650               -1.28964074              -13.84701547               14.30938078               10.16978416
              19.04631810                3.13892417               71.33248461                0.00010000                4.68949187               -1.95073836               -4.76598385              -23.30688011               20.56197328                8.24037271
              20.08727938                2.41915481               71.02112898                0.00010000                3.10340916                1.45067368               -5.11831621              -18.39501311                9.23941442                8.07873347
              21.10838628                1.70689214               70.63113505                1.00000000                1.10836338                0.06853982               -0.25619603               -8.50190180                2.35650968               -0.01074140
              22.10944665                1.16749651               70.19286979                1.00000000                0.10603670                0.09509573               -0.31597215               -0.10843708                0.05767458               -0.09106610
              12.45211533                7.75239470               73.89329459                1.00000000               -0.12898836               -0.17555220                0.58523382               -0.02315056                0.28181529                0.70472788
              13.45082545                7.28343455               73.45856353                0.41685645               -0.08714133               -0.09486446                0.29243759               -0.00299453                0.49024867               -0.38591797
              14.45037250                6.81425767               73.02762698                0.00010000               -0.64179042                0.01111782                0.00092458               -0.69920357                3.01147386               -1.18631620
              15.43798964                6.33105672               72.64345611                0.00010000               -0.80110013               -0.87717427               -0.56108865               -2.06151380                5.81989513                1.66741874
              16.43435050                5.84694686               72.26510316                0.00010000                0.31854182               -2.07641659               -1.27681357               -2.87892140                7.10096617                4.86349503
              17.44436047                5.35126332               71.90147726                0.00010000                2.88077195               -4.33494930               -2.31536842               -5.79583012               10.53242268                9.20787403
              18.49196594                4.79549341               71.58391526                0.00010000                5.02902258               -8.29272547               -4.22710865              -13.01863539               14.44897657               14.67701892
              19.54494093                4.12965531               71.28764323                0.00010000                5.80705396               -0.45762346               -7.10818794              -20.27955349               14.73590708                9.44333506
              20.60810702                3.43795156               70.95535335                0.00010000                5.18748361                3.08264552              -11.61952986              -23.33725425                3.86140365               10.92419773
              21.64869060                2.70631896               70.42311878                0.00010000                1.99154838                6.09666486                0.28560906              -15.33443560               -4.64782502               16.74736681
              22.64793799                2.16709620               69.98452419                0.47816345               -0.07526113                6.89561245                0.26620389               -5.37942073               -0.01146191               17.57827455
              12.92041901                8.75086609               73.75979860                0.93606730               -0.09785381               -0.12870594                0.47596028               -0.01922467                0.01202219                0.62997028
              13.91944047                8.28265071               73.31716467                0.27461785               -0.06517329               -0.06909648                0.17386503                0.02082325                0.48754138               -0.57651303
              14.91911554                7.81456549               72.88374987                0.00010000               -0.60929231               -0.00922247               -0.13889203               -0.97168680                4.90702172               -1.76252830
              15.90725462                7.32576903               72.52927534                0.00010000               -0.68884538               -0.40939303               -0.90557599               -2.17949228                9.46375868                0.42587663
              16.90533863                6.82957306               72.18291685                0.00010000                0.71638461               -1.43017606               -1.91527138               -3.49346332               11.04615503                2.68726501
              17.92158231                6.31055257               71.85359520                0.00010000                2.46931064               -2.96422555               -3.38202452               -6.76970652               13.39506007                5.01497229
              18.95472485                5.74690688               71.54493654                0.00010000                3.83432808               -2.99365082               -5.59710513              -12.92357994               15.70142894                6.13608494
              19.99826888                5.12977170               71.24733709                0.00010000                4.45729012                1.02852610               -9.17504249              -18.38314678               16.13220265                7.03207009
              21.04387065                4.48080772               70.92325707                0.00010000                3.71420289                5.72899487              -13.59026669              -21.67621157               12.95988512                9.63443004
              22.07255293                3.82882544               70.54918640                0.00010000                1.82165538               13.70053812              -20.11136710              -15.83044462                7.25279821               20.02556589
              23.08030376                3.30540876               70.12803920                0.44490871                0.77508221               15.32480332              -22.02653494               -7.54919053                1.56537754               21.95893095
              13.38816159                9.74982058               73.62586882                0.93720397               -0.06190780               -0.08924940                0.36450233               -0.02517262               -0.00322441                0.66178792
              14.38754251                9.28205262               73.17762562                0.26190336               -0.01705693               -0.04179044                0.05618482                0.00024114                0.24960892               -0.46733609
              15.38782045                8.81407322               72.73423775                0.00010000               -0.40751461               -0.04137468               -0.31578165               -1.11574525                6.13566598               -1.99560596
              16.37939222                8.32286886               72.40375903                0.00010000               -0.40613789               -0.17910123               -1.15750519               -2.58085124               12.15793850               -0.68941345
              17.37969769                7.81834333               72.07817962                0.00010000                0.61201495               -0.71578025               -2.32150342               -4.17826229               13.26165734                0.59603324
              18.39163252                7.29197880               71.76467666                0.00010000                1.72887578               -1.04978176               -3.94832796               -7.14104784               14.95625831                1.71208723
              19.41427521                6.73562039               71.46502836                0.00010000                2.58723186               -0.14960238               -6.30458489              -10.97990591               16.66572949                2.54212229
              20.44337716                6.15022583               71.17292723                0.00010000                3.06269200                2.68125073               -9.83093994              -14.18602560               17.53586573                3.31169709
              21.47552905                5.55253146               70.87305462                0.00010000                3.20517524                7.09752949              -15.00554767              -14.44598513               16.10378527                4.80557419
              22.50748066                4.98032972               70.54219211                0.00010000                3.41292383               12.72398835              -20.27465029               -9.46791533               10.02940236                6.66365508
              23.54378753                4.47359227               70.14411843                0.44362906                3.63068650               14.05891981              -23.03936348               -4.18397902                4.36331482                7.61893151
              13.85545148               10.74908110               73.49249389                0.95501996               -0.02588237               -0.06078368                0.25305604               -0.02724842               -0.01228011                0.72915224
              14.85519265               10.28181490               73.03841266                0.27770945                0.02664611               -0.00152780               -0.06955915               -0.03139762                0.13902101               -0.45532968
              15.85598440                9.81373799               72.58725265                0.00010000               -0.19125845                0.00787239               -0.48672737               -1.19577282                6.92276619               -1.84229066
              16.85136748                9.32218700               72.26936154                0.00010000               -0.16604794                0.05980606               -1.31073613               -2.73399416               13.79591386               -1.47342579
              17.85266344                8.81525745               71.95579335                0.00010000                0.50584088               -0.02020646               -2.50340009               -4.28446386               14.58666386               -0.88083378
              18.86148430                8.28955693               71.65131323                0.00010000                1.21081305                0.20988279               -4.15471585               -6.40677102               15.79209295               -0.29533409
              19.87687970                7.74391483               71.35698799                0.00010000                1.80764961                1.27427767               -6.46614468               -8.65474466               17.03015159                0.18369926
              20.89763729                7.18339671               71.06880951                0.00010000                2.39836762                3.42685539               -9.79998562               -9.98737876               17.57596538                0.58012957
              21.92484705                6.62275831               70.77388368                0.00010000                3.22482623                6.35229334              -14.26582454               -9.22981921               15.76083897                0.84998310
              22.96213382                6.08330520               70.44532895                0.00010000                4.26260157                8.80932594              -18.81782076               -5.66956677                9.77371892                0.88040641
              24.01009909                5.58658716               70.04904981                0.44376011                4.79652667                9.40148564              -21.20976384               -2.70087076                4.38262324                1.03863218
              14.32214902               11.74860491               73.35937805                0.96336968                0.01086494               -0.03315382                0.13751133               -0.02677923               -0.00491034                0.78083867
              15.32225767               11.28202207               72.89923106                0.29381381                0.06919390                0.04367068               -0.19790595               -0.05036839                0.12769544               -0.48381958
              16.32353290               10.81423067               72.44174108                0.00010000                0.04676047                0.09544022               -0.66423233               -1.18204431                7.50056734               -1.80484926
              17.32319288               10.32406498               72.12984736                0.00010000                0.15527958                0.26239842               -1.38601763               -2.57785028               14.81874139               -1.84181136
              18.32663849                9.81793921               71.82257090                0.00010000                0.58234202                0.38985700               -2.51439765               -3.82190575               15.34844475               -1.66637860
              19.33483972                9.29617646               71.52259014                0.00010000                1.03510239                0.82786330               -4.10106674               -5.16937580               16.13808802               -1.40399214
              20.34734053                8.76110594               71.23039945                0.00010000                1.49731965                1.82596986               -6.28073450               -6.32121058               16.91840986               -1.16881266
              21.36478611                8.21876294               70.94225686                0.00010000                2.18418200                3.40501968               -9.34391011               -6.71560672               17.03915025               -0.98832795
              22.39102417                7.67957733               70.64563537                0.00010000                3.27371826                5.20492204              -13.42423210               -5.81807515               15.03019089               -0.85079267
              23.43026047                7.15651624               70.31589911                0.00010000                4.60910141                6.56384070              -17.57950597               -3.50292893                9.20100214               -0.63183518
              24.48320620                6.66162198               69.92003997                0.44470113                5.29457280                6.68883565              -20.08811540               -1.79617260                4.24560550               -0.24379017
              14.78808158               12.74841802               73.22649041                0.96763475                0.04779463               -0.00307110                0.01729982               -0.02507491               -0.00190968                0.80272573
              15.78855953               12.28268831               72.75974544                0.31418324                0.11095096                0.08983473               -0.32756353               -0.05368652                0.16568192               -0.54272758
              16.79030060               11.81564680               72.29647871                0.00010000                0.37712081                0.18653102               -0.86333417               -1.11139186                8.07564703               -1.53690380
              17.79610194               11.32743497               71.98896736                0.00010000                0.69066225                0.28474072               -1.41081146               -2.20974660               15.59804754               -1.80774618
              18.80411385               10.82305459               71.68441455                0.00010000                0.94140526                0.44466040               -2.41255566               -2.96961483               15.75266281               -1.78605057
              19.81493005               10.30611420               71.38597815                0.00010000                1.18775836                0.96382834               -3.87212043               -3.65438539               16.14422215               -1.70774289
              20.82786901                9.78043423               71.09345710                0.00010000                1.49618644                1.84978486               -5.87200127               -4.11779042               16.51179398               -1.64593451
              21.84485378                9.25149711               70.80334145                0.00010000                2.14316183                3.06305754               -8.69877994               -4.07783442               16.34268731               -1.57207175
              22.87073225                8.72685675               70.50406589                0.00010000                3.25884046                4.39287027              -12.59430156               -3.32250593               14.28004696               -1.42423544
              23.91003059                8.21458202               70.17269949                0.00010000                4.66159537                5.42846027              -16.74975007               -1.91828306                8.69030226               -1.08342033
              24.96396416                7.72036387               69.77800987                0.44639989                5.39335698                5.65856693              -19.58071060               -1.13243133                4.12932553               -0.61824198
              15.25310693               13.74854349               73.09331067                0.87292774                0.08482277                0.02920281               -0.10768900               -0.02188168                0.04819593                0.74556010
              16.25395516               13.28381876               72.61989387                0.24231358                0.17257343                0.13389207               -0.45200167               -0.04158064                0.60245441               -0.57307784
              17.25655840               12.81796129               72.15781288                0.00010000                0.88174927                0.23447672               -1.06129566               -1.08618295                8.86543131               -1.22536902
              18.27159015               12.32975979               71.85006023                0.00010000                1.60042797               -0.11225511               -1.40578932               -1.48588083               16.11898765               -1.23245670
              19.28856696               11.82683241               71.54696570                0.00010000                1.63911109                0.21437903               -2.23215233               -1.71690469               15.94673763               -1.19678184
              20.30437237               11.31545303               71.24843063                0.00010000                1.55174273                0.78990176               -3.51959222               -1.90081836               15.92775051               -1.21582650
              21.31960182               10.79810164               70.95408301                0.00010000                1.62172683                1.60100389               -5.28931652               -2.00650522               15.92809809               -1.24792983
              22.33680691               10.28002409               70.66085924                0.00010000                2.09436639                2.61776018               -7.81294872               -1.83315332               15.51419267               -1.26180552
              23.36148915                9.76743473               70.35830593                0.00010000                3.07903923                3.74722474              -11.45268335               -1.35470522               13.48689850               -1.23893519
              24.39838769                9.26508545               70.02500459                0.00010000                4.37523627                4.74816061              -15.55109851               -0.70560354                8.21397499               -1.10010565
              25.44899387                8.77479332               69.63066806                0.44889856                5.06061797                5.32924625              -18.80061784               -0.65385769                3.92405985               -0.89671538
              15.71709340               14.74900208               72.95886691                0.92052280                0.12167112                0.04585888               -0.22650355                0.03505451                0.33509745                0.69929285
              16.71831011               14.28536616               72.48054863                0.60406845                0.27712530                0.15473939               -0.57360300                0.00220772                1.26696177               -0.59681445
              17.72263591               13.82033633               72.02123749                0.37396106                1.96015450                0.23750402               -1.33276439               -1.40106396               10.08322877               -1.29323027
              18.75751320               13.32518987               71.71864011                0.36427680                3.07233051               -0.45699280               -1.32255172               -1.05740231               16.64127057               -0.48147982
              19.78408252               12.82734217               71.41610563                0.36096008                2.40656255                0.05097597               -1.99429070               -0.61232619               16.00544140               -0.52737239
              20.80564445               12.32191223               71.11720359                0.36321871                1.95426640                0.64592042               -3.07075125               -0.61718469               15.70668251               -0.57356279
              21.82316785               11.81245431               70.82112937                0.37134454                1.66065828                1.43526694               -4.53191992               -0.54639320               15.41747515               -0.65140529
              22.83885762               11.30385231               70.52509916                0.38545984                1.77044707                2.38282203               -6.61794757               -0.32758201               14.86015604               -0.73068861
              23.85857679               10.80180124               70.22001913                0.40623885                2.48511544                3.43665109               -9.69752921               -0.00658975               12.94672023               -0.91054942
              24.88855993               10.30954523               69.88605596                0.43139089                3.64472354                4.44597832              -13.31697913                0.27460145                7.97395331               -1.06399990
              25.93147126                9.82694879               69.49165220                0.72518649                4.29113298                5.21554772              -16.46667360               -0.01190461                4.15245989               -1.30665608
              11.46677938                4.89855234               75.29767794                1.00000000               -0.20842654               -0.22582430                0.79157249               -0.04583786               -0.38771747                0.49543845
              12.46469511                4.42263529               74.86768595                1.00000000               -0.18137277               -0.15824576                0.57928462               -0.02627152               -0.46740312                0.05569386
              13.46315192                3.94638140               74.43548891                1.00000000               -0.12558734               -0.09136172                0.36738168               -0.02627007               -0.48350825               -0.05874463
              14.46218336                3.46954744               74.00504455                0.63531307               -0.09184730               -0.02395117                0.15186572               -0.07439128               -0.44732104               -0.34831146
              15.46131498                2.99140219               73.57392389                0.46510200               -0.05782310                0.05480962               -0.06494820               -0.10830697               -0.41227137               -0.30296196
              16.46102690                2.51203089               73.14483408                0.16229544               -1.10350930                0.10505935               -0.30999911               -1.20285097                0.72754276               -0.55804011
              17.43924479                2.01044851               72.73757345                0.00010000               -5.88890145                1.45102204               -0.32811515              -10.26779887               11.61321460               -2.52912714
              18.34324887                1.30924017               72.52981827                0.00010000               -3.97414699                0.77589613               -2.06819974               -9.70272400               22.16126147                1.06103687
              19.35976185                0.60418136               72.29098594                0.00010000                6.02255239               -1.25686694               -2.60500376               -8.25055065               19.78557105                1.49320233
              20.46369992               -0.09571034               72.02918318                1.00000000                5.58758872                0.55693036               -2.49985388               -7.82919055                8.87885629               -0.07113275
              21.47151362               -0.63593482               71.59029746                1.00000000                0.78137025                0.58575610               -2.59547854               -0.18010953               -0.00797725               -0.05756658
              11.94223804                5.89629409               75.16301431                1.00000000               -0.17201782               -0.21197813                0.68881138               -0.01142827                0.02922405                0.69777224
              12.94051786                5.42105283               74.73283313                1.00000000               -0.14024495               -0.14563779                0.47705089                0.00696934                0.10656663                0.07980389
              13.93943314                4.94546778               74.30366812                1.00000000               -0.07944042               -0.07872663                0.26632349                0.00491101                0.15638323               -0.25121281
              14.93892906                4.46930793               73.87444091                0.74933181               -0.02214815               -0.02089658                0.06377185               -0.02684145                0.25556390               -0.31283745
              15.93899018                3.99195029               73.44771728                0.63943296                0.02730893                0.05123700               -0.17119752               -0.05516634                0.27486623               -0.24625390
              16.93947524                3.51308149               73.01981400                0.33497226               -0.05140089                0.11253703               -0.41337226               -0.47976907                0.37565859               -0.43074671
              17.93796216                3.02495873               72.59649988                0.00010000                0.49399858                0.78952954               -0.72585856              -10.53011257               11.31743582               -1.29023657
              18.94935521                2.31699913               72.38901175                0.00010000                2.08847164               -1.23020461               -2.18157323              -14.61827002               19.74717779                2.68459028
              19.97973160                1.59161269               72.12662572                0.00010000                2.80554513               -0.37863686               -2.41715672              -12.08811272               15.56962844                2.45739798
              21.00546611                0.90985897               71.82837437                1.00000000                1.51027104                0.39540839               -1.40278369               -6.92936654                7.02963667               -0.08498246
              22.00993702                0.36992274               71.38949119                1.00000000                0.44709078                0.42183810               -1.48551868               -0.15443409                0.00608642               -0.09352531
              12.41703333                6.89431277               75.03155825                1.00000000               -0.13725208               -0.18053762                0.58356318               -0.01549839                0.16872756                0.82231650
              13.41566081                6.41972253               74.59815252                1.00000000               -0.10191438               -0.11842773                0.37423822               -0.00116797                0.36317914               -0.00365922
              14.41499504                5.94480687               74.16819268                0.00010000               -0.02483891               -0.04773043                0.16457532               -0.02716227                0.88489764               -0.68610667
              15.41516403                5.46912951               73.74526558                0.00010000                0.07215258               -0.62059095               -0.01732376               -0.61074625                1.28910574                0.82396882
              16.41643809                4.99242693               73.32394595                0.00010000                0.16295249               -1.15487144               -0.27340440               -0.78895886                1.13178662                2.44311502
              17.41842308                4.51428163               72.89917510                0.00010000                0.41434004               -2.13152269               -0.51736222               -0.70032500                1.20174523                4.70941688
              18.42472489                4.02623910               72.48105999                0.00010000                3.29032137               -5.38291143               -0.86765494              -11.23544689               12.78651838                8.75131328
              19.48422951                3.28463608               72.29037492                0.00010000                5.02074318               -2.41917233               -3.63079783              -18.94381825               18.73813435                6.02856227
              20.52513976                2.59660862               71.98306052                0.00010000                3.12865189                0.58848293               -3.19854190              -15.17850987               10.55842825                5.06504144
              21.54680255                1.91219783               71.62760356                1.00000000                1.15788224                0.10240068               -0.40079541               -7.08484959                4.16206715               -0.02078092
              22.54829740                1.37250194               71.18866335                1.00000000                0.14948573                0.12349752               -0.45766794               -0.14490034                0.01267961               -0.04420326
              12.89110855                7.89268334               74.89861317                1.00000000               -0.11081387               -0.14195932                0.47965366               -0.01931849                0.27811039                0.70425384
              13.89000041                7.41868428               74.46139787                0.41597514               -0.08128149               -0.09064309                0.27392977               -0.00101889                0.48495591               -0.38675006
              14.88948292                6.94451317               74.02796389                0.00010000               -0.54531723               -0.03553816                0.06395679               -0.65505230                2.84996948               -1.19338480
              15.87909407                6.45689611               73.63817000                0.00010000               -0.57120194               -0.92278420               -0.49126829               -1.83591713                5.44454822                1.40427506
              16.87805888                5.96885286               73.25277009                0.00010000                0.62812499               -2.08059920               -1.17218714               -2.36354599                6.46219211                4.25275574
              17.89165657                5.47045103               72.87875635                0.00010000                3.24199503               -4.20190303               -2.14760360               -4.68601032                9.22086347                8.02814422
              18.94289878                4.91730050               72.54314675                0.00010000                5.42263735               -7.84331098               -3.80776874              -10.57036147               11.88986571               12.69617079
              20.00010931                4.26861568               72.21962128                0.00010000                5.28504306               -1.13927676               -5.81586065              -16.72231804               11.71420175                7.54890995
              21.04859964                3.60338235               71.88030088                0.00010000                4.38832446                1.49891885               -6.14334884              -18.59916398                4.39156687                7.71728514
              22.08787580                2.91190698               71.42741668                0.00010000                1.89155767                4.62875122                0.46100212              -12.43564831               -0.66916189                9.41688836
              23.08643080                2.37239269               70.98840646                0.44397326               -0.14450062                5.71433304                0.42010578               -5.32560633               -0.01061424                9.97256989
              13.36464508                8.89147359               74.76408258                0.94922129               -0.08344844               -0.09903058                0.38161901               -0.01628828                0.00502473                0.63341599
              14.36381060                8.41790967               74.31890794                0.28213139               -0.04814608               -0.06925016                0.17452398                0.00056607                0.46997748               -0.58022746
              15.36368216                7.94409610               73.88274679                0.00010000               -0.48522973               -0.08992884               -0.05917382               -0.95128386                4.62612121               -1.81042668
              16.35410600                7.45067383               73.52034688                0.00010000               -0.40349536               -0.50702636               -0.87034520               -2.07382724                8.82267215                0.27271593
              17.35561225                6.95081495               73.16374331                0.00010000                1.10746147               -1.50614286               -1.88308353               -3.21717130               10.04861684                2.31267000
              18.37625523                6.43024357               72.81976673                0.00010000                2.97703804               -2.96573814               -3.29280684               -6.14400606               11.68330166                4.38462519
              19.41515302                5.86937288               72.48914603                0.00010000                4.37230308               -3.04059735               -5.27379832              -11.64589119               12.83757936                5.35403340
              20.46370130                5.26185054               72.16158555                0.00010000                4.73560834                0.33102678               -7.73805146              -16.49138205               11.87897654                6.33557350
              21.50986518                4.62658700               71.80794536                0.00010000                3.26889741                3.99441359               -9.74389476              -18.00832324                8.41340672                7.91512072
              22.52907924                4.00477286               71.41493400                0.00010000                0.54743410               10.05984636              -10.82647400              -12.91074696                4.08036801               14.41525148
              23.52081386                3.48678860               70.98750809                0.44095944               -0.82653794               11.73003648              -11.03768223               -6.68866433                1.41839077               16.02937318
              13.83791061                9.89070273               74.62907014                0.95243255               -0.05213947               -0.06215748                0.27710916               -0.02125267               -0.00341937                0.66446433
              14.83738922                9.41729928               74.17827943                0.27574682               -0.01087617               -0.04541962                0.07456858               -0.04907667                0.20859667               -0.47537188
              15.83769309                8.94271460               73.73153714                0.00010000               -0.32452686               -0.10203466               -0.20497527               -1.14566288                5.77617846               -2.03000537
              16.83089868                8.44675559               73.39223465                0.00010000               -0.17736884               -0.27467790               -1.13767382               -2.55196339               11.40383336               -0.73206505
              17.83414571                7.93873000               73.05473310                0.00010000                0.96599174               -0.79481090               -2.33169569               -4.05251670               12.14364351                0.46928493
              18.85021851                7.41113627               72.72480026                0.00010000                2.21141399               -1.10707325               -3.92445368               -6.82546307               13.20917935                1.50771887
              19.87837399                6.85648855               72.40190766                0.00010000                3.14245177               -0.30100623               -6.07509793              -10.47044575               13.87278867                2.38629558
              20.91306755                6.27523622               72.07769754                0.00010000                3.35684370                2.15986834               -8.83380148              -13.51958718               13.33748320                3.32950293
              21.94551087                5.68327062               71.73811131                0.00010000                2.81958586                5.98006658              -12.01633632              -13.89953401               10.83316632                5.11436117
              22.96945927                5.11310391               71.36561374                0.00010000                2.15575802               10.13056753              -15.00732435               -9.10714650                6.25311587                7.16522603
              23.98862603                4.60699342               70.94813016                0.44148893                1.91667584               11.18478571              -16.34021466               -3.90434496                2.68390488                7.93232245
              14.31102694               10.89023044               74.49461315                0.97158326               -0.02097377               -0.03455371                0.17316153               -0.02209900               -0.01085845                0.72924525
              15.31081720               10.41700128               74.03792033                0.29513283                0.01428289               -0.01178848               -0.02922194               -0.07672795                0.08768180               -0.46623765
              16.31131259                9.94205541               73.58310096                0.00010000               -0.18829328               -0.02117763               -0.31697055               -1.23471859                6.54979981               -1.83620629
              17.30705133                9.44518027               73.25626437                0.00010000               -0.05656787               -0.01432440               -1.29689334               -2.74701327               13.04503399               -1.42772863
              18.31018124                8.93491873               72.93037954                0.00010000                0.74680444               -0.07090560               -2.54625714               -4.22655439               13.50517044               -0.83233226
              19.32198742                8.40810211               72.60915389                0.00010000                1.57314578                0.17259587               -4.18843474               -6.27971282               14.18995825               -0.24547188
              20.34164415                7.86335275               72.29175379                0.00010000                2.22700298                1.18455904               -6.36179954               -8.50766045               14.59759769                0.30553208
              21.36652748                7.30504791               71.97225882                0.00010000                2.61813308                3.21369367               -9.16207418               -9.93748776               14.05236853                0.92112996
              22.39400681                6.74618833               71.63877336                0.00010000                2.83430192                5.95014411              -12.41988696               -9.30201515               11.73263978                1.61191536
              23.42321352                6.20738421               71.27443752                0.00010000                3.04705669                8.38418239              -15.36512978               -5.79676475                6.93940799                2.24103560
              24.45494795                5.71048431               70.85916456                0.44248610                3.17344280                8.99199012              -16.81809481               -2.71935932                3.09614473                2.30111953
              14.78392694               11.89001165               74.36038352                0.98038779                0.01027413               -0.00896827                0.06769558               -0.02046859               -0.00261716                0.77388710
              15.78402968               11.41706351               73.89759694                0.31398180                0.04463913                0.02399201               -0.13067370               -0.08060400                0.07078284               -0.49277809
              16.78481973               10.94229104               73.43629090                0.00010000               -0.04672944                0.05410666               -0.41783163               -1.19466682                7.15053916               -1.77530248
              17.78309510               10.44646910               73.11600593                0.00010000                0.09365296                0.22579051               -1.36734165               -2.58260175               14.15605612               -1.74662010
              18.78669279                9.93731189               72.79691691                0.00010000                0.65475684                0.39825226               -2.58743485               -3.78187160               14.40040214               -1.52520014
              19.79619023                9.41458819               72.48081337                0.00010000                1.22910983                0.85242858               -4.18677920               -5.13428132               14.78066787               -1.24099575
              20.81127498                8.88017973               72.16668790                0.00010000                1.76459910                1.82706611               -6.28363409               -6.32451369               14.92286828               -0.96172509
              21.83148221                8.33951009               71.84916725                0.00010000                2.29296409                3.36046922               -8.95864894               -6.78466025               14.21551665               -0.70159851
              22.85713426                7.80227350               71.51718897                0.00010000                2.88728886                5.15988619              -12.03415656               -5.94802214               11.79832534               -0.47810573
              23.88922799                7.28078756               71.15341397                0.00010000                3.54521814                6.55978791              -14.86613419               -3.57923321                6.97337123               -0.37722560
              24.92803863                6.78683322               70.73765942                0.44296476                3.88106346                6.73065698              -16.43218514               -1.72095959                3.19017977               -0.48522492
              15.25651386               12.89005107               74.22634220                0.98422123                0.04118683                0.01732729               -0.04055381               -0.01853451               -0.00034087                0.78658458
              16.25692573               12.41748112               73.75698892                0.33675971                0.07499021                0.05946154               -0.22881295               -0.07621828                0.09821249               -0.54607122
              17.25801366               11.94313754               73.28973897                0.00010000                0.17263619                0.10582265               -0.51521110               -1.06108630                7.76623031               -1.50492424
              18.26037845               11.44969608               72.97490944                0.00010000                0.42055248                0.31407130               -1.38478740               -2.14361825               15.07868815               -1.69680815
              19.26642471               10.94288377               72.65968284                0.00010000                0.80277491                0.55013523               -2.51407518               -2.92985232               15.00569344               -1.62540881
              20.27643395               10.42515068               72.34638184                0.00010000                1.19036296                1.06911458               -4.00883931               -3.67890369               15.09201858               -1.52691978
              21.29023197                9.89989408               72.03361639                0.00010000                1.61532761                1.91805417               -5.96628126               -4.20549285               14.97651985               -1.45046443
              22.30874050                9.37225729               71.71627202                0.00010000                2.17684671                3.06560761               -8.46682012               -4.20596670               14.09631698               -1.40586898
              23.33376891                8.84938606               71.38372130                0.00010000                2.91643188                4.30492306              -11.37268358               -3.45120163               11.62875457               -1.39403345
              24.36706914                8.33857996               71.01909704                0.00010000                3.73342605                5.24868480              -14.14646796               -1.96454351                6.86484690               -1.44739318
              25.40843743                7.84509745               70.60206515                0.44392738                4.13682879                5.34637022              -15.89629905               -1.00305986                3.19582220               -1.69196270
              15.72869615               13.89035820               74.09196568                0.88440545                0.07226936                0.04539371               -0.15255017               -0.01663799                0.05118946                0.72526253
              16.72941885               13.41825274               73.61607487                0.26181564                0.13434431                0.09327408               -0.32260517               -0.07236642                0.50508520               -0.56975061
              17.73138304               12.94440750               73.14950556                0.00010000                0.55288266                0.12105783               -0.65077700               -0.93222204                8.56642728               -1.20778793
              18.74047650               12.45275052               72.83611942                0.00010000                1.06290497                0.07444539               -1.37680081               -1.36221899               15.77255498               -1.13401571
              19.75264114               11.94831459               72.52389871                0.00010000                1.25626780                0.43527309               -2.37891570               -1.68813434               15.46023546               -1.08742909
              20.76560186               11.43597048               72.21212827                0.00010000                1.37086864                0.99120977               -3.73521787               -1.96419023               15.24868608               -1.08611829
              21.78005851               10.91854082               71.89973423                0.00010000                1.61345214                1.74873809               -5.51058351               -2.13281154               14.91215628               -1.10836691
              22.79787090               10.40082224               71.58189774                0.00010000                2.08645236                2.66398937               -7.79588438               -2.01028672               13.91723238               -1.16052067
              23.82178756                9.88837197               71.24855524                0.00010000                2.81774134                3.60971475              -10.49978496               -1.52030539               11.46350728               -1.23714985
              24.85422573                9.38576125               70.88310262                0.00010000                3.65774473                4.36768463              -13.18400823               -0.78313651                6.77851645               -1.32815159
              25.89494245                8.89376062               70.46399306                0.44542723                4.07167279                4.63196978              -15.09660400               -0.47795415                3.26219174               -1.71889261
              16.20039203               14.89095895               73.95639039                0.92474481                0.10370769                0.06007454               -0.26005152                0.00835298                0.32365952                0.67711829
              17.20142910               14.41934660               73.47566228                0.60921888                0.22397045                0.10938656               -0.41893382               -0.06898669                1.09531375               -0.58610484
              18.20487144               13.94555870               73.01070453                0.37304005                1.38989361                0.11512031               -0.83517569               -1.05924112                9.76054051               -1.23518241
              19.22922698               13.45118499               72.70515570                0.36398672                2.22853179               -0.15655356               -1.36510349               -0.82342571               16.58814373               -0.48922864
              20.24944207               12.95158923               72.39494744                0.36085617                1.88484735                0.32746421               -2.24790719               -0.63041245               15.81904383               -0.51838106
              21.26692392               12.44497488               72.08462309                0.36310705                1.66409527                0.90043960               -3.46191587               -0.70381327               15.44711757               -0.55080808
              22.28272398               11.93486884               71.77298589                0.37064287                1.58898474                1.63280216               -5.04844899               -0.70534332               15.00190098               -0.61998357
              23.29870362               11.42553708               71.45569285                0.38360367                1.78499078                2.47148353               -7.09255305               -0.58115244               14.01475396               -0.73411305
              24.31842379               10.92158035               71.12333651                0.40288414                2.36570672                3.32083857               -9.55377564               -0.31654787               11.71597945               -0.90779438
              25.34601775               10.42593366               70.75988626                0.42733428                3.22279045                4.01724053              -12.06614921               -0.01297260                7.17032804               -1.11504000
              26.38287960                9.93773685               70.34083088                0.72315003                3.68618492                4.39762241              -13.97570727               -0.02596622                3.86616186               -1.72165768
              11.89394960                5.03866731               76.30487772                1.00000000               -0.17831516               -0.18452866                0.65117862               -0.03130132               -0.38797253                0.49227630
              12.89216644                4.55855121               75.87318186                1.00000000               -0.16293142               -0.14277120                0.52021544               -0.01421106               -0.46858430                0.05494101
              13.89069097                4.07812973               75.43928162                1.00000000               -0.13057755               -0.10051472                0.38915678               -0.01387141               -0.48584292               -0.05644460
              14.88955489                3.59719124               75.00710051                0.64383530               -0.11609655               -0.05843023                0.25479530               -0.05571249               -0.44932917               -0.33112025
              15.88836904                3.11510485               74.57424600                0.46668097               -0.09980574               -0.00747225                0.12173531               -0.08511801               -0.42563902               -0.30290719
              16.88755878                2.63198692               74.14315083                0.15051941               -1.20209084                0.01754148               -0.03598252               -1.16380111                0.81663831               -0.55756787
              17.86432722                2.12707384               73.73616739                0.00010000               -4.97163728                1.39158300                0.00535193               -8.33004162               11.01221309               -2.75390707
              18.78812603                1.45858087               73.51059260                0.00010000               -2.83225819                0.32243700               -1.75578133               -7.96319173               20.94626315                0.65384303
              19.80768206                0.77948275               73.26581888                0.00010000                5.75770872               -1.34712827               -2.40070782               -7.13795086               19.45299619                1.03769675
              20.90328021                0.09917555               73.00464964                1.00000000                5.15777952                0.56525895               -2.45296301               -6.86374115                8.93871918               -0.04705809
              21.91083765               -0.44082687               72.56513605                1.00000000                0.75574389                0.57847535               -2.48759002               -0.16364948                0.00266025               -0.01827470
              12.37375269                6.03682203               76.16925049                1.00000000               -0.14595683               -0.17213592                0.56103066               -0.00994689                0.02686210                0.69195451
              13.37229312                5.55712349               75.73737169                1.00000000               -0.12602292               -0.13205684                0.43077239                0.00642976                0.10364754                0.07874145
              14.37123223                5.07712459               75.30651701                1.00000000               -0.08914560               -0.09022580                0.30105069                0.00495785                0.15866562               -0.24786151
              15.37051021                4.59660694               74.87568636                0.77664143               -0.05561085               -0.05642204                0.17996346               -0.02232123                0.24906258               -0.28940246
              16.37012002                4.11503012               74.44705354                0.65641073               -0.02869702               -0.00969810                0.03000432               -0.04818875                0.25338847               -0.23967338
              17.36993627                3.63216234               74.01717410                0.33640997               -0.11950924                0.02553119               -0.12528393               -0.43164504                0.32186599               -0.42285813
              18.36772983                3.14098967               73.59119359                0.00010000                0.61766949                0.70334760               -0.34426552               -8.83321101               10.69587887               -1.42733637
              19.38228966                2.46180524               73.37001099                0.00010000                2.41376874               -1.48474925               -1.67812023              -12.20119909               19.02298339                1.75531729
              20.41600521                1.76601146               73.10485819                0.00010000                3.12539708               -0.63511352               -2.01432672              -10.17199260               15.85465991                1.61548616
              21.44479760                1.10482814               72.81412200                1.00000000                1.65991794                0.41293305               -1.43393111               -5.91544957                7.43986227               -0.05469016
              22.44920357                0.56495789               72.37466470                1.00000000                0.44059627                0.42620208               -1.46786182               -0.14987426                0.00032431               -0.04178408
              12.85314773                7.03522460               76.03680740                1.00000000               -0.11552475               -0.14332842                0.46856085               -0.01368096                0.16478210                0.81495590
              13.85199248                6.55591007               75.60172865                1.00000000               -0.09205263               -0.10896809                0.34091260               -0.00093311                0.35825821               -0.00335467
              14.85130668                6.07632522               75.17009272                0.00010000               -0.03947747               -0.06443594                0.21279116               -0.02398637                0.89398646               -0.68188376
              15.85120293                5.59606280               74.74576458                0.00010000                0.02715949               -0.62730113                0.11081870               -0.49250675                1.27704143                0.63993903
              16.85184986                5.11491088               74.32231869                0.00010000                0.08817011               -1.14127569               -0.06085978               -0.53386399                1.09626993                2.02960832
              17.85296633                4.63249755               73.89556714                0.00010000                0.30851180               -2.04638816               -0.21585087               -0.26526405                1.12960581                3.94024560
              18.85802010                4.14114079               73.47444581                0.00010000                3.30569609               -4.98294442               -0.46488309               -9.12215903               11.61019566                7.37699969
              19.91908025                3.42888588               73.25986866                0.00010000                5.15996011               -2.61911808               -2.66713901              -15.72895712               17.56963002                4.34435068
              20.96121930                2.76678048               72.95715814                0.00010000                3.34722695                0.07004795               -2.30896262              -12.46569601               11.76270764                3.05722935
              21.98602479                2.10743421               72.62311914                1.00000000                1.31806789                0.12490742               -0.45072410               -5.83395647                5.27433619               -0.05669626
              22.98758066                1.56769717               72.18371643                1.00000000                0.15558672                0.13724838               -0.48188175               -0.14657441               -0.00277283               -0.05656980
              13.33210813                8.03395546               75.90288766                1.00000000               -0.09342890               -0.10735827                0.37726249               -0.01508108                0.27379852                0.69952733
              14.33117384                7.55494413               75.46404212                0.42793125               -0.07541789               -0.08727316                0.25452992                0.00318651                0.47634582               -0.38334558
              15.33059977                7.07583587               75.02890612                0.00010000               -0.45497147               -0.07707553                0.12226111               -0.59954296                2.64940102               -1.19598713
              16.32207441                6.58406092               74.63363075                0.00010000               -0.37958889               -0.94520582               -0.40647340               -1.60613209                4.97108582                1.07793371
              17.32300799                6.09220461               74.24165941                0.00010000                0.81633372               -2.05237195               -1.01993182               -1.88925441                5.73105017                3.54056922
              18.33840108                5.59123458               73.85852519                0.00010000                3.29451621               -4.01481972               -1.85313669               -3.69972677                7.88539625                6.74906821
              19.38889832                5.04133078               73.50775989                0.00010000                5.18348740               -7.29570751               -3.15432192               -8.50870944               10.00397404               10.71119322
              20.44207083                4.40942287               73.17132601                0.00010000                4.96223213               -1.52394847               -4.29008377              -13.79747684               10.16375707                5.68689764
              21.48814296                3.76741242               72.83248637                0.00010000                4.25654716                0.72596069               -4.19310545              -15.22627820                6.85823539                4.74644675
              22.52720178                3.10732629               72.43233882                0.00010000                1.88015921                3.57495967                0.45108115              -10.55684032                1.95318318                4.51596950
              23.52574614                2.56770285               71.99292631                0.43446373               -0.14556315                4.92876768                0.42392075               -5.16520695                0.01984776                5.20715092
              13.81086876                9.03307743               75.76743098                0.96506726               -0.06929606               -0.06880824                0.29014562               -0.01295728               -0.00042048                0.62707695
              14.81017580                8.55416460               75.32065515                0.29741192               -0.03348674               -0.07056640                0.17369389               -0.01100555                0.44794477               -0.57663523
              15.81019903                8.07478371               74.88256639                0.00010000               -0.37321277               -0.13584639                0.02096968               -0.91084457                4.25584464               -1.80435976
              16.80271155                7.57715869               74.51186844                0.00010000               -0.16539534               -0.58754262               -0.80548841               -1.93608721                8.01528575                0.08454757
              17.80689112                7.07386345               74.14525518                0.00010000                1.35670405               -1.55559027               -1.76786569               -2.89802865                8.88106792                1.87844720
              18.82984563                6.55220115               73.78773906                0.00010000                3.13832458               -2.92442785               -3.01761134               -5.41981704                9.91694449                3.67388050
              19.86965761                5.99522664               73.43946058                0.00010000                4.36017236               -3.02961231               -4.57484688              -10.19294256               10.38675193                4.47833950
              20.91704907                5.39840691               73.09257607                0.00010000                4.45663581               -0.16401307               -6.16906247              -14.10373103                9.33603120                5.00523033
              21.95879033                4.78129969               72.72837918                0.00010000                2.87742411                2.82891261               -6.96392510              -15.16701497                6.45444601                5.49824295
              22.97459756                4.17893340               72.33265692                0.00010000                0.23665277                7.84022168               -7.05917175              -10.98523999                3.19882264                7.71631521
              23.96352338                3.66627253               71.90728556                0.43576160               -1.10741729                9.64396964               -6.70206867               -5.93175444                1.65323252                8.96855218
              14.28967463               10.03257929               75.63141100                0.97036906               -0.04271825               -0.03623995                0.19377552               -0.01708930               -0.00251469                0.65338866
              15.28924745                9.55353280               75.17911699                0.29450741               -0.01429186               -0.04959837                0.09170455               -0.05888400                0.17289258               -0.47406587
              16.28938880                9.07311894               74.73013824                0.00010000               -0.24872621               -0.12618027               -0.07517170               -1.13927070                5.31435239               -1.97525386
              17.28427293                8.57231007               74.38100555                0.00010000                0.03080785               -0.36487660               -1.08337024               -2.48740444               10.43236261               -0.78690277
              18.29000495                8.06109281               74.03154570                0.00010000                1.21843107               -0.87182262               -2.25071271               -3.82889206               10.81122536                0.31312820
              19.30864155                7.53274602               73.68618759                0.00010000                2.44143764               -1.17833838               -3.69836695               -6.31453450               11.30853772                1.26715495
              20.33883371                6.98073853               73.34352640                0.00010000                3.26408064               -0.49907056               -5.46975133               -9.52671468               11.27527630                2.08454984
              21.37392316                6.40614261               72.99625120                0.00010000                3.27212320                1.59713434               -7.43537413              -12.10659192               10.13203013                2.92682084
              22.40427617                5.82399068               72.63272789                0.00010000                2.43004882                4.73096332               -9.34090679              -12.17405372                7.68503210                4.15709179
              23.42252414                5.26413072               72.24204563                0.00010000                1.40783153                8.06961436              -10.73101172               -7.87376029                4.15129099                5.57682202
              24.43243280                4.76058225               71.81731413                0.43702497                0.99086636                8.84038748              -11.18845373               -3.40262120                1.79347632                5.79241607
              14.76861996               11.03235263               75.49595712                0.99059749               -0.01614830               -0.01128434                0.09887680               -0.01823970               -0.00888261                0.71465822
              15.76845848               10.55317264               75.03782822                0.31653394                0.00081954               -0.02174438                0.00895176               -0.07870221                0.05687267               -0.46362000
              16.76863635               10.07226010               74.58091324                0.00010000               -0.17344418               -0.05161624               -0.13473028               -1.22827938                6.06016914               -1.75501156
              17.76498959                9.56986116               74.24342368                0.00010000                0.06204890               -0.09112785               -1.24434769               -2.72090236               12.03005193               -1.36926313
              18.76987733                9.05642699               73.90486821                0.00010000                0.94598079               -0.14804552               -2.50224392               -4.06963197               12.17222956               -0.78314094
              19.78390921                8.52863439               73.56754454                0.00010000                1.79246978                0.06912895               -4.03539578               -5.95706148               12.35988095               -0.19460525
              20.80572672                7.98524523               73.22975200                0.00010000                2.38779430                0.96351552               -5.89943089               -7.98372371               12.12784581                0.39352902
              21.83166509                7.43034960               72.88556802                0.00010000                2.57972126                2.72875813               -8.05357139               -9.23270294               11.01061781                1.05963392
              22.85732115                6.87591896               72.52548594                0.00010000                2.44328429                5.05383006              -10.27127156               -8.57780590                8.62311641                1.83070581
              23.88053078                6.34032569               72.13802636                0.00010000                2.26233774                7.00907450              -12.08849989               -5.30526857                4.84518010                2.42382016
              24.90256790                5.84308028               71.71268792                0.43817934                2.20371236                7.42173231              -12.81698122               -2.42023665                2.18098142                2.23625900
              15.24766983               12.03235361               75.36073196                0.99939485                0.00961087                0.01074601                0.00701337               -0.01750083               -0.00060644                0.75266381
              16.24776594               11.55309792               74.89661758                0.33708158                0.02324316                0.00581591               -0.06916493               -0.07992319                0.04315991               -0.48424258
              17.24813469               11.07208662               74.43338445                0.00010000               -0.10389743                0.00367753               -0.19001507               -1.17710370                6.66787242               -1.69691529
              18.24568799               10.57048751               74.10250053                0.00010000                0.08521964                0.17620778               -1.31250412               -2.56062408               13.18450428               -1.61734926
              19.24983908               10.05813189               73.77082220                0.00010000                0.74970474                0.35688120               -2.58371264               -3.67404640               13.16857156               -1.35719648
              20.26068208                9.53412860               73.43885455                0.00010000                1.38024673                0.78132603               -4.11794952               -4.95976929               13.13863078               -1.02932050
              21.27744402                9.00000884               73.10472677                0.00010000                1.89566456                1.65666912               -5.97531031               -6.08141555               12.75459535               -0.68458196
              22.29859537                8.46071778               72.76308388                0.00010000                2.26499719                3.01498199               -8.12466692               -6.49657263               11.57643072               -0.32765568
              23.32274396                7.92506728               72.40495224                0.00010000                2.53310354                4.58454260              -10.35855317               -5.66222021                9.15963618               -0.01416350
              24.34925745                7.40431221               72.01857643                0.00010000                2.78874633                5.78099091              -12.21699615               -3.37987459                5.21688390                0.08929673
              25.37851889                6.90901689               71.59139627                0.43936867                2.92614440                5.85553524              -13.07748120               -1.56070733                2.38778441               -0.31634628
              15.72678133               13.03256755               75.22567933                1.00000000                0.03456781                0.03234688               -0.08536084               -0.01573438                0.00152453                0.75873844
              16.72712700               12.55328896               74.75516918                0.36171181                0.04616777                0.03262340               -0.14261938               -0.07414269                0.07148381               -0.53109616
              17.72770468               12.07233365               74.28617449                0.00010000                0.03024135                0.03766770               -0.24247456               -1.00979679                7.30821418               -1.44708806
              18.72773183               11.57338531               73.96127162                0.00010000                0.25253153                0.31728532               -1.33034748               -2.09044631               14.19994747               -1.54594910
              19.73275531               11.06356462               73.63413305                0.00010000                0.75525206                0.58436691               -2.55768802               -2.86003311               13.93687246               -1.42060909
              20.74283687               10.54426091               73.30580136                0.00010000                1.23769607                1.06804068               -4.03537133               -3.61787607               13.70664190               -1.26732275
              21.75750923               10.01837861               72.97413147                0.00010000                1.69191682                1.82779797               -5.81713916               -4.14901087               13.16885922               -1.12139523
              22.77667521                9.49064924               72.63400505                0.00010000                2.14865390                2.83375330               -7.87647304               -4.15168143               11.90225899               -1.00147789
              23.80048231                8.96760981               72.27661222                0.00010000                2.61542315                3.90046205              -10.02955175               -3.39466405                9.42283857               -0.95492225
              24.82898367                8.45594551               71.88977013                0.00010000                3.07310381                4.67104960              -11.86941322               -1.90780350                5.37915628               -1.10043766
              25.86194439                7.96019098               71.46008389                0.44038217                3.29607158                4.63164206              -12.82578854               -0.87855571                2.51710861               -1.65240733
              16.20591233               14.03300055               75.09025966                0.89695269                0.06046495                0.05637318               -0.18112640               -0.01294184                0.05218705                0.69520516
              17.20651698               13.55375038               74.61344177                0.28381280                0.09650338                0.05901428               -0.21595855               -0.06926660                0.45003259               -0.55134711
              18.20784240               13.07283997               74.14479734                0.00010000                0.30655572                0.04505443               -0.34263011               -0.81342769                8.12119975               -1.16831569
              19.21264810               12.57683322               73.82252422                0.00010000                0.69602130                0.19737082               -1.33726312               -1.28597006               15.02374979               -1.01670116
              20.22176283               12.06981923               73.49938739                0.00010000                1.04312352                0.56562359               -2.49209130               -1.65515554               14.58890976               -0.94039291
              21.23351057               11.55548941               73.17372627                0.00010000                1.31563211                1.08227562               -3.88539372               -1.97714713               14.14747260               -0.89350980
              22.24807547               11.03656480               72.84387134                0.00010000                1.64099904                1.75863590               -5.56044149               -2.17348476               13.48440270               -0.86215333
              23.26633055               10.51739284               72.50494155                0.00010000                2.07394722                2.54652947               -7.49732298               -2.06807106               12.16235924               -0.85871731
              24.28955441               10.00307652               72.14831023                0.00010000                2.60948266                3.32364984               -9.54180095               -1.57194919                9.66847026               -0.90545806
              25.31852020                9.49773320               71.76132442                0.00010000                3.14512049                3.88658205              -11.33706046               -0.79691670                5.54632953               -1.06700614
              26.35245682                9.00164973               71.32873598                0.44152596                3.39366215                3.93245056              -12.34173641               -0.36030367                2.67040455               -1.64212118
              16.68502281               15.03369502               74.95366588                0.93066521                0.08794357                0.06944701               -0.27990905               -0.01152944                0.30983581                0.64656463
              17.68590225               14.55446924               74.47216996                0.61540497                0.16652414                0.07188576               -0.29282057               -0.08448714                0.98786800               -0.56375734
              18.68835330               14.07323474               74.00453397                0.37200412                0.95654593                0.03947716               -0.46443244               -0.80573621                9.31471390               -1.17986350
              19.70503317               13.57733273               73.69133804                0.36381856                1.63213558                0.04995111               -1.38156772               -0.67937560               16.00717151               -0.46190183
              20.72099601               13.07487709               73.37114749                0.36102709                1.57575960                0.50578563               -2.47285868               -0.64799740               15.13391910               -0.47121100
              21.73654836               12.56590642               73.04796528                0.36302994                1.55700502                1.04170075               -3.79632498               -0.76250883               14.58771708               -0.47673968
              22.75213611               12.05355133               72.72016039                0.36968249                1.61268574                1.69865256               -5.38651522               -0.81026565               13.88108689               -0.51367273
              23.76880207               11.54157983               72.38324810                0.38191354                1.82834308                2.41869859               -7.23071729               -0.72627364               12.60207991               -0.58689654
              24.78870297               11.03408281               72.02894361                0.39957311                2.28350240                3.10062878               -9.19686408               -0.48027840               10.22751711               -0.71075777
              25.81447212               10.53367715               71.64473297                0.42340227                2.91011391                3.59439472              -10.95966225               -0.16694854                6.12520913               -0.90437691
              26.84690525               10.03883999               71.21213806                0.72116575                3.24331257                3.71902599              -11.97128429               -0.03887292                3.29063116               -1.53451901
              12.32241166                5.17965233               77.31070152                1.00000000               -0.14921301               -0.14488273                0.51651513               -0.01766884               -0.38848290                0.48916226
              13.32091953                4.69535443               76.87809026                1.00000000               -0.14476254               -0.12735639                0.46180331               -0.00305401               -0.47025930                0.05446230
              14.31951641                4.21078172               76.44327204                1.00000000               -0.13435637               -0.10822766                0.40667259               -0.00251638               -0.48886727               -0.05384869
              15.31823240                3.72575334               76.01014045                0.65215189               -0.13822664               -0.08975268                0.34835797               -0.03849973               -0.45092324               -0.31394866
              16.31675188                3.23972897               75.57635860                0.46924529               -0.13970618               -0.06448454                0.29300633               -0.06418454               -0.43517492               -0.30227966
              17.31543828                2.75283299               75.14411443                0.14195062               -1.23522982               -0.06249765                0.21860914               -1.08712807                0.88307715               -0.55834848
              18.29204728                2.24531796               74.73768049                0.00010000               -4.14578175                1.28156151                0.24498545               -6.76808012               10.41772717               -2.89657099
              19.23252264                1.60348024               74.49470264                0.00010000               -1.86412747               -0.06508226               -1.42863272               -6.56030025               19.66109298                0.36191500
              20.25476473                0.94685669               74.24297178                0.00010000                5.53172481               -1.42735288               -2.17659239               -6.15891588               18.90979643                0.70098419
              21.34315714                0.28440380               73.98012392                1.00000000                4.79146468                0.58918661               -2.45712059               -5.98074649                8.85342228               -0.01631065
              22.35059402               -0.25535763               73.54054566                1.00000000                0.74368839                0.58643050               -2.43233943               -0.14973720                0.00513502                0.00492752
              12.80653287                6.17820350               77.17423492                1.00000000               -0.12085770               -0.13388068                0.43863302               -0.00852274                0.02444244                0.68593030
              13.80532429                5.69408087               76.74144858                1.00000000               -0.11205393               -0.11847092                0.38477361                0.00585329                0.10043462                0.07802111
              14.80429179                5.20969945               76.30968913                1.00000000               -0.09752556               -0.10008197                0.33088510                0.00486879                0.16040890               -0.24365153
              15.80337378                4.72485581               75.87804018                0.80158926               -0.08607924               -0.08847157                0.28538131               -0.01844173                0.24378801               -0.26651164
              16.80257021                4.23908412               75.44831737                0.67276795               -0.08006403               -0.06578758                0.21460463               -0.04193737                0.23645530               -0.23379893
              17.80177250                3.75220801               75.01730833                0.34075383               -0.17636782               -0.05487642                0.14188661               -0.37503728                0.27899128               -0.41671502
              18.79904285                3.25813358               74.58961457                0.00010000                0.71888886                0.59474159                0.02117372               -7.43992873               10.07536546               -1.53576986
              19.81615028                2.60282942               74.35544935                0.00010000                2.68354714               -1.66360853               -1.28477382              -10.25816401               18.24400678                1.04433499
              20.85271379                1.93258316               74.08633918                0.00010000                3.41532786               -0.83658310               -1.74114550               -8.50775295               15.89416904                0.98507768
              21.88445684                1.29029567               73.79969575                1.00000000                1.80721459                0.42216411               -1.47317979               -4.97513250                7.65141312               -0.02898529
              22.88885808                0.75050667               73.36013395                1.00000000                0.44012491                0.42332871               -1.45443551               -0.15623204               -0.00002080               -0.02620686
              13.29048648                7.17697472               77.04092947                1.00000000               -0.09458237               -0.10765977                0.35848922               -0.01183400                0.16084454                0.80650806
              14.28954065                6.69298501               76.60497078                1.00000000               -0.08238177               -0.09949988                0.30756043               -0.00050267                0.35324678               -0.00226287
              15.28883884                6.20878008               76.17244851                0.00010000               -0.05308808               -0.07898423                0.25568587               -0.02052893                0.90155879               -0.67755309
              16.28847889                5.72398391               75.74748195                0.00010000               -0.01389549               -0.62524400                0.22666515               -0.39890809                1.26571344                0.43529246
              17.28856093                5.23841322               75.32272875                0.00010000                0.02045944               -1.11781859                0.13487424               -0.35166078                1.06734774                1.59722616
              18.28888808                4.75173546               74.89485809                0.00010000                0.20331822               -1.94737668                0.06388565                0.01455481                1.07490796                3.18719708
              19.29262729                4.25721279               74.47176232                0.00010000                3.20108512               -4.58119902               -0.07947635               -7.51963966               10.59856054                6.17778694
              20.35290978                3.57020807               74.23703214                0.00010000                5.22580654               -2.65915962               -2.01529404              -13.22900372               16.56619888                2.87787188
              21.39714343                2.93012503               73.93688127                0.00010000                3.64105978               -0.27464562               -1.94589981              -10.26616194               12.55507412                1.51410843
              22.42573098                2.29284708               73.61858908                1.00000000                1.49519727                0.11964632               -0.42385604               -4.74866940                6.08314794               -0.06210102
              23.42704737                1.75310894               73.17902572                1.00000000                0.13163939                0.12299525               -0.42123377               -0.13407926               -0.01030432               -0.06960109
              13.77427560                8.17605031               76.90615842                1.00000000               -0.07667244               -0.07414651                0.27956281               -0.01085049                0.26912999                0.69110209
              14.77350887                7.69209087               76.46648847                0.44269706               -0.06966392               -0.08414542                0.23464123                0.00814426                0.46519259               -0.37643206
              15.77288232                7.20811976               76.03040912                0.00010000               -0.38731932               -0.10016516                0.17631391               -0.54965072                2.42536890               -1.19380777
              16.76576249                6.71235093               75.63004053                0.00010000               -0.25484393               -0.94969653               -0.30100265               -1.40739861                4.46097606                0.71053982
              17.76778544                6.21672775               75.23237145                0.00010000                0.87507672               -1.99578073               -0.82038275               -1.51442004                5.01485863                2.78066184
              18.78326402                5.71326048               74.84169361                0.00010000                3.11960015               -3.78383351               -1.48390623               -2.93587522                6.76580915                5.47340955
              19.83017744                5.16650960               74.48006031                0.00010000                4.76969756               -6.70198222               -2.45847455               -6.90952453                8.57492288                8.83140090
              20.87865797                4.54964623               74.13381961                0.00010000                4.72870508               -1.65890550               -3.28684969              -11.54129066                9.25048173                3.98174199
              21.92475154                3.92709025               73.79643877                0.00010000                4.39207804                0.30926559               -3.66115702              -12.76139073                8.18635623                2.38710948
              22.96649953                3.29268859               73.43643830                0.00010000                2.04506184                2.82726361                0.31152299               -9.28526668                3.97214943                0.92632208
              23.96565278                2.75296658               72.99688487                0.42830063               -0.08467513                4.43314366                0.29881944               -5.09350821                0.01515959                1.88754085
              14.25818834                9.17549179               76.76988549                0.98477063               -0.05542579               -0.04029750                0.20299132               -0.01033085               -0.00477987                0.61245846
              15.25763408                8.69130210               76.32238182                0.31518239               -0.03012884               -0.07229915                0.17052481               -0.00520272                0.42333808               -0.56599531
              16.25758576                8.20677678               75.88316618                0.00010000               -0.29555774               -0.16285470                0.09576410               -0.85514366                3.84358182               -1.77395441
              17.25172293                7.70498998               75.50423711                0.00010000               -0.01113895               -0.64443206               -0.70166194               -1.79515948                7.13851445               -0.13567364
              18.25736299                7.19849760               75.12838599                0.00010000                1.43329007               -1.56741064               -1.56972228               -2.57642237                7.72332889                1.39335274
              19.28038873                6.67605879               74.75941450                0.00010000                3.03440338               -2.82932892               -2.61080794               -4.70899538                8.35636732                2.90792522
              20.31805105                6.12317315               74.39764909                0.00010000                4.05572946               -2.93107342               -3.79206087               -8.76951815                8.53122424                3.46626745
              21.36150332                5.53702996               74.03820430                0.00010000                4.04110969               -0.44327757               -4.89847828              -11.95070598                7.64324140                3.63923227
              22.39887325                4.93631034               73.66866686                0.00010000                2.63229973                2.11077248               -5.34149307              -12.94860364                5.37773222                3.18278161
              23.41414931                4.34939235               73.27375057                0.00010000                0.28739955                6.32911590               -5.58348887               -9.65696047                2.63293962                2.97443633
              24.40462124                3.84177181               72.85346672                0.42967208               -0.95280757                8.22364016               -4.95722216               -5.34676624                1.67286193                4.02445524
              14.74244834               10.17524436               76.63294566                0.99068000               -0.03285193               -0.01445742                0.11650687               -0.01400926               -0.00079509                0.63077300
              15.74211982                9.69064489               76.18011352                0.31446876               -0.01783851               -0.05369098                0.10556592               -0.05086201                0.14639308               -0.46322890
              16.74209157                9.20486267               75.73003370                0.00010000               -0.19906751               -0.15339034                0.04696383               -1.09239221                4.79904996               -1.91692932
              17.73813847                8.69946229               75.37056725                0.00010000                0.15483037               -0.43449729               -0.97991184               -2.37543256                9.34397089               -0.85972742
              18.74518818                8.18537954               75.00971884                0.00010000                1.31350460               -0.92590975               -2.07131834               -3.53232047                9.44449720                0.10794875
              19.76440857                7.65667390               74.65083292                0.00010000                2.43138625               -1.22578755               -3.31952001               -5.67894441                9.54901062                0.93523095
              20.79381591                7.10788813               74.29251263                0.00010000                3.10490490               -0.65750894               -4.71369933               -8.38833479                9.14523539                1.61709024
              21.82650666                6.54078068               73.92899006                0.00010000                2.98005869                1.11889709               -6.10059275              -10.45399286                7.85812712                2.20303959
              22.85341708                5.96930570               73.55129318                0.00010000                2.06960913                3.71338826               -7.28168425              -10.31861028                5.63042299                2.86535474
              23.86789885                5.41927091               73.15099351                0.00010000                1.02707284                6.49687266               -7.96959184               -6.65502439                2.90077406                3.52421009
              24.87395854                4.91743938               72.72436108                0.43075768                0.60596898                6.96777706               -8.08267009               -2.95199199                1.36492080                3.15914827
              15.22710710               11.17520264               76.49659069                1.00000000               -0.01085640                0.00491809                0.03360238               -0.01267369               -0.00515547                0.69210154
              16.22699853               10.69022829               76.03809936                0.33873941               -0.00932901               -0.03035980                0.04214811               -0.06865458                0.03956282               -0.45038891
              17.22692052               10.20370897               75.58040636                0.00010000               -0.16505635               -0.08855876                0.01860714               -1.18627987                5.49074698               -1.68741697
              18.22369741                9.69630003               75.23137742                0.00010000                0.12922259               -0.15940589               -1.14248748               -2.62603062               10.84382442               -1.31778223
              19.22950497                9.17997941               74.88033466                0.00010000                1.03019230               -0.22382106               -2.35879494               -3.81174923               10.74394151               -0.77225330
              20.24430125                8.65154304               74.52844598                0.00010000                1.83363052               -0.04644743               -3.72504170               -5.46533592               10.56968520               -0.21807783
              21.26617758                8.11002297               74.17376518                0.00010000                2.33523210                0.71102430               -5.24917928               -7.19067385                9.96310740                0.33358695
              22.29100589                7.55940790               73.81118740                0.00010000                2.39166143                2.18696374               -6.84595220               -8.15830873                8.62808289                0.92642322
              23.31401081                7.01057810               73.43334793                0.00010000                2.09546240                4.07791275               -8.31633729               -7.43303680                6.44840652                1.54099383
              24.33291514                6.47932981               73.03266753                0.00010000                1.76168256                5.57794059               -9.36865929               -4.51139778                3.48312414                1.91873221
              25.34924446                5.98112736               72.60282494                0.43215601                1.63293165                5.78354714               -9.66700055               -2.01044054                1.59358143                1.46393431
              15.71214358               12.17534272               76.36052378                1.00000000                0.00968214                0.02477512               -0.04366599               -0.00762466                0.00158410                0.73114646
              16.71224040               11.69003769               75.89621364                0.36145556                0.00753273               -0.00966357               -0.01745152               -0.06947536                0.03098290               -0.46626100
              17.71229423               11.20309149               75.43249060                0.00010000               -0.14464848               -0.04630422               -0.00994702               -1.13042616                6.08254463               -1.62763757
              18.70934743               10.69627417               75.08975584                0.00010000                0.07079798                0.12266892               -1.21942519               -2.47334698               11.98590941               -1.49035100
              19.71371019               10.18090312               74.74524266                0.00010000                0.78554285                0.29634993               -2.48887679               -3.47008879               11.77353010               -1.20991832
              20.72505828                9.65574495               74.39845438                0.00010000                1.42136859                0.66947336               -3.90099196               -4.62636959               11.43619937               -0.86017684
              21.74213756                9.12210861               74.04718170                0.00010000                1.88635364                1.41493129               -5.47399077               -5.59985539               10.72214887               -0.48420004
              22.76278536                8.58451995               73.68667391                0.00010000                2.13484393                2.54810816               -7.13885631               -5.89728115                9.35339157               -0.09833627
              23.78483444                8.05086395               73.31001791                0.00010000                2.21681406                3.81757579               -8.71143603               -5.06202162                7.11177963                0.22048801
              24.80712164                7.53082972               72.90907405                0.00010000                2.26600946                4.72467034               -9.88810041               -2.97440853                3.92685318                0.25140086
              25.83015463                7.03311032               72.47610980                0.43334914                2.30329909                4.67911219              -10.30016999               -1.32655892                1.81314040               -0.33197870
              16.19756466               13.17569814               76.22463498                1.00000000                0.02955924                0.04665187               -0.12227403               -0.00470707                0.00259732                0.73482314
              17.19786025               12.69003501               75.75413653                0.38791269                0.02554257                0.00936632               -0.07281426               -0.06369138                0.06087663               -0.50964778
              18.19807551               12.20278289               75.28488948                0.00010000               -0.07207057               -0.02048976               -0.04009633               -0.94256249                6.72387317               -1.39391979
              19.19641884               11.69875341               74.94830249                0.00010000                0.12784522                0.30379535               -1.25246853               -1.99312301               13.03861535               -1.39690283
              20.20063242               11.18590641               74.60852908                0.00010000                0.70747611                0.57945884               -2.52297028               -2.71569090               12.63341823               -1.22370011
              21.21056836               10.66493250               74.26567441                0.00010000                1.23865266                1.00957104               -3.92962499               -3.42878694               12.15758964               -1.02110684
              22.22540547               10.13832160               73.91727361                0.00010000                1.68682856                1.65801095               -5.48967818               -3.90843532               11.34799382               -0.81252672
              23.24430493                9.61037007               73.55874255                0.00010000                2.05275674                2.49424515               -7.14210420               -3.87490707                9.92101316               -0.62490850
              24.26646060                9.08692962               73.18313026                0.00010000                2.34378327                3.35337307               -8.71513300               -3.13036026                7.59872175               -0.53364554
              25.29118060                8.57382321               72.78170878                0.00010000                2.58457373                3.93142804               -9.91489367               -1.73075432                4.22828837               -0.69722609
              26.31815208                8.07470960               72.34554938                0.43476143                2.69714790                3.78768538              -10.37544911               -0.74272089                1.97974409               -1.35564094
              16.68337569               14.17627576               76.08834315                0.91141644                0.05061331                0.06898298               -0.20155930               -0.00427737                0.04801664                0.66432421
              17.68388182               13.69022502               75.61175570                0.30758016                0.06744488                0.02900298               -0.13059549               -0.05679695                0.41333962               -0.52748592
              18.68472459               13.20268170               75.14265296                0.00010000                0.12398147               -0.01473611               -0.11494132               -0.69764081                7.53367279               -1.13088555
              19.68636145               12.70235008               74.80937416                0.00010000                0.42463459                0.27829495               -1.28336800               -1.19256765               13.93273232               -0.90832151
              20.69321728               12.19249229               74.47405688                0.00010000                0.88529528                0.63692040               -2.53187026               -1.57764555               13.39675841               -0.79453124
              21.70406736               11.67593637               74.13442039                0.00010000                1.26570078                1.10147856               -3.90908287               -1.90632302               12.76398491               -0.70313931
              22.71853129               11.15526883               73.78852540                0.00010000                1.63059191                1.68478449               -5.43035021               -2.09370449               11.87734448               -0.61594753
              23.73667919               10.63440485               73.43195128                0.00010000                2.01213980                2.34079923               -7.04103326               -1.98401821               10.41543154               -0.55058636
              24.75877409               10.11793141               73.05771922                0.00010000                2.40236891                2.95844063               -8.58426889               -1.49589583                8.04332991               -0.55202579
              25.78472657                9.60945828               72.65636141                0.00010000                2.73766766                3.36029038               -9.77819867               -0.74602453                4.50651643               -0.71468103
              26.81352744                9.10886403               72.21715833                0.43576187                2.88008697                3.27663530              -10.24033979               -0.27292639                2.15709908               -1.30461098
              17.16958059               15.17707780               75.95079221                0.93645833                0.07377817                0.08020432               -0.29133872               -0.02578232                0.29939843                0.60951567
              18.17031837               14.69061507               75.46980587                0.62364191                0.12085209                0.03900557               -0.18798391               -0.08582644                0.91567360               -0.53523468
              19.17199763               14.20248817               75.00141588                0.37104404                0.62192589               -0.01935304               -0.19688547               -0.58748346                8.69914334               -1.13359532
              20.18275689               13.70431931               74.67752435                0.36364203                1.17477906                0.19692284               -1.36532636               -0.55262358               14.96792337               -0.42478130
              21.19549321               13.19864481               74.34549027                0.36092049                1.34542365                0.61525198               -2.60064435               -0.64026791               14.01491653               -0.41030333
              22.20966536               12.68696208               74.00869659                0.36273937                1.47848406                1.10257051               -3.96386396               -0.77157560               13.29747315               -0.38907886
              23.22506290               12.17201729               73.66525558                0.36901700                1.61483137                1.67484528               -5.47002243               -0.83564089               12.38193846               -0.38929411
              24.24196199               11.65718605               73.31107850                0.38020590                1.82131816                2.27811978               -7.07013176               -0.76766304               10.95720122               -0.41488289
              25.26148926               11.14609843               72.93939923                0.39662120                2.16827501                2.81670188               -8.61622171               -0.53633451                8.66473554               -0.49045704
              26.28532749               10.64102902               72.54069301                0.41875155                2.61963986                3.15707388               -9.83890047               -0.23271439                5.08371075               -0.65665076
              27.31388206               10.14024231               72.10140519                0.71830513                2.85545647                3.13782748              -10.30859330               -0.04321023                2.68787089               -1.20748894
              12.75140245                5.32138376               78.31520802                1.00000000               -0.12117230               -0.10710765                0.38779201               -0.00481690               -0.38899804                0.48594162
              13.75019073                4.83292382               77.88241792                1.00000000               -0.12695130               -0.11204176                0.40409499                0.00742858               -0.47216035                0.05428999
              14.74886343                4.34421858               77.44741507                1.00000000               -0.13704295               -0.11434908                0.41954512                0.00798732               -0.49235134               -0.05089430
              15.74744987                3.85511281               77.01406767                0.66067948               -0.15859358               -0.11776014                0.43194030               -0.02305732               -0.45232845               -0.29741248
              16.74569156                3.36514171               76.58010612                0.47345786               -0.17757206               -0.11577216                0.44781815               -0.04508995               -0.44077171               -0.30125692
              17.74389843                2.87443217               76.14752301                0.13763476               -1.17990028               -0.13477818                0.45190657               -0.96132638                0.88815373               -0.55958892
              18.72209355                2.36527426               75.74106710                0.00010000               -3.39209148                1.09181796                0.39056969               -5.60506379                9.80053417               -2.88008698
              19.67605660                1.74432576               75.48201995                0.00010000               -1.08184233               -0.39633113               -1.11980445               -5.48647343               18.33814349                0.13717894
              20.70045670                1.10676762               75.22228703                0.00010000                5.33590862               -1.49640923               -1.96984196               -5.31245504               18.13861863                0.41920369
              21.78277477                0.45970569               74.95550723                1.00000000                4.48200856                0.60775891               -2.45653283               -5.20799414                8.62549112               -0.04311761
              22.79009688               -0.07990490               74.51648926                1.00000000                0.73221020                0.58585950               -2.36137353               -0.13807263                0.00036554               -0.03906272
              13.23981423                6.32031268               78.17802315                1.00000000               -0.09666226               -0.09762494                0.32185243               -0.00695038                0.02200717                0.67963746
              14.23884760                5.83180340               77.74506717                1.00000000               -0.09827105               -0.10494505                0.33915425                0.00550316                0.09697884                0.07769539
              15.23784880                5.34307509               77.31313471                1.00000000               -0.10449345               -0.10822065                0.35576767                0.00475274                0.16145826               -0.23857204
              16.23675773                4.85393521               76.88139399                0.82382813               -0.11339130               -0.11722511                0.38009385               -0.01520101                0.23951244               -0.24488529
              17.23558098                4.36398399               76.45134563                0.68810380               -0.12694193               -0.11701936                0.38334537               -0.03608465                0.22461290               -0.22849102
              18.23421890                3.87308438               76.02001184                0.34902576               -0.22424302               -0.12879819                0.38927473               -0.31295330                0.25340188               -0.41170922
              19.23109612                3.37619244               75.59161706                0.00010000                0.81131439                0.44882673                0.37039736               -6.34991140                9.42026659               -1.57089851
              20.25044518                2.74036245               75.34431552                0.00010000                2.92730355               -1.81263484               -0.97443180               -8.75801076               17.33523051                0.48006909
              21.28964219                2.09180353               75.07003528                0.00010000                3.67929565               -0.99022808               -1.54735239               -7.21360159               15.67807814                0.37368296
              22.32403110                1.46578328               74.78465840                1.00000000                1.93422753                0.48719722               -1.51058429               -4.15406560                7.68940268               -0.00114464
              23.32832674                0.92595369               74.34557599                1.00000000                0.42956432                0.47295667               -1.42696302               -0.16273727               -0.00042751               -0.03390661
              13.72828201                7.31943126               78.04397719                1.00000000               -0.07436288               -0.07455971                0.25376348               -0.00981446                0.15690377                0.79742947
              14.72753838                6.83082491               77.60787986                1.00000000               -0.07276681               -0.08994769                0.27436245                0.00011520                0.34802648               -0.00035155
              15.72682667                6.34205417               77.17520644                0.00010000               -0.06507138               -0.09165290                0.29338344               -0.01751600                0.90698769               -0.67253776
              16.72623695                5.85276831               76.75029788                0.00010000               -0.05029933               -0.62093253                0.33112982               -0.33394907                1.25541140                0.22621942
              17.72582069                5.36280133               76.32501618                0.00010000               -0.04030162               -1.09116931                0.31586132               -0.24205011                1.04599980                1.17155094
              18.72543092                4.87185620               75.89684486                0.00010000                0.09982878               -1.84690169                0.32508381                0.16294897                1.04288944                2.49028326
              19.72781726                4.37425079               75.47285628                0.00010000                2.99271850               -4.20602017                0.29158600               -6.33042410                9.65241773                5.08908538
              20.78528529                3.70807306               75.21956278                0.00010000                5.14732899               -2.62384471               -1.51225984              -11.35154515               15.44277616                1.69719518
              21.83076384                3.08696306               74.91824014                0.00010000                4.01290059               -0.42172545               -1.84474385               -8.95071144               13.01570180               -0.24990481
              22.86554330                2.46944963               74.61464202                0.00010000                1.78687283                0.24539815               -0.52967908               -3.76206371                6.77889534               -0.22551238
              23.86650130                1.92955423               74.17529176                1.00000000                0.09579965                0.25294874               -0.45624354               -0.14806740                0.02154275               -0.30085053
              14.21683062                8.31882148               77.90847892                1.00000000               -0.06036283               -0.04459465                0.18744829               -0.00677978                0.26415702                0.68007191
              15.21622699                7.83000444               77.46873495                0.45835858               -0.06377646               -0.08026316                0.21454479                0.01220181                0.45237159               -0.36678669
              16.21555509                7.34124203               77.03243240                0.00010000               -0.34476980               -0.11870696                0.22595785               -0.50495932                2.19438609               -1.18789137
              17.20933160                6.84151656               76.62761069                0.00010000               -0.19515057               -0.94249060               -0.17978982               -1.25281786                3.95961612                0.32704154
              18.21165208                6.34216061               76.22525176                0.00010000                0.83484063               -1.92091098               -0.59683683               -1.25052919                4.38289565                2.01852204
              19.22602841                5.83614635               75.82884707                0.00010000                2.83093490               -3.53179280               -1.09926181               -2.39048074                5.84969864                4.24997970
              20.26827078                5.29207203               75.45859040                0.00010000                4.23367995               -6.10755617               -1.85870664               -5.72928810                7.53511570                7.08430893
              21.31070201                4.68788555               75.10558902                0.00010000                4.04903050               -1.60259751               -2.54762243               -9.75460823                8.12343638                2.47753335
              22.34925139                4.08336902               74.75926323                0.00010000                4.77483231                0.15689235               -2.91042332              -10.85797244                8.74233551                0.36331420
              23.40619866                3.47069124               74.43856928                0.00010000                2.79524024                2.72086454               -3.14946749               -8.77215872                2.69510389               -0.99298017
              24.40515619                2.93101267               73.99890269                0.42261163               -0.10424614                4.48655986               -0.77841625               -5.41550653               -2.86614390                1.64502853
              14.70578050                9.31853936               77.77149081                1.00000000               -0.04186292               -0.01659654                0.12115048               -0.00735224               -0.00728436                0.59226662
              15.70536187                8.82921965               77.32406564                0.33450845               -0.02825612               -0.07268791                0.16664543                0.00004690                0.39764168               -0.54951704
              16.70521537                8.33968003               76.88448167                0.00010000               -0.25499210               -0.18509281                0.16472587               -0.79700904                3.42686254               -1.73917113
              17.70026203                7.83391849               76.49783520                0.00010000                0.04824677               -0.67706719               -0.56741712               -1.65806583                6.26687406               -0.37543126
              18.70618031                7.32438311               76.11386074                0.00010000                1.37239267               -1.54287444               -1.32259849               -2.28605037                6.66774543                0.87651423
              19.72770988                6.80122035               75.73552291                0.00010000                2.76559955               -2.68635942               -2.16955394               -4.07419363                7.07908179                2.10036296
              20.76149230                6.25209967               75.36361936                0.00010000                3.55931287               -2.75538902               -3.07159114               -7.49443670                7.12661991                2.43216084
              21.79889614                5.67602111               74.99460650                0.00010000                3.46532027               -0.53326215               -3.87749315              -10.01978063                6.43389439                2.24247288
              22.83079871                5.09010091               74.62154931                0.00010000                2.17801744                1.66238356               -4.37107767              -10.32621997                4.09411998                1.76253328
              23.84245648                4.52386692               74.22098714                0.00010000                0.33748038                5.25033607               -4.30813961               -8.47712104                1.94742420               -0.33883353
              24.83754831                4.01928543               73.80814112                0.42380289               -0.49081715                7.16971645               -4.18754321               -5.06615537                1.89022463                0.28416691
              15.19532300               10.31848955               77.63374114                1.00000000               -0.02357387                0.00385850                0.04847725               -0.00793653                0.00194910                0.60451181
              16.19508726                9.82855069               77.18122831                0.33641768               -0.02034671               -0.05774560                0.11634899               -0.04385905                0.12849201               -0.44536127
              17.19491607                9.33754018               76.73107752                0.00010000               -0.18100291               -0.18125826                0.15258318               -1.03088064                4.25719611               -1.85052106
              18.19146721                8.82797521               76.36140731                0.00010000                0.18565770               -0.48007895               -0.83920551               -2.22806522                8.21978230               -0.95757180
              19.19862922                8.31130312               75.99011934                0.00010000                1.26803853               -0.94624971               -1.82957252               -3.20243806                8.15281081               -0.15422394
              20.21682798                7.78241916               75.61979719                0.00010000                2.24760300               -1.22844869               -2.88189891               -5.00881746                8.03799778                0.51037707
              21.24358128                7.23696425               75.24925242                0.00010000                2.77385892               -0.74258834               -3.96980354               -7.22218509                7.49491226                1.00222577
              22.27230515                6.67722031               74.87423934                0.00010000                2.56499475                0.75865486               -4.97318493               -8.72998493                6.22584198                1.35545999
              23.29488118                6.11661669               74.48709421                0.00010000                1.75832813                2.89565977               -5.72526857               -8.37559523                4.34776794                1.55612494
              24.30747172                5.57569796               74.08265379                0.00010000                0.90574493                4.83764368               -6.11258627               -5.19749628                2.18475382                1.97244841
              25.31299608                5.07440700               73.65566073                0.42494733                0.55243587                5.06624088               -6.03894947               -2.30027666                1.07926222                1.03199296
              15.68549950               11.31861653               77.49662917                1.00000000               -0.00654410                0.02213450               -0.02082230               -0.00523976               -0.00186889                0.67071066
              16.68543406               10.82806474               77.03867118                0.36336098               -0.01631345               -0.04075784                0.06963692               -0.06150766                0.03073573               -0.43134328
              17.68517323               10.33605487               76.58128539                0.00010000               -0.17481396               -0.12447168                0.14576362               -1.12102548                4.87665940               -1.61394744
              18.68193778                9.82431692               76.22057393                0.00010000                0.12571827               -0.21098978               -1.00626416               -2.47049204                9.57528228               -1.29714429
              19.68768760                9.30545811               75.85769231                0.00010000                0.99673056               -0.27820069               -2.14697988               -3.48418078                9.33116398               -0.82610487
              20.70187239                8.77665137               75.49304370                0.00010000                1.72799267               -0.13612693               -3.33852818               -4.87855768                8.95146674               -0.35335695
              21.72224745                8.23724790               75.12476841                0.00010000                2.13858009                0.49260802               -4.56697898               -6.26854923                8.18102785                0.10150767
              22.74464400                7.69119421               74.74864898                0.00010000                2.12808481                1.69877919               -5.74489170               -6.93559776                6.85321742                0.54032457
              23.76480915                7.14801411               74.35915919                0.00010000                1.80361312                3.15390066               -6.72369886               -6.14380833                4.95326315                0.94488122
              24.78071626                6.62061980               73.95065317                0.00010000                1.46577805                4.23005066               -7.33105141               -3.65864809                2.61270155                1.00981326
              25.79412471                6.12061024               73.51934791                0.42614198                1.34084516                4.26229414               -7.42235062               -1.61524932                1.25165894                0.37653071
              16.17632180               12.31893224               77.35985864                1.00000000                0.00969809                0.04140574               -0.08662381               -0.00313778                0.00193901                0.71164382
              17.17641878               11.82773553               76.89626855                0.38736098               -0.00392077               -0.02554002                0.02497042               -0.06127605                0.02740217               -0.44412128
              18.17624338               11.33505075               76.43318551                0.00010000               -0.18823298               -0.08809837                0.13377712               -1.05685807                5.43194887               -1.55222251
              19.17265412               10.82375542               76.07811202                0.00010000                0.01838839                0.07560117               -1.09858750               -2.31924455               10.65272599               -1.39391625
              20.17661115               10.30573910               75.72104467                0.00010000                0.74064578                0.24091387               -2.32537857               -3.18473198               10.32278237               -1.12378521
              21.18746703                9.77969662               75.36083471                0.00010000                1.35281569                0.56106929               -3.59769242               -4.17754712                9.80543593               -0.79231673
              22.20366746                9.24681641               74.99524695                0.00010000                1.76799807                1.17682340               -4.91007359               -4.96736073                8.93969208               -0.44214402
              23.22282700                8.71119589               74.62030675                0.00010000                1.94559790                2.08397479               -6.18790942               -5.12634421                7.56317813               -0.10095550
              24.24257942                8.17969471               74.23072352                0.00010000                1.94378104                3.06107400               -7.28825733               -4.31077722                5.58742798                0.13534520
              25.26170262                7.66029897               73.82081442                0.00010000                1.90653848                3.70469148               -8.01558169               -2.48138818                3.01823165                0.06640929
              26.28071019                7.15965288               73.38539287                0.42737179                1.90075751                3.57096955               -8.16588539               -1.07794147                1.41266475               -0.61516822
              16.66783018               13.31944465               77.22323385                1.00000000                0.02598620                0.05987775               -0.15544182               -0.00278279                0.00417481                0.71365024
              17.66809004               12.82755394               76.75371289                0.41572833                0.00930030               -0.01021028               -0.01544959               -0.05482808                0.05969078               -0.48425253
              18.66801618               12.33429290               76.28537256                0.00010000               -0.16127530               -0.06774455                0.12051932               -0.85354904                6.05119415               -1.33451723
              19.66486453               11.82582894               75.93622225                0.00010000                0.00177848                0.28447545               -1.15346790               -1.83859047               11.68639799               -1.27442199
              20.66805175               11.31027639               75.58367364                0.00010000                0.61898038                0.56141598               -2.41944759               -2.49577839               11.19692883               -1.07683000
              21.67724414               10.78787276               75.22720886                0.00010000                1.16746081                0.93539116               -3.72883850               -3.13186540               10.57372083               -0.85454556
              22.69140097               10.26078437               74.86433791                0.00010000                1.59973377                1.47237319               -5.07639847               -3.52875245                9.63376135               -0.62443781
              23.70923882                9.73287370               74.49116297                0.00010000                1.90447765                2.14246372               -6.39428843               -3.44652078                8.20100899               -0.42027860
              24.72949052                9.20923559               74.10230956                0.00010000                2.09457534                2.80361630               -7.54188595               -2.73643073                6.12275057               -0.32823278
              25.75113032                8.69471363               73.69147225                0.00010000                2.21837739                3.20781872               -8.31369824               -1.48485721                3.34158133               -0.51185658
              26.77385807                8.19202964               73.25257491                0.42826960                2.27277468                3.00244103               -8.48132749               -0.60366047                1.57340064               -1.18109951
              17.16004756               14.32012980               77.08622848                0.92869870                0.04264046                0.07712787               -0.22061366               -0.00218334                0.04088422                0.63498807
              18.16047397               13.82753132               76.61082986                0.33248175                0.04249194                0.00551362               -0.05773228               -0.04659680                0.38661011               -0.49726382
              19.16089740               13.33369585               76.14249851                0.00010000               -0.02875742               -0.06279560                0.06580405               -0.57424486                6.83585006               -1.08537833
              20.15989882               12.82944493               75.79685686                0.00010000                0.18771810                0.33538900               -1.20783990               -1.06378582               12.58891299               -0.82008040
              21.16465176               12.31696742               75.44874998                0.00010000                0.72114643                0.67639326               -2.49316329               -1.44850689               11.98912681               -0.67910882
              22.17432175               11.79840445               75.09554462                0.00010000                1.17198539                1.08498405               -3.81658991               -1.76075904               11.23719314               -0.56106204
              23.18809147               11.27626388               74.73526434                0.00010000                1.55618085                1.57603593               -5.17561277               -1.91836422               10.23856597               -0.44280773
              24.20544536               10.75404517               74.36412088                0.00010000                1.89597068                2.10770098               -6.50654738               -1.79666047                8.76962424               -0.34515825
              25.22601088               10.23576703               73.97662485                0.00010000                2.18830290                2.58390283               -7.67296726               -1.33485846                6.61806160               -0.32313258
              26.24921142                9.72445535               73.56576045                0.00010000                2.39970384                2.85836492               -8.46212303               -0.65276422                3.64058258               -0.47638697
              27.27400496                9.21970170               73.12392918                0.42953819                2.47935394                2.70834241               -8.61330311               -0.20635346                1.73460930               -1.01925882
              17.65298346               15.32098721               76.94783911                0.94473098                0.06085862                0.08574070               -0.29756321               -0.03870939                0.29133629                0.57067223
              18.65359205               14.82766421               76.46841028                0.63298737                0.08171103                0.01328877               -0.09739482               -0.08570267                0.86005852               -0.49811417
              19.65461768               14.33303699               76.00059626                0.37026971                0.33625998               -0.06588670                0.01038198               -0.38434629                7.94656279               -1.08154305
              20.66031725               13.83253672               75.66403151                0.36348937                0.77522060                0.30917926               -1.31452563               -0.41979349               13.59500242               -0.38680975
              21.67012210               13.32380426               75.31913460                0.36084486                1.12076290                0.68368327               -2.61875636               -0.60118067               12.60039358               -0.35380546
              22.68273251               12.80957244               74.96868800                0.36270289                1.36354350                1.11679929               -3.96203803               -0.73388233               11.76948737               -0.31467499
              23.69739297               12.29230509               74.61075994                0.36831692                1.55349720                1.60412113               -5.34254657               -0.79708635               10.73940804               -0.29021047
              24.71380245               11.77502772               74.24184546                0.37846372                1.74951033                2.09825558               -6.70080212               -0.73386357                9.29317437               -0.28509866
              25.73238317               11.26091364               73.85661918                0.39342522                2.01689616                2.51466087               -7.90356046               -0.52011111                7.19120604               -0.32857128
              26.75414037               10.75188092               73.44795496                0.41394913                2.34275636                2.74255759               -8.73960170               -0.24296268                4.14675667               -0.46759716
              27.77923830               10.24619648               73.00596619                0.71521380                2.50979253                2.64947850               -8.89722481               -0.04511015                2.15888278               -0.92484964
              13.18021190                5.46374092               79.31845736                1.00000000               -0.09426277               -0.07138252                0.26519071                0.00738939               -0.38968079                0.48271714
              14.17926928                4.97114174               78.88617216                1.00000000               -0.10961351               -0.09689013                0.34721218                0.01748470               -0.47461933                0.05447768
              15.17801963                4.47832455               78.45166295                1.00000000               -0.13872490               -0.11879180                0.42755175                0.01798609               -0.49685617               -0.04755383
              16.17649478                3.98515246               78.01877926                0.66870664               -0.17692676               -0.14245640                0.50511425               -0.00915309               -0.45498054               -0.28198227
              17.17448110                3.49122482               77.58531496                0.47883542               -0.21271995               -0.16205713                0.58574844               -0.02809322               -0.44363703               -0.29862556
              18.17224038                2.99666356               77.15315256                0.13881901               -1.04600354               -0.20115787                0.66398917               -0.79755428                0.80320719               -0.56006619
              19.15356103                2.48661629               76.74549188                0.00010000               -2.70874014                0.83101320                0.48352027               -4.79319688                9.12088184               -2.66753032
              20.11806558                1.88163268               76.47230655                0.00010000               -0.47556059               -0.67447061               -0.83415215               -4.70649055               16.98699663               -0.05225574
              21.14404982                1.25974428               76.20357494                0.00010000                5.16995802               -1.56405673               -1.77763528               -4.63141254               17.15243382                0.18079584
              22.22146474                0.62523911               75.93099327                1.00000000                4.22937330                0.58988707               -2.43370473               -4.57888858                8.27422117               -0.04894731
              23.22863728                0.08568764               75.49331819                1.00000000                0.71725452                0.53384023               -2.24842433               -0.11744101               -0.01009441               -0.06836425
              13.67288497                6.46302709               79.18067197                1.00000000               -0.07326690               -0.06366899                0.21080090               -0.00506014                0.01948482                0.67320708
              14.67215231                5.97017284               78.74823166                1.00000000               -0.08454184               -0.09157693                0.29401337                0.00560970                0.09317895                0.07784399
              15.67119414                5.47713663               78.31680448                1.00000000               -0.10995959               -0.11464540                0.37571693                0.00479932                0.16156734               -0.23257746
              16.66995311                4.98372789               77.88564206                0.84284196               -0.13747615               -0.14304333                0.46450172               -0.01248911                0.23631981               -0.22499400
              17.66844461                4.48960425               77.45598428                0.70282699               -0.16920053               -0.16433582                0.53746441               -0.03115276                0.21912372               -0.22283580
              18.66656910                3.99465198               77.02509382                0.36247397               -0.26500573               -0.19788337                0.61828853               -0.25062235                0.24970521               -0.40692754
              19.66314450                3.49492642               76.59702252                0.00010000                0.89337869                0.27024404                0.69913924               -5.51836536                8.71337810               -1.50265260
              20.68443668                2.87488797               76.33596071                0.00010000                3.13939869               -1.93771017               -0.71387752               -7.62534204               16.27175598                0.06170325
              21.72593247                2.24410371               76.05539214                0.00010000                3.91337466               -1.19226515               -1.42240730               -6.27107947               15.22512781               -0.23056306
              22.76270417                1.63113798               75.76948406                1.00000000                2.05409356                0.45934207               -1.54001181               -3.51425675                7.58857458               -0.04394876
              23.76701435                1.09102604               75.33159469                1.00000000                0.43101747                0.40387949               -1.37334986               -0.13412027                0.00523522               -0.09911712
              14.16581921                7.46246754               79.04600474                1.00000000               -0.05472791               -0.04444830                0.15452220               -0.00764839                0.15297803                0.78822900
              15.16527193                6.96931020               78.61045802                1.00000000               -0.06293189               -0.08017434                0.24138681                0.00073148                0.34269198                0.00236284
              16.16456057                6.47603164               78.17831618                0.00010000               -0.07472726               -0.10249668                0.32603455               -0.01592276                0.91028465               -0.66657306
              17.16377738                5.98229159               77.75410455                0.00010000               -0.08133071               -0.61867213                0.42556361               -0.29556048                1.24792343                0.02285914
              18.16293395                5.48793810               77.32904598                0.00010000               -0.09358099               -1.06753086                0.48440612               -0.19116659                1.03566959                0.76605127
              19.16190576                4.99270589               76.90135976                0.00010000                0.00118878               -1.75349800                0.57081897                0.22166597                1.04027286                1.84345366
              20.16295773                4.49202117               76.47759404                0.00010000                2.72378424               -3.87468604                0.64739216               -5.44170558                8.75473215                4.09264159
              21.21638145                3.84287848               76.20678694                0.00010000                4.97102431               -2.53674008               -1.10688511              -10.00525035               14.23614452                0.72005428
              22.26237822                3.23589898               75.89998639                0.00010000                4.39379117               -0.65281770               -1.77528087               -8.38835006               13.21489680               -1.15731089
              23.30425727                2.63442595               75.60799550                0.00010000                2.19002716                1.76729415               -0.73744398               -6.20378839                7.29501592               -3.67212542
              24.30617876                2.09376523               75.16990085                0.95436674                0.19214890                3.09958717               -0.58153625               -3.03363594                0.06955539               -1.45677393
              14.65904668                8.46213812               78.90990738                1.00000000               -0.04438500               -0.01963187                0.10090850               -0.00318849                0.25796146                0.66776877
              15.65860283                7.96856935               78.47077937                0.47503665               -0.05761907               -0.07458975                0.19418039                0.01363498                0.43772101               -0.35405545
              16.65789430                7.47508670               78.03492827                0.00010000               -0.32336912               -0.13417064                0.27048714               -0.47110061                1.96686176               -1.17771049
              17.65213544                6.97135445               77.62644473                0.00010000               -0.18436581               -0.93034285               -0.05425868               -1.14645520                3.48945287               -0.05183586
              18.65420698                6.46825363               77.22043471                0.00010000                0.73919568               -1.83888966               -0.37391640               -1.08380978                3.83818576                1.27613221
              19.66691936                5.95958202               76.81970838                0.00010000                2.49654133               -3.27949825               -0.74650878               -2.02574755                5.12318535                3.08950032
              20.70413781                5.41743270               76.44288618                0.00010000                3.67672536               -5.54334129               -1.35642125               -4.84433614                6.68165873                5.44749183
              21.74045386                4.82415317               76.08286716                0.00010000                3.12400940               -1.48246901               -1.97417596               -8.52577700                7.73418751                1.17711872
              22.76661799                4.23104736               75.73823030                0.00010000                2.01541409                0.39155254               -2.10315412               -8.28362588                6.80385040               -1.28766942
              23.78076215                3.66648387               75.37344895                0.00010000                1.05225403                3.20526099               -4.74123123               -5.78904220                2.23296299               -3.68540014
              24.78766307                3.15301779               74.98131655                0.41718676                0.69009274                4.84659422               -2.81529043               -3.24965673                0.85649334               -1.18885829
              15.15289298                9.46207490               78.77230850                1.00000000               -0.02969320                0.00290520                0.04625460               -0.00233359               -0.00696076                0.57363940
              16.15259605                8.96781841               78.32571473                0.35539366               -0.02697612               -0.07186135                0.16402658                0.00118939                0.37174242               -0.53004813
              17.15235346                8.47334823               77.88646070                0.00010000               -0.24573520               -0.20190833                0.22784848               -0.74857406                3.01418564               -1.69235611
              18.14768135                7.96368473               77.49288877                0.00010000                0.03383633               -0.68911616               -0.42171772               -1.54155293                5.43313206               -0.62551641
              19.15303019                7.45116031               77.10193402                0.00010000                1.22651988               -1.48950723               -1.06864031               -2.04606301                5.73444255                0.34053792
              20.17221174                6.92711593               76.71602342                0.00010000                2.42348354               -2.51106889               -1.76054718               -3.54449432                6.04353966                1.27833133
              21.20149986                6.38115434               76.33621727                0.00010000                3.00197532               -2.53245538               -2.47308573               -6.43763216                6.12511147                1.38663355
              22.23225125                5.81322910               75.96065444                0.00010000                2.64375727               -0.51528880               -3.07276674               -8.23482346                5.56206122                0.93904040
              23.25437500                5.24373003               75.58124530                0.00010000                1.71273731                1.58854804               -3.59959602               -7.46789605                3.92262570               -0.18445205
              24.26650600                4.69853117               75.18758777                0.00010000                0.68713915                3.12849909               -3.31324943               -4.53838290                1.80895354               -0.98155963
              25.26811779                4.19069712               74.76971586                0.41810887                0.16117891                3.69273310               -3.51264302               -2.69006488                0.97066772               -2.65224274
              15.64751299               10.46219623               78.63391520                1.00000000               -0.01597086                0.02122233               -0.01032843               -0.00177433                0.00277980                0.58297520
              16.64735328                9.96713212               78.18244050                0.35993696               -0.02282507               -0.06286167                0.12661600               -0.03933552                0.11623705               -0.42599385
              17.64705649                9.47104853               77.73308537                0.00010000               -0.19304877               -0.20130975                0.24187476               -0.96812512                3.71233015               -1.77006314
              18.64349231                8.95757213               77.35378314                0.00010000                0.13990172               -0.50161485               -0.68508751               -2.07351322                7.11052586               -1.08083302
              19.64985452                8.43846349               76.97312739                0.00010000                1.12715666               -0.93141668               -1.57263982               -2.87915973                6.96957781               -0.46881069
              20.66603544                7.90936064               76.59319495                0.00010000                1.97087359               -1.18387783               -2.46365609               -4.38185770                6.77421775                0.00672723
              21.68927199                7.36678359               76.21311656                0.00010000                2.35731375               -0.75478768               -3.32853835               -6.14101244                6.23859330                0.28720691
              22.71318171                6.81384740               75.82952636                0.00010000                2.13429991                0.54589446               -4.08890343               -7.12685328                5.16277268                0.34748359
              23.73195799                6.26281832               75.43678781                0.00010000                1.49228428                2.10581956               -4.58031191               -6.40483352                3.58326733                0.24581824
              24.74302740                5.72905385               75.02874178                0.00010000                0.87859512                3.14171337               -4.82008089               -3.87357032                1.82220744               -0.09882785
              25.74952990                5.22687245               74.60358209                0.41935258                0.65024959                3.41143577               -4.74567501               -1.77962078                1.03006717               -0.97049035
              16.14298570               11.46249935               78.49617424                1.00000000               -0.00286694                0.03873421               -0.06788096               -0.00133984               -0.00002614                0.64891301
              17.14295703               10.96656117               78.03949210                0.38824052               -0.02173733               -0.05092875                0.09292386               -0.05345074                0.02938465               -0.40857482
              18.14255096               10.46932204               77.58332163                0.00010000               -0.20804530               -0.15443339                0.25220928               -1.04377450                4.24606426               -1.53267789
              19.13879613                9.95365243               77.21125213                0.00010000                0.05537584               -0.24122982               -0.85690564               -2.28697879                8.28653345               -1.31286218
              20.14365847                9.43253198               76.83739506                0.00010000                0.87291787               -0.30087043               -1.91173464               -3.13127204                7.98464723               -0.95270519
              21.15625449                8.90343837               76.46167541                0.00010000                1.52671915               -0.18135956               -2.95165645               -4.27720540                7.52776212               -0.60123471
              22.17419286                8.36605859               76.08242560                0.00010000                1.87124872                0.34563206               -3.95631266               -5.35520090                6.74773776               -0.29451342
              23.19367946                7.82414698               75.69628956                0.00010000                1.84395108                1.30697293               -4.84727005               -5.74107670                5.54822134               -0.05208204
              24.21107188                7.28584642               75.29887396                0.00010000                1.56504996                2.38010841               -5.52455627               -4.93321003                3.95299358                0.07687994
              25.22498046                6.76136544               74.88604650                0.00010000                1.29081462                3.11424891               -5.88662879               -2.85655333                2.06609375               -0.06470246
              26.23688817                6.25892583               74.45437793                0.42008064                1.19077116                3.03537552               -5.87992854               -1.25790478                1.00873969               -0.86294061
              16.63936254               12.46297091               78.35879131                1.00000000                0.00990367                0.05509833               -0.12487428               -0.00051775                0.00216520                0.68644384
              17.63946157               11.96611355               77.89671305                0.41478645               -0.01364007               -0.03862571                0.06146198               -0.05263591                0.02915143               -0.41613368
              18.63908974               11.46795987               77.43516614                0.00010000               -0.24593931               -0.12712493                0.25215730               -0.96634671                4.74555773               -1.46963246
              19.63454279               10.95274753               77.06778409                0.00010000               -0.08232953                0.04338508               -0.96444695               -2.12320981                9.25574858               -1.33749801
              20.63744315               10.43244608               76.69873509                0.00010000                0.62109650                0.20662564               -2.13001697               -2.85440880                8.87952424               -1.11554348
              21.64696472                9.90573345               76.32650053                0.00010000                1.20081086                0.48466598               -3.27376821               -3.68129095                8.29229925               -0.84536281
              22.66145936                9.37369623               75.94898022                0.00010000                1.58038173                0.98784325               -4.37904471               -4.29064317                7.40580584               -0.57334492
              23.67857235                8.83998685               75.56291572                0.00010000                1.73079859                1.70016911               -5.37926362               -4.33008727                6.13357473               -0.33772975
              24.69607533                8.31042049               75.16425276                0.00010000                1.71222830                2.43086053               -6.16796604               -3.55567872                4.44608947               -0.22631451
              25.71281692                7.79133883               74.74876241                0.00010000                1.65878438                2.86373043               -6.62266694               -2.00370519                2.37205017               -0.41525407
              26.72925102                7.28757996               74.31279209                0.42124529                1.64341030                2.68127340               -6.63073656               -0.84955597                1.13372829               -1.11576803
              17.13669007               13.46360131               78.22152614                1.00000000                0.02252871                0.06996764               -0.18379870                0.00013836                0.00624574                0.68650501
              18.13691536               12.96578866               77.75382754                0.44591755               -0.00500157               -0.02655962                0.03489995               -0.04696820                0.06167290               -0.45179327
              19.13659004               12.46677954               77.28729986                0.00010000               -0.25348214               -0.11047192                0.25239531               -0.74718365                5.31987085               -1.26523593
              20.13184572               11.95452014               76.92523313                0.00010000               -0.15028345                0.26958392               -1.03913202               -1.63847970               10.21972377               -1.18714327
              21.13358437               11.43666449               76.56014013                0.00010000                0.47663965                0.55015400               -2.27347495               -2.22597699                9.70262462               -0.99890121
              22.14137851               10.91313169               76.19109764                0.00010000                1.02711088                0.87512717               -3.48413638               -2.77584451                9.02073819               -0.79456856
              23.15412659               10.38581546               75.81574564                0.00010000                1.44874752                1.31472074               -4.65493250               -3.08571707                8.06060185               -0.58969607
              24.17035346                9.85815037               75.43085679                0.00010000                1.72398692                1.84161712               -5.72233760               -2.96065099                6.72274398               -0.42036098
              25.18860633                9.33446363               75.03229254                0.00010000                1.86967098                2.33693286               -6.57624127               -2.30449496                4.92698474               -0.37037417
              26.20774688                8.81864005               74.61543481                0.00010000                1.94042286                2.60545032               -7.07414695               -1.22476760                2.65460434               -0.57949428
              27.22741479                8.31255130               74.17592283                0.42238107                1.96679054                2.37538046               -7.07535879               -0.47731786                1.25956916               -1.21717209
              17.63499061               14.46437027               78.08393088                0.94658492                0.03533726                0.08343358               -0.23776993               -0.00004596                0.03328240                0.60262652
              18.63534398               13.96558236               77.61060106                0.36040115                0.02119873               -0.01483572                0.00778129               -0.03864060                0.36140962               -0.46153119
              19.63541459               13.46575043               77.14396904                0.00010000               -0.17278711               -0.10588643                0.21416430               -0.43627682                6.05724187               -1.02777588
              20.63188824               12.95813921               76.78521736                0.00010000               -0.05512671                0.38568338               -1.11107449               -0.90141933               11.07903291               -0.75404368
              21.63431205               12.44344916               76.42419362                0.00010000                0.52043111                0.70674887               -2.39465609               -1.28214939               10.45939390               -0.60677250
              22.64229686               11.92323600               76.05808859                0.00010000                1.02071467                1.06250612               -3.64860548               -1.57036255                9.66113189               -0.48682140
              23.65472635               11.39999065               75.68501315                0.00010000                1.42071486                1.47032072               -4.86164049               -1.69248994                8.64485856               -0.36838576
              24.67071116               10.87681920               75.30182033                0.00010000                1.73847032                1.89422773               -5.97206595               -1.56093645                7.26376782               -0.27267647
              25.68949575               10.35715914               74.90425987                0.00010000                1.97613675                2.25373631               -6.86752618               -1.13869076                5.38479309               -0.25437031
              26.71023390                9.84344783               74.48711895                0.00010000                2.11932084                2.43240016               -7.39124276               -0.54514221                2.92340115               -0.40395094
              27.73188217                9.33508757               74.04489227                0.42337077                2.16482723                2.25599959               -7.36937251               -0.15490310                1.39172588               -0.88436303
              18.13426497               15.46526998               77.94484095                0.95322270                0.04974146                0.08997177               -0.30233619               -0.05036785                0.28154483                0.53166559
              19.13476239               14.96549194               77.46785797                0.64299617                0.05213423               -0.00904129               -0.01848349               -0.08856841                0.80860498               -0.45806067
              20.13530766               14.46466181               77.00162352                0.36927458                0.06781070               -0.10886186                0.17829948               -0.17359997                7.09171661               -1.01612053
              21.13611860               13.96223380               76.65123384                0.36323917                0.37684705                0.40945966               -1.22992484               -0.27008119               12.00773106               -0.35154082
              22.14284460               13.45079947               76.29311514                0.36084094                0.86555853                0.73503087               -2.54952011               -0.53934497               11.01986614               -0.31097834
              23.15342977               12.93438181               75.92945583                0.36253102                1.19244973                1.11458172               -3.83908032               -0.66558919               10.14449914               -0.26674468
              24.16669359               12.41522187               75.55840465                0.36773613                1.42682336                1.52312210               -5.08817576               -0.72061988                9.09149009               -0.23433063
              25.18196624               11.89603492               75.17706246                0.37685662                1.62551424                1.92157253               -6.23828940               -0.65866805                7.72023583               -0.21823576
              26.19920388               11.37953835               74.78132802                0.39044885                1.84746868                2.23792107               -7.17783787               -0.46653085                5.87291455               -0.24806830
              27.21891561               10.86728805               74.36590098                0.40914714                2.09166892                2.38402201               -7.74685653               -0.22518156                3.34444194               -0.36792837
              28.24103726               10.35767129               73.92346070                0.71203390                2.21216433                2.25837223               -7.72922852               -0.04616762                1.72589941               -0.74554519
              13.60817924                5.60660888               80.32051184                1.00000000               -0.06864800               -0.03794410                0.14908629                0.01907843               -0.39104643                0.47977202
              14.60749276                5.10989436               79.88936217                1.00000000               -0.09300153               -0.08199522                0.29144577                0.02736840               -0.47854293                0.05509433
              15.60631921                4.61298443               79.45596610                1.00000000               -0.13972555               -0.12141146                0.43061695                0.02771453               -0.50361632               -0.04380182
              16.60469825                4.11574756               79.02416995                0.67616322               -0.19368478               -0.16375235                0.56759975                0.00291664               -0.46037477               -0.26807311
              17.60244551                3.61783057               78.59182109                0.48610531               -0.24562955               -0.20343148                0.70690665               -0.01334333               -0.44478710               -0.29459646
              18.59978565                3.11934833               78.16080280                0.14794086               -0.85441565               -0.26096930                0.85431585               -0.60949912                0.62956805               -0.56184588
              19.58535720                2.60886238               77.75073750                0.00010000               -2.10360889                0.51748413                0.60435946               -4.25484102                8.32233050               -2.27341850
              20.55771348                2.01597233               77.46533690                0.00010000               -0.02692637               -0.88561989               -0.56962574               -4.12594067               15.60619590               -0.22531944
              21.58481867                1.40674915               77.18673433                0.00010000                5.04012369               -1.59683290               -1.59941131               -4.13108598               15.98120372               -0.04471167
              22.65851595                0.78174515               76.90683314                1.00000000                4.02132379                0.61569195               -2.35697507               -4.12030916                7.80270246                0.02750491
              23.66524515                0.24217480               76.47152077                1.00000000                0.67291952                0.52138875               -2.06185663               -0.06053085               -0.02067082               -0.02070311
              14.10508454                6.60622944               80.18223917                1.00000000               -0.05058702               -0.03242292                0.10568424               -0.00271425                0.01667901                0.66694535
              15.10457866                6.10907441               79.75094743                1.00000000               -0.07073911               -0.07849496                0.24951337                0.00644537                0.08869610                0.07854964
              16.10366975                5.61177031               79.32064905                1.00000000               -0.11371628               -0.11927540                0.39070158                0.00511305                0.16044517               -0.22564998
              17.10230434                5.11411004               78.89068402                0.85950534               -0.15790304               -0.16623710                0.53859900               -0.01033412                0.23482609               -0.20693892
              18.10051169                4.61579626               78.46209492                0.71758568               -0.20647900               -0.20793299                0.67703356               -0.02690219                0.22151501               -0.21631590
              19.09817476                4.11673864               78.03237761                0.38185063               -0.30074520               -0.26188044                0.82948107               -0.19281887                0.26909687               -0.40285859
              20.09449679                3.61403722               77.60559985                0.00010000                0.96679629                0.06887918                1.00169888               -4.87474882                7.95183702               -1.33466561
              21.11751068                3.00711613               77.33003797                0.00010000                3.30623045               -2.02023138               -0.48685083               -6.66770203               15.01986970               -0.27861984
              22.16062140                2.39078082               77.04158713                0.00010000                4.10446737               -1.28852353               -1.35240313               -5.50897529               14.53383159               -0.75993777
              23.19960003                1.78790207               76.75385816                0.91955433                2.17943933                0.51485394               -1.71456814               -3.01894581                7.36390900                0.00475104
              24.20421018                1.24738869               76.31810900                1.00000000                0.46101515                0.42610445               -1.42930259               -0.10950968                0.01770099               -0.08695659
              14.60243500                7.60596042               80.04706763                1.00000000               -0.03542164               -0.01781661                0.06093606               -0.00552809                0.14894551                0.77923488
              15.60208079                7.10832446               79.61270759                1.00000000               -0.05245805               -0.07038909                0.20863644                0.00101805                0.33723730                0.00579602
              16.60138584                6.61059892               79.18172713                0.00010000               -0.08075842               -0.11135074                0.35355709               -0.01722179                0.91211953               -0.65972381
              17.60046562                6.11242282               78.75880916                0.00010000               -0.10534877               -0.62072081                0.51047285               -0.28085655                1.24589259               -0.17105364
              18.59927887                5.61367191               78.33470430                0.00010000               -0.13886526               -1.05005271                0.64105014               -0.18358190                1.04034063                0.37892505
              19.59768831                5.11411072               77.90826124                0.00010000               -0.08970686               -1.67329696                0.80345417                0.22169739                1.07142007                1.23433777
              20.59748473                4.61023997               77.48580413                0.00010000                2.49637618               -3.58192878                0.98489355               -4.71473195                7.85681182                3.11836725
              21.64761584                3.97556770               77.19742507                0.00010000                4.81842455               -2.47778495               -0.83119418               -8.83651671               12.92759297               -0.02593071
              22.69385322                3.38097868               76.88273452                0.00010000                4.69566642               -0.72120508               -1.63811646               -7.47001314               13.20057534               -1.94816626
              23.74152916                2.79204223               76.59989314                0.00010000                2.51142447                1.47444440               -1.09673952               -6.10550776                7.61676334               -5.03299408
              24.74408171                2.25069689               76.16366103                0.51908696                0.25525448                3.00158987               -0.83170147               -4.01749939                0.07748108               -3.39321444
              15.10024588                8.60587310               79.91049709                1.00000000               -0.02853593                0.00219586                0.01975798               -0.00095694                0.25036847                0.65566940
              16.09996052                8.10766663               79.47261856                0.49349664               -0.05094601               -0.06834535                0.17369992                0.01169600                0.42133732               -0.33755247
              17.09922696                7.60954330               79.03784214                0.00010000               -0.31731550               -0.14615528                0.30925611               -0.45159017                1.74732424               -1.16330762
              18.09361421                7.10169562               78.62652552                0.00010000               -0.20374061               -0.91765281                0.06420767               -1.08811846                3.05253716               -0.41843328
              19.09515215                6.59479520               78.21777343                0.00010000                0.62132205               -1.75853644               -0.17069965               -0.99836410                3.36692577                0.55577104
              20.10604066                6.08327270               77.81391689                0.00010000                2.17965096               -3.04051578               -0.44288849               -1.78937203                4.50372841                1.97276453
              21.13874517                5.54239865               77.43146197                0.00010000                3.20004897               -5.03190047               -0.97403234               -4.19167406                6.00492197                3.88101609
              22.17004163                4.95756043               77.06610550                0.00010000                2.80007161               -1.37124894               -1.55111622               -7.42742192                7.27542646                0.02780190
              23.19474660                4.37635672               76.71720015                0.00010000                1.88650149                0.34378401               -2.06871425               -7.58524040                6.74913214               -2.43268856
              24.20777166                3.81739096               76.34374465                0.00010000                0.59021332                2.84503345               -2.65695317               -6.01501973                4.10958262               -7.37330019
              25.20655087                3.30742049               75.94259689                0.41178396               -0.12207956                4.66390688               -3.25476543               -3.56585729                2.40621262               -6.07915315
              15.59882881                9.60600434               79.77241590                1.00000000               -0.01843028                0.02051046               -0.02184666               -0.00057221               -0.00360028                0.55733830
              16.59864451                9.10695756               79.32734617                0.37796303               -0.02518833               -0.07065948                0.16054826               -0.00236048                0.34567409               -0.50717412
              17.59832505                8.60767581               78.88903864                0.00010000               -0.25965842               -0.21326566                0.28361511               -0.71473633                2.60953500               -1.63457775
              18.59345134                8.09406976               78.48940084                0.00010000               -0.02952702               -0.68502157               -0.28342098               -1.45765737                4.64271331               -0.88112251
              19.59773451                7.57850119               78.09248793                0.00010000                1.04230431               -1.41646685               -0.83871371               -1.86562691                4.89674006               -0.20636017
              20.61429743                7.05330040               77.70031196                0.00010000                2.08145046               -2.31854900               -1.42142692               -3.13083592                5.17369500                0.44740409
              21.63936352                6.50960196               77.31415764                0.00010000                2.54059474               -2.29492932               -2.02059632               -5.59405596                5.33966463                0.36406467
              22.66510932                5.94814272               76.93315116                0.00010000                2.14771824               -0.45127871               -2.55880429               -6.99499352                5.04267028               -0.31836518
              23.68231788                5.38785436               76.54955739                0.00010000                1.25278388                1.37738427               -2.96583276               -6.33076632                3.99520731               -1.97419655
              24.69016500                4.84894290               76.15472215                0.00010000                0.51938106                2.89358603               -3.16881147               -3.72647066                2.08144836               -3.26146263
              25.69270550                4.34397503               75.73788826                0.41273027                0.25405007                3.14573152               -3.22053623               -1.62848998                1.04976317               -4.36371783
              16.09832800               10.60628331               79.63353457                1.00000000               -0.00861625                0.03571752               -0.06430998               -0.00126492                0.00339111                0.56260205
              17.09824184               10.10625344               79.18376063                0.38525475               -0.02539830               -0.06684315                0.13590485               -0.03877370                0.10729212               -0.40605316
              18.09782003                9.60527799               78.73591502                0.00010000               -0.23030699               -0.21776406                0.31881240               -0.91244072                3.17386097               -1.68097779
              19.09363570                9.08799519               78.34770556                0.00010000                0.03944686               -0.50055219               -0.53875339               -1.93342191                6.03246601               -1.22577409
              20.09860897                8.56646587               77.95866654                0.00010000                0.93437349               -0.88524350               -1.33758162               -2.59353571                5.87917078               -0.82556937
              21.11232317                8.03690172               77.57052407                0.00010000                1.67063829               -1.09896557               -2.11228340               -3.84330684                5.68544254               -0.55096075
              22.13202174                7.49650006               77.18268165                0.00010000                1.97830963               -0.70539944               -2.84086789               -5.25711602                5.24322004               -0.48239844
              23.15188936                6.94853485               76.79246127                0.00010000                1.76546805                0.43102397               -3.45945162               -5.92724577                4.42703127               -0.71140999
              24.16733110                6.40390441               76.39548797                0.00010000                1.26161114                1.71161950               -3.86852656               -5.07389859                3.19229471               -1.17012757
              25.17712158                5.87526268               75.98625217                0.00010000                0.82928543                2.51811094               -4.01562406               -2.86000628                1.64638409               -1.85445278
              26.18391681                5.37033512               75.56074723                0.41356833                0.67952236                2.50832003               -4.02565435               -1.24619866                0.85138881               -2.78867408
              16.59886326               11.60671869               79.49527155                1.00000000                0.00111012                0.05129527               -0.11119678               -0.00011835                0.00072482                0.62343818
              17.59887437               11.10562069               79.04052966                0.41585550               -0.02643898               -0.05880103                0.11303572               -0.05065096                0.03193167               -0.38403698
              18.59833448               10.60332053               78.58632957                0.00010000               -0.26396710               -0.17990615                0.33973127               -0.96492590                3.61176870               -1.44804102
              19.59359502               10.08405872               78.20343581                0.00010000               -0.06886098               -0.24853642               -0.71316073               -2.09798850                7.00481280               -1.36286266
              20.59695727                9.56079631               77.81945762                0.00010000                0.69010381               -0.28913527               -1.68999612               -2.79306995                6.70572401               -1.14306218
              21.60739710                9.03132109               77.43401057                0.00010000                1.28153969               -0.17672899               -2.61652660               -3.72788164                6.25530527               -0.93857984
              22.62258806                8.49549397               77.04564216                0.00010000                1.58814820                0.27647063               -3.47234799               -4.56056212                5.55489698               -0.80402951
              23.63916006                7.95676320               76.65170358                0.00010000                1.57620125                1.06696095               -4.19437416               -4.75353106                4.54440915               -0.77321340
              24.65411208                7.42208675               76.24866807                0.00010000                1.36870499                1.89227114               -4.70435258               -3.95673280                3.23271050               -0.89715260
              25.66653416                6.89930512               75.83292060                0.00010000                1.17622825                2.36714483               -4.95095661               -2.22313072                1.69551955               -1.25974184
              26.67763665                6.39414143               75.40174934                0.41463310                1.11024857                2.27287474               -4.89988498               -0.94593899                0.85738840               -2.03375931
              17.10052162               12.60730922               79.35736116                1.00000000                0.01053523                0.06582467               -0.15914353                0.00127221                0.00251283                0.65714941
              18.10062697               12.10507742               78.89749779                0.44394369               -0.02190632               -0.04953141                0.09277636               -0.04769718                0.03309120               -0.38566375
              19.10008349               11.60167986               78.43822865                0.00010000               -0.32134127               -0.15676248                0.34939572               -0.86897191                4.04022545               -1.38452856
              20.09420015               11.08302446               78.05882308                0.00010000               -0.22991481                0.02970448               -0.83199955               -1.90864906                7.83298316               -1.32045196
              21.09548520               10.56068316               77.67844433                0.00010000                0.44338683                0.20217600               -1.93574975               -2.51874273                7.46415815               -1.18017760
              22.10306788               10.03336714               77.29535935                0.00010000                0.99415958                0.45361169               -2.97815065               -3.19986948                6.88316700               -1.00432419
              23.11536839                9.50202947               76.90766606                0.00010000                1.35790359                0.87317784               -3.93928536               -3.66136292                6.05781465               -0.84388238
              24.13022595                8.96987407               76.51272148                0.00010000                1.51430676                1.43993385               -4.76154132               -3.61464586                4.94886134               -0.74209644
              25.14565452                8.44174983               76.10736420                0.00010000                1.51891668                1.98671185               -5.36423571               -2.89641958                3.55100297               -0.76990029
              26.16060429                7.92260558               75.68836108                0.00010000                1.48354380                2.27310446               -5.66311525               -1.59496264                1.88448483               -1.04518829
              27.17532540                7.41579261               75.25277814                0.41569649                1.47211110                2.07222942               -5.59412206               -0.65945737                0.91559255               -1.72493986
              17.60335231               13.60803518               79.21955788                1.00000000                0.01974694                0.07791541               -0.20795071                0.00205010                0.00799292                0.65674704
              18.60354978               13.10463007               78.75441089                0.47823979               -0.01721514               -0.04035783                0.07778626               -0.04064357                0.06344030               -0.41631403
              19.60300801               12.60018528               78.29042047                0.00010000               -0.35655175               -0.14315921                0.36045401               -0.63174085                4.55200755               -1.18998671
              20.59641874               12.08465281               77.91543961                0.00010000               -0.33841358                0.26694441               -0.92061780               -1.41453488                8.68986674               -1.13470390
              21.59623973               11.56483983               77.53820414                0.00010000                0.28173280                0.55869002               -2.11292803               -1.93881340                8.19009671               -0.98776734
              22.60205340               11.04039333               77.15752614                0.00010000                0.83070653                0.84713474               -3.23992159               -2.41126695                7.51480288               -0.83357035
              23.61285386               10.51295752               76.77123926                0.00010000                1.25466959                1.21038367               -4.28112643               -2.64714674                6.60854502               -0.68895152
              24.62714679                9.98556188               76.37671622                0.00010000                1.52991624                1.62559448               -5.17948458               -2.49442479                5.42516202               -0.58779058
              25.64345219                9.46182099               75.97078474                0.00010000                1.67226674                1.99471597               -5.84670929               -1.90205302                3.92469643               -0.60074569
              26.66059213                8.94476721               75.54998931                0.00010000                1.73106176                2.16522950               -6.17975867               -0.98961015                2.09888608               -0.83776914
              27.67807342                8.43558602               75.11106773                0.41646877                1.74812993                1.93419772               -6.08669839               -0.36974673                1.00898315               -1.41892733
              18.10737285               14.60886753               79.08147308                0.96659579                0.02911458                0.08825984               -0.25162177                0.00167336                0.02655443                0.56835127
              19.10766400               14.10427026               78.61098548                0.39042549                0.00265422               -0.03204515                0.06363908               -0.03095264                0.33501881               -0.42286556
              20.10742593               13.59881668               78.14678180                0.00010000               -0.32045493               -0.13898363                0.33475640               -0.29193834                5.22412531               -0.96053117
              21.10125490               13.08836335               77.77463537                0.00010000               -0.32287630                0.44100715               -1.00245946               -0.71991039                9.46931066               -0.70891920
              22.10096841               12.57185696               77.40085686                0.00010000                0.27349787                0.74509045               -2.26283195               -1.09979133                8.86921441               -0.57652429
              23.10672485               12.05030983               77.02257251                0.00010000                0.81442474                1.05548714               -3.44972606               -1.36701182                8.08249705               -0.47678817
              24.11725690               11.52623715               76.63803153                0.00010000                1.23745698                1.39389722               -4.54851974               -1.45807979                7.11689078               -0.38284489
              25.13147399               11.00238596               76.24467956                0.00010000                1.55756142                1.73084362               -5.50217724               -1.32279954                5.88478158               -0.31374889
              26.14840813               10.48164415               75.83927433                0.00010000                1.77865294                1.99974967               -6.21731401               -0.94625195                4.30428227               -0.31739216
              27.16704705                9.96591017               75.41793560                0.00010000                1.89423533                2.10955435               -6.57491850               -0.44315843                2.31680079               -0.46744489
              28.18629284                9.45447657               74.97654173                0.41751948                1.92457852                1.92813483               -6.45616554               -0.11518866                1.10900346               -0.88725403
              18.61258031               15.60980038               78.94179238                0.96290643                0.04012680                0.09328500               -0.30547740               -0.06037588                0.27103957                0.49065151
              19.61298157               15.10398916               78.46804061                0.65561665                0.02479238               -0.02810996                0.04891871               -0.08798048                0.75554996               -0.41563399
              20.61307615               14.59740561               78.00416225                0.36856485               -0.20006612               -0.14110673                0.31442278                0.03921126                6.16769516               -0.93869533
              21.60898025               14.09347295               77.63943301                0.36304211               -0.03893646                0.51096017               -1.12301166               -0.11066294               10.29627541               -0.32085954
              22.61229742               13.57974164               77.26814420                0.36095644                0.56763635                0.78846813               -2.42663252               -0.46559244                9.36018709               -0.28394806
              23.62033298               13.06150307               76.89190639                0.36244445                0.96593569                1.11932378               -3.65432268               -0.58449640                8.49910425               -0.24630604
              24.63161614               12.54083547               76.50899642                0.36720780                1.24754098                1.45983215               -4.79232616               -0.63029253                7.49327085               -0.21970152
              25.64528380               12.02017875               76.11707967                0.37527241                1.46934044                1.77927864               -5.78636001               -0.56999396                6.26231281               -0.20764866
              26.66100295               11.50181598               75.71306242                0.38779964                1.68063695                2.01718328               -6.54293447               -0.40154119                4.70418642               -0.23684379
              27.67889654               10.98695829               75.29301783                0.40453478                1.88169494                2.10481281               -6.93854276               -0.19841486                2.66019995               -0.34488398
              28.69863685               10.47414872               74.85138162                0.70905968                1.97403088                1.96721477               -6.82182554               -0.04655699                1.37669515               -0.66122622
              14.03469032                5.74988170               81.32143908                1.00000000               -0.04461707               -0.00714957                0.04028291                0.03030794               -0.39386658                0.47750216
              15.03424415                5.24907309               80.89200107                1.00000000               -0.07754020               -0.06746855                0.23728509                0.03726517               -0.48521686                0.05626126
              16.03313952                4.74808262               80.46027528                1.00000000               -0.14059285               -0.12200161                0.42877403                0.03718229               -0.51418477               -0.03959108
              17.03143230                4.24676286               80.03013125                0.68339153               -0.20935013               -0.18129498                0.61888551                0.01227837               -0.47005450               -0.25605938
              18.02895252                3.74478524               79.59945309                0.49605597               -0.27584821               -0.23905189                0.80874500               -0.00141082               -0.44589478               -0.28920418
              19.02591533                3.24227702               79.17023888                0.16392358               -0.67394931               -0.31406505                1.01908900               -0.41502313                0.41939559               -0.56441991
              20.01547353                2.73142323               78.75757907                0.00010000               -1.58613307                0.17432583                0.83045484               -3.82290793                7.39720052               -1.84950539
              20.99419267                2.14772416               78.46091404                0.00010000                0.33520632               -1.04967564               -0.32709719               -3.64852723               14.17710096               -0.38616770
              22.02217766                1.54914444               78.17158671                0.00010000                4.92698364               -1.62396820               -1.42078101               -3.73812473               14.69010205               -0.21400432
              23.09273234                0.93173916               77.88385376                1.00000000                3.83354709                0.64338401               -2.24530690               -3.77955163                7.22793152                0.00394520
              24.09884860                0.39209713               77.45208106                1.00000000                0.61162557                0.50495249               -1.83454248                0.03760669               -0.02054153               -0.04694065
              14.53580202                6.74981021               81.18278565                1.00000000               -0.02856742               -0.00436951                0.00702810                0.00021276                0.01320609                0.66127827
              15.53551634                6.24839840               80.75322193                1.00000000               -0.05677808               -0.06590435                0.20586677                0.00827106                0.08292318                0.07990968
              16.53466646                5.74686261               80.32461852                1.00000000               -0.11562867               -0.12192719                0.40051137                0.00566934                0.15755688               -0.21774131
              17.53320377                5.24494991               79.89641404                0.87364341               -0.17425633               -0.18669219                0.60156687               -0.00910567                0.23521924               -0.19078605
              18.53118133                4.74239473               79.46952495                0.73295254               -0.23788303               -0.24735767                0.80056320               -0.02386856                0.23365244               -0.20875186
              19.52844611                4.23913637               79.04168344                0.40781319               -0.33302246               -0.32118281                1.02190296               -0.14546176                0.31080240               -0.39963854
              20.52452088                3.73316649               78.61705649                0.00010000                1.02003407               -0.14484169                1.27485750               -4.32261827                7.13722820               -1.12647516
              21.54884679                3.13722741               78.32622370                0.00010000                3.41340151               -2.07159161               -0.30113010               -5.82257434               13.57270268               -0.60973761
              22.59278891                2.53290476               78.02834407                0.00010000                4.23068463               -1.39109049               -1.28500850               -4.86552034               13.52228298               -1.13614468
              23.63346048                1.93817300               77.73519270                0.87061190                2.30388939                0.60702104               -1.98361988               -2.64122090                6.92701277               -0.00565206
              24.63886670                1.39714665               77.30300864                1.00000000                0.54062147                0.46579626               -1.55041988               -0.03543443                0.01657605               -0.10844215
              15.03751819                7.74979431               81.04722346                1.00000000               -0.01610157                0.00465186               -0.02667522               -0.00347651                0.14446156                0.77106398
              16.03735717                7.24775500               80.61463075                1.00000000               -0.04083950               -0.06093398                0.17612248                0.00089743                0.33138112                0.01018770
              17.03670140                6.74564408               80.18538732                0.00010000               -0.08195531               -0.11767858                0.37557554               -0.02293115                0.91302843               -0.65219962
              18.03571807                6.24302902               79.76431401                0.00010000               -0.12063550               -0.62779076                0.58481777               -0.28774329                1.25190805               -0.35701398
              19.03428869                5.73983809               79.34186698                0.00010000               -0.17418644               -1.04046514                0.78504276               -0.21014300                1.06645475                0.00285771
              20.03223434                5.23585336               78.91742885                0.00010000               -0.16792795               -1.60748917                1.02409931                0.17737901                1.14298425                0.63474729
              21.03093013                4.72852639               78.49729192                0.00010000                2.28842861               -3.32334903                1.30153035               -4.10171379                6.91175007                2.12540939
              22.07800291                4.10629233               78.19016305                0.00010000                4.64957631               -2.41221437               -0.65604865               -7.79131674               11.44670916               -0.70964472
              23.12392165                3.52132263               77.86722406                0.00010000                4.88315610               -0.86670223               -1.47116484               -6.56200885               12.71115324               -2.66941542
              24.17566603                2.94387958               77.58606071                0.00010000                2.81354753                1.30079248               -1.68370182               -5.79064995                7.54139288               -5.76392962
              25.18019260                2.40141305               77.15326682                0.40621908                0.45265741                3.00304225               -1.22496099               -4.28584440                0.07743960               -4.46634169
              15.53981111                8.74990324               80.91030254                1.00000000               -0.01265872                0.01949358               -0.05578288               -0.00024024                0.24183315                0.64480232
              16.53968452                8.24717972               80.47425337                0.51279782               -0.04386467               -0.06110732                0.15305532                0.00677046                0.40320498               -0.31844746
              17.53893382                7.74450904               80.04111340                0.00010000               -0.32148143               -0.15301410                0.34175805               -0.44987668                1.53503912               -1.14569723
              18.53325489                7.23239410               79.62772889                0.00010000               -0.23898468               -0.90733892                0.16749912               -1.07776776                2.64370826               -0.77409540
              19.53415412                6.72158542               79.21702072                0.00010000                0.50252466               -1.68490447                0.00324666               -0.98211643                2.94074982               -0.15344755
              20.54330539                6.20698659               78.81085061                0.00010000                1.89467573               -2.81982638               -0.19600908               -1.65521623                3.93668665                0.86914895
              21.57204764                5.66669950               78.42340553                0.00010000                2.84594150               -4.56552179               -0.69147450               -3.67398243                5.28529479                2.32574275
              22.60022422                5.08898312               78.05184484                0.00010000                2.59569218               -1.28931568               -1.33891194               -6.57133967                6.61699051               -0.96911216
              23.62396148                4.51557071               77.69685601                0.00010000                1.86664224                0.23178208               -1.96222971               -6.80038819                6.27622598               -3.47666257
              24.63755706                3.96418885               77.32030989                0.00010000                0.70606923                2.34574121               -2.22054963               -5.71125723                3.89354909               -8.64480889
              25.63808287                3.45720750               76.91622124                0.40658053                0.05258037                4.19296794               -2.36710600               -3.56872307                2.68828981               -7.72473050
              16.04296043                9.75018418               80.77187156                1.00000000               -0.00736377                0.03446861               -0.08449258                0.00074653                0.00033051                0.54155702
              17.04288679                9.24653285               80.32892570                0.40300016               -0.02354674               -0.06760716                0.15448354               -0.00831153                0.31878167               -0.48076293
              18.04248949                8.74258380               79.89213300                0.00010000               -0.29002314               -0.21854930                0.33161240               -0.69978307                2.21297485               -1.56804640
              19.03708632                8.22488224               79.48722035                0.00010000               -0.12178107               -0.66862117               -0.16483315               -1.41542940                3.88456442               -1.14117638
              20.04005387                7.70614000               79.08515975                0.00010000                0.84648027               -1.33015036               -0.64950383               -1.74800448                4.11380760               -0.76360111
              21.05401593                7.17945684               78.68759488                0.00010000                1.77000391               -2.11718840               -1.16221102               -2.82501268                4.36967316               -0.38883941
              22.07545395                6.63721596               78.29580534                0.00010000                2.18444875               -2.05241967               -1.71407960               -4.93996353                4.58834138               -0.62946141
              23.09770491                6.08050602               77.90947835                0.00010000                1.86271057               -0.39581691               -2.25599811               -6.12829400                4.48538021               -1.42437272
              24.11270816                5.52595827               77.52192865                0.00010000                1.10495988                1.23671895               -2.66149705               -5.58300500                3.73966075               -3.22081875
              25.11980410                4.99079441               77.12421154                0.00010000                0.50363448                2.47887503               -2.92875598               -3.37735513                2.14036920               -4.60898441
              26.12278085                4.48527241               76.70530513                0.40748529                0.29767452                2.50151943               -3.04091543               -1.57796505                1.13810841               -5.69389866
              16.54712870               10.75059262               80.63262900                1.00000000               -0.00100226                0.04786683               -0.11464666               -0.00032538                0.00392713                0.54085528
              17.54711868               10.24582758               80.18515860                0.41224096               -0.02699641               -0.06947936                0.14207961               -0.04018517                0.10010368               -0.38417438
              18.54658877                9.74013805               79.73946162                0.00010000               -0.28642865               -0.22681105                0.38238003               -0.87076122                2.64073510               -1.58693106
              19.54139010                9.21902167               79.34300807                0.00010000               -0.09846674               -0.48022891               -0.41322356               -1.82388108                4.97791920               -1.38812898
              20.54461944                8.69498242               78.94637576                0.00010000                0.71695371               -0.81235280               -1.14444409               -2.36172641                4.84230539               -1.21204924
              21.55572918                8.16464282               78.55094928                0.00010000                1.37898750               -0.98126731               -1.84633909               -3.40855923                4.67757954               -1.13819440
              22.57219919                7.62565111               78.15629920                0.00010000                1.65934216               -0.61111818               -2.50677199               -4.57160976                4.33997679               -1.25518754
              23.58891602                7.08106678               77.76033733                0.00010000                1.49069024                0.39582464               -3.06935624               -5.07545951                3.74155894               -1.68098048
              24.60201299                6.54030509               77.35941728                0.00010000                1.08898995                1.50344320               -3.46583439               -4.27497583                2.79616497               -2.36231175
              25.61069582                6.01376635               76.94842930                0.00010000                0.77772800                2.16336447               -3.65049247               -2.35308643                1.49692530               -3.19742119
              26.61756755                5.50723789               76.52306900                0.40830754                0.68717312                2.04736619               -3.63117283               -0.97296573                0.79907118               -3.94349643
              17.05248399               11.75114152               80.49395031                1.00000000                0.00536578                0.06174788               -0.15098819                0.00071607                0.00092307                0.59623142
              18.05253765               11.24514327               80.04175281                0.44406833               -0.03019092               -0.06542709                0.12940198               -0.04783583                0.03328744               -0.35959854
              19.05188017               10.73804758               79.59011626                0.00010000               -0.33866551               -0.19798258                0.41024746               -0.89427121                2.97649714               -1.36432166
              20.04576434               10.21527766               79.19698892                0.00010000               -0.23409886               -0.23434869               -0.58794007               -1.92789785                5.73437262               -1.44048174
              21.04719820                9.68989295               78.80359514                0.00010000                0.47058556               -0.24432077               -1.50330567               -2.49377820                5.46824553               -1.37957170
              22.05517605                9.15983149               78.40934488                0.00010000                1.01997968               -0.12557066               -2.35674201               -3.26111001                5.06254156               -1.33163682
              23.06759779                8.62499359               78.01297864                0.00010000                1.31828412                0.27851859               -3.13040178               -3.91773211                4.47066172               -1.36134896
              24.08154173                8.08842251               77.61240208                0.00010000                1.34556408                0.95327540               -3.77252770               -4.00155187                3.66022009               -1.51116915
              25.09450907                7.55602714               77.20478690                0.00010000                1.21339244                1.63003585               -4.21605008               -3.24590044                2.62505176               -1.81837262
              26.10580958                7.03406170               76.78702737                0.00010000                1.09346955                1.97999964               -4.40787995               -1.77052731                1.38445250               -2.29363419
              27.11637846                6.52621974               76.35638023                0.40939894                1.05688806                1.82624402               -4.33507276               -0.72613564                0.70641337               -2.99961297
              17.55913953               12.75182757               80.35560844                1.00000000                0.01163750                0.07414062               -0.18924328                0.00214211                0.00258489                0.62669214
              18.55925590               12.24451904               79.89856858                0.47516124               -0.02852866               -0.05842898                0.11824448               -0.04326209                0.03520567               -0.35593830
              19.55856895               11.73617840               79.44215406                0.00010000               -0.41345615               -0.18104599                0.42660453               -0.77315146                3.32405153               -1.29927959
              20.55098678               11.21433470               79.05114410                0.00010000               -0.41894552                0.03680577               -0.71269763               -1.69936806                6.40143393               -1.33640590
              21.55019004               10.69009600               78.66002009                0.00010000                0.22097751                0.23018329               -1.76390006               -2.20508562                6.06914861               -1.29988047
              22.55540633               10.16213140               78.26693752                0.00010000                0.75317406                0.47078184               -2.73782045               -2.77055572                5.53391898               -1.23573436
              23.56525352                9.63122148               77.87019452                0.00010000                1.12225555                0.83386809               -3.61488081               -3.12447466                4.80857862               -1.19730420
              24.57785144                9.10013229               77.46768490                0.00010000                1.31011358                1.30069819               -4.34305261               -3.02730890                3.88747908               -1.22635316
              25.59145580                8.57290581               77.05696805                0.00010000                1.36206171                1.72557219               -4.85207695               -2.37239273                2.77248974               -1.37379664
              26.60509267                8.05336634               76.63550011                0.00010000                1.36364802                1.91242283               -5.07382333               -1.27555074                1.47060676               -1.71009223
              27.61872876                7.54376277               76.20090965                0.41029847                1.36360818                1.70947121               -4.95695562               -0.50739974                0.73383611               -2.32094222
              18.06714391               13.75262433               80.21736713                1.00000000                0.01776758                0.08376075               -0.22825771                0.00290372                0.00997877                0.62622947
              19.06732158               13.24397469               79.75538326                0.51196326               -0.02712114               -0.05118532                0.11223135               -0.03589694                0.06395471               -0.38068305
              20.06660148               12.73442666               79.29450894                0.00010000               -0.47311020               -0.16901901                0.44515392               -0.51413286                3.76292155               -1.11513562
              21.05785938               12.21601378               78.90682078                0.00010000               -0.56508526                0.28163582               -0.80833465               -1.18587152                7.12769286               -1.11191289
              22.05529978               11.69449661               78.51788157                0.00010000                0.03900378                0.59413092               -1.95887251               -1.65987464                6.67201370               -1.02842401
              23.05863945               11.16924713               78.12629921                0.00010000                0.59038175                0.85942864               -3.02577789               -2.07299228                6.04030288               -0.94442444
              24.06710741               10.64167096               77.73012311                0.00010000                1.03358869                1.16775516               -3.98735091               -2.25535366                5.22798280               -0.87773552
              25.07931123               10.11443647               77.32726709                0.00010000                1.33598741                1.50242364               -4.79015157               -2.09099125                4.22919222               -0.85676650
              26.09382716                9.59053858               76.91535836                0.00010000                1.50651916                1.78139015               -5.35628888               -1.56283756                3.02821081               -0.93515041
              27.10944161                9.07231015               76.49183964                0.00010000                1.58052296                1.88520367               -5.59995749               -0.79597914                1.61305249               -1.19000041
              28.12543762                8.56040916               76.05418886                0.41100746                1.59960101                1.66329146               -5.45089030               -0.28403847                0.79104050               -1.70468918
              18.57649689               14.75350279               80.07889844                0.98997925                0.02387460                0.09100353               -0.26090669                0.00152458                0.02061176                0.53245791
              19.57673564               14.24349533               79.61187384                0.42291477               -0.01248416               -0.04528384                0.10772309               -0.02614166                0.30701707               -0.38270925
              20.57624721               13.73279802               79.15066417                0.00010000               -0.47681210               -0.16498292                0.42951253               -0.14301217                4.36110364               -0.89259025
              21.56719940               13.21996741               78.76516817                0.00010000               -0.62440043                0.51037711               -0.89317905               -0.53083075                7.80732783               -0.68177874
              22.56375920               12.70197862               78.37893698                0.00010000               -0.02136281                0.80246099               -2.12098642               -0.91861265                7.25084296               -0.57905150
              23.56677214               12.17931998               77.98909407                0.00010000                0.55989523                1.07703983               -3.25532857               -1.17409273                6.51054050               -0.51412545
              24.57495710               11.65457659               77.59404275                0.00010000                1.01959253                1.36135437               -4.28020623               -1.24304505                5.63537744               -0.45889380
              25.58716399               11.13018076               77.19177679                0.00010000                1.36841305                1.63226280               -5.14108250               -1.11038505                4.58630218               -0.42851340
              26.60232537               10.60853361               76.77991359                0.00010000                1.60692611                1.83433563               -5.75397253               -0.77940288                3.31626825               -0.46088708
              27.61930251               10.09107042               76.35562058                0.00010000                1.72623020                1.89578740               -6.01849466               -0.35731072                1.77548622               -0.61194874
              28.63684997                9.57702860               75.91576896                0.41177589                1.75474575                1.71789120               -5.84204545               -0.08388392                0.86315322               -0.97433420
              19.08718931               15.75444440               79.93873140                0.97436248                0.03142053                0.09416147               -0.30091534               -0.06829724                0.25838235                0.44678525
              20.08750352               15.24306901               79.46883635                0.66924434                0.00399219               -0.04263205                0.10051586               -0.08908222                0.69942766               -0.37059998
              21.08726916               14.73112700               79.00791198                0.36778440               -0.47206769               -0.16710196                0.41888813                0.25981005                5.20957354               -0.85937447
              22.07806216               14.22622132               78.62877360                0.36282150               -0.48470966                0.62539028               -1.00765995                0.05721832                8.52295139               -0.29542292
              23.07757496               13.71054583               78.24458249                0.36106781                0.22487337                0.85672126               -2.28082865               -0.39009352                7.66748184               -0.27017783
              24.08255963               13.19078792               77.85636938                0.36220447                0.69053828                1.14679455               -3.45642695               -0.50364027                6.85697755               -0.24708765
              25.09138573               12.66889804               77.46255813                0.36663095                1.02934337                1.43214569               -4.51981805               -0.54244737                5.94010078               -0.23454493
              26.10314650               12.14708173               77.06133526                0.37422271                1.29818594                1.69009678               -5.41900189               -0.48538666                4.88651997               -0.23457153
              27.11734945               11.62722529               76.65046933                0.38506375                1.53269573                1.86916799               -6.06964267               -0.34038332                3.63461977               -0.26949096
              28.13380041               11.11022590               76.22713012                0.40000851                1.72470682                1.91554827               -6.36659831               -0.17312538                2.05173987               -0.36887789
              29.15184358               10.59476698               75.78702419                0.70614956                1.80431703                1.77383882               -6.19080612               -0.04653018                1.08080887               -0.63715412
              14.45917792                5.89346578               82.32131750                1.00000000               -0.02257060                0.02048406               -0.05969003                0.04102778               -0.39913249                0.47626208
              15.45895222                5.38857788               81.89410787                1.00000000               -0.06362961               -0.05349541                0.18544781                0.04722273               -0.49620649                0.05807390
              16.45790533                4.88350614               81.46454159                1.00000000               -0.14164362               -0.12026879                0.42185764                0.04649073               -0.53034113               -0.03485043
              17.45611934                4.37806080               81.03654766                0.68898211               -0.22426726               -0.19492365                0.65844489                0.01812689               -0.48707848               -0.24616569
              18.45341999                3.87190278               80.60799599                0.50852878               -0.30358780               -0.26954500                0.89146995                0.00503574               -0.45008068               -0.27953058
              19.45004759                3.36517081               80.18118458                0.19041451               -0.53969690               -0.36149073                1.15713138               -0.26810074                0.25319629               -0.56566602
              20.44262605                2.85291743               79.76734660                0.00010000               -1.13998677               -0.11225517                1.13051949               -3.36955240                6.39658791               -1.56810644
              21.42724785                2.27762966               79.45879496                0.00010000                0.65274689               -1.19572994               -0.11069384               -3.15522332               12.61171994               -0.51014643
              22.45568099                1.68895435               79.15831871                0.00010000                4.76661931               -1.65337647               -1.25611126               -3.28246665               13.23742741               -0.26301652
              23.52258024                1.07914619               78.86192700                1.00000000                3.63493744                0.64358996               -2.19372383               -3.38912817                6.53928833               -0.10545948
              24.52837973                0.53938082               78.43482992                1.00000000                0.57994949                0.46532656               -1.67504694                0.07647213               -0.01429179               -0.11441942
              14.96447610                6.89367062               82.18237973                1.00000000               -0.00718405                0.01995125               -0.08402706                0.00381656                0.00833093                0.65655559
              15.96440426                6.38804292               81.75506477                1.00000000               -0.04236628               -0.05405494                0.16336367                0.01125845                0.07475776                0.08204199
              16.96362878                5.88230345               81.32865928                1.00000000               -0.11509857               -0.12230472                0.40419400                0.00632314                0.15199042               -0.20867807
              17.96210229                5.37611156               80.90271536                0.88449510               -0.18567204               -0.20465528                0.65234435               -0.00956753                0.23807108               -0.17659099
              18.95991534                4.86920733               80.47810618                0.74959739               -0.26215165               -0.28347452                0.90758773               -0.02412621                0.25942946               -0.19865477
              19.95685926                4.36155590               80.05281567                0.44282535               -0.36071201               -0.37661535                1.19362075               -0.11684914                0.37715332               -0.39697982
              20.95270110                3.85179488               79.63109700                0.00010000                1.04089503               -0.32591544                1.51019788               -3.77620335                6.26465833               -0.96857643
              21.97767716                3.26567236               79.32401537                0.00010000                3.46984784               -2.09379975               -0.21155513               -5.00021359               11.97963394               -0.83692190
              23.02209805                2.67242058               79.01588696                0.00010000                4.28992803               -1.49379586               -1.17214842               -4.17963121               12.23402855               -1.28272324
              24.06347572                2.08558209               78.71418577                0.92290181                2.34058837                0.62501283               -2.04641003               -2.23262344                6.30709602               -0.12537043
              25.06890982                1.54403409               78.28710060                1.00000000                0.54341013                0.43883177               -1.49700726               -0.01287264                0.00303941               -0.16682614
              15.47050965                7.89386481               82.04653413                1.00000000                0.00349029                0.02252134               -0.10757343               -0.00156284                0.13882292                0.76441124
              16.47054455                7.38749678               81.61623004                1.00000000               -0.02732467               -0.05200932                0.14381030                0.00023751                0.32419668                0.01580480
              17.46996316                6.88106005               81.18923864                0.00010000               -0.07602197               -0.12098935                0.39073794               -0.03528199                0.91277546               -0.64379483
              18.46902411                6.37396769               80.77050551                0.00010000               -0.12350176               -0.64020964                0.64653230               -0.31739960                1.27023516               -0.53847022
              19.46749312                5.86623329               80.35040515                0.00010000               -0.19505250               -1.03869248                0.91350328               -0.26995514                1.12516970               -0.37326948
              20.46512306                5.35763850               79.92874322                0.00010000               -0.22538006               -1.55331319                1.22904555                0.08480731                1.26548508                0.02170831
              21.46298552                4.84639912               79.51183473                0.00010000                2.07474052               -3.06973998                1.58436630               -3.55645480                5.90511863                1.06377626
              22.50661787                4.23575366               79.18430410                0.00010000                4.45965562               -2.34047353               -0.55819749               -6.80334449                9.81585918               -1.24283613
              23.55217863                3.65907843               78.85331123                0.00010000                4.98481958               -1.01508508               -1.29714927               -5.71996034               11.74760975               -3.14169569
              24.60631427                3.09164644               78.56621911                0.00010000                2.95198244                1.03809271               -1.85812584               -5.40596370                7.10157637               -6.10768680
              25.61121828                2.54815746               78.13916181                0.40103122                0.49040159                2.84267375               -1.26576809               -4.36969161                0.05649440               -5.02900273
              15.97718090                8.89412105               81.90938143                1.00000000                0.00328703                0.03221069               -0.12519782               -0.00095563                0.23167650                0.63623027
              16.97721377                8.38700274               81.47567966                0.53375822               -0.03643376               -0.05298557                0.13192385               -0.00116148                0.38246135               -0.29669409
              17.97645223                7.87988367               81.04467730                0.00010000               -0.33163590               -0.15466910                0.36719262               -0.46843186                1.32648306               -1.12461582
              18.97058105                7.36330737               80.62987550                0.00010000               -0.28034003               -0.90003214                0.25001819               -1.11792060                2.25300385               -1.12400928
              19.97084543                6.84843349               80.21783836                0.00010000                0.39042633               -1.61795861                0.14194750               -1.03373642                2.54099143               -0.86576936
              20.97838958                6.33048964               79.80999671                0.00010000                1.63057058               -2.61067778               -0.00274735               -1.60555851                3.36901176               -0.25553737
              22.00345684                5.79040008               79.41763248                0.00010000                2.52706890               -4.11400320               -0.48061250               -3.26826949                4.46671500                0.76307041
              23.02893096                5.21886289               79.03932726                0.00010000                2.41746146               -1.22954448               -1.19244453               -5.81027244                5.74468105               -1.79446822
              24.05180607                4.65211888               78.67795555                0.00010000                1.86732304                0.08991468               -1.79534303               -6.11598394                5.64325112               -4.27396280
              25.06627742                4.10634394               78.29933366                0.00010000                0.83439486                1.84986764               -2.03637015               -5.39748418                3.56710104               -9.45945779
              26.06849396                3.60088756               77.89525477                0.40176678                0.22165446                3.75459182               -1.98757416               -3.44252724                2.48199368               -8.96352582
              16.48472716                9.89450902               81.77072605                1.00000000                0.00315444                0.04503138               -0.14163438                0.00112709                0.00432165                0.52838796
              17.48475871                9.38643707               81.33043584                0.42918478               -0.02186353               -0.06299523                0.14685639               -0.01724162                0.29064904               -0.45186776
              18.48428989                8.87796667               80.89567089                0.00010000               -0.33214101               -0.21637783                0.37098211               -0.70684923                1.81983671               -1.49777145
              19.47811589                8.35596705               80.48610418                0.00010000               -0.23268825               -0.64216645               -0.07198783               -1.41968317                3.14225848               -1.40568445
              20.47963613                7.83387412               80.07949785                0.00010000                0.64647087               -1.23219949               -0.50603085               -1.69368300                3.34855857               -1.33138182
              21.49104530                7.30542494               79.67706774                0.00010000                1.48053765               -1.90509024               -0.97584007               -2.60966650                3.55959160               -1.23442331
              22.50924688                6.76411906               79.27987605                0.00010000                1.88241594               -1.80885316               -1.51168550               -4.41428919                3.76918943               -1.58440165
              23.52869362                6.21116277               78.88803120                0.00010000                1.65655117               -0.34356871               -2.06337853               -5.42854136                3.78373790               -2.39495520
              24.54237790                5.66087672               78.49632745                0.00010000                1.04511401                1.08405167               -2.49488838               -4.95813128                3.25455713               -4.19822398
              25.54959590                5.12864380               78.09614704                0.00010000                0.54512971                2.10772458               -2.73400883               -3.02482450                1.90759640               -5.66361996
              26.55328050                4.62324929               77.67706995                0.40259507                0.36845946                1.97512671               -2.70171630               -1.43320723                1.04553492               -6.73485218
              16.99334735               10.89502168               81.63124164                1.00000000                0.00639452                0.05774292               -0.15993262               -0.00040691                0.00435641                0.52097574
              17.99341129               10.38574283               81.18660222                0.44049931               -0.02810437               -0.07091620                0.14499447               -0.04250534                0.09151492               -0.36230795
              18.99278526                9.87555611               80.74356262                0.00010000               -0.35656795               -0.23125036                0.43117033               -0.84701813                2.10912457               -1.49464286
              19.98627994                9.35046404               80.33944109                0.00010000               -0.26356958               -0.44269992               -0.31407018               -1.75394530                3.93431508               -1.56247176
              20.98751387                8.82378950               79.93577766                0.00010000                0.48356914               -0.71567862               -0.99833980               -2.18730590                3.81954351               -1.61598279
              21.99595132                8.29238783               79.53359728                0.00010000                1.09596770               -0.83624148               -1.66176918               -3.06736765                3.67664280               -1.73686850
              23.00943322                7.75422301               79.13254621                0.00010000                1.38255722               -0.48736921               -2.29827429               -4.03495496                3.41844889               -2.00722024
              24.02360246                7.21199152               78.73107415                0.00010000                1.28645973                0.40147340               -2.85693562               -4.42802610                2.98744193               -2.55167210
              25.03516242                6.67379991               78.32617128                0.00010000                0.99029486                1.36459020               -3.26742538               -3.69415757                2.28460506               -3.34014809
              26.04340836                6.14849843               77.91324232                0.00010000                0.77282042                1.88589154               -3.46164700               -2.01879139                1.25522939               -4.20818963
              27.05061883                5.64039010               77.48812377                0.40335231                0.72104672                1.65296153               -3.40411176               -0.82189864                0.69747541               -4.88836106
              17.50327671               11.89566388               81.49225179                1.00000000                0.00974541                0.07022807               -0.18591328                0.00077094                0.00085990                0.56992606
              18.50337416               11.38501874               81.04311770                0.47458904               -0.03241938               -0.07073139                0.14090722               -0.04740255                0.03273022               -0.33680166
              19.50262832               10.87334166               80.59453452                0.00010000               -0.42852844               -0.21272641                0.46397220               -0.83509796                2.33933004               -1.28736106
              20.49480359               10.34711305               80.19167701                0.00010000               -0.43310537               -0.19997765               -0.48648242               -1.78491280                4.46805298               -1.53685874
              21.49396621                9.81956055               79.78939150                0.00010000                0.22304181               -0.16951879               -1.35805580               -2.24260271                4.24128598               -1.64267973
              22.49926443                9.28870012               79.38687573                0.00010000                0.74889404               -0.03448567               -2.17356070               -2.87841800                3.88332250               -1.75057687
              23.50894410                8.75437167               78.98303412                0.00010000                1.06458834                0.33579518               -2.91829533               -3.40742581                3.39350631               -1.92678459
              24.52055620                8.21919224               78.57625303                0.00010000                1.15218681                0.92452391               -3.54356773               -3.43017995                2.76697482               -2.21495789
              25.53198783                7.68816853               78.16434707                0.00010000                1.10368467                1.49512638               -3.98099965               -2.73519628                1.99358734               -2.63518462
              26.54262989                7.16636163               77.74476300                0.00010000                1.05356825                1.75465112               -4.16567308               -1.45967728                1.06280544               -3.15744675
              27.55305920                6.65630852               77.31504788                0.40412859                1.04293053                1.55875187               -4.05704979               -0.57710002                0.56833334               -3.76996889
              18.01465304               12.89642624               81.35357629                1.00000000                0.01324252                0.08029432               -0.21472243                0.00234228                0.00222677                0.59713491
              19.01478546               12.38432821               80.89986268                0.50754369               -0.03320209               -0.06538006                0.13703442               -0.04058806                0.03459193               -0.32876376
              20.01398900               11.87130158               80.44676075                0.00010000               -0.52113374               -0.19845987                0.48473945               -0.68315596                2.60187313               -1.22209354
              21.00436279               11.34646449               80.04456913                0.00010000               -0.64571227                0.06387147               -0.61182204               -1.50530421                4.96554143               -1.37486365
              22.00107475               10.82039912               79.64316633                0.00010000               -0.03954757                0.28969591               -1.62238087               -1.92655053                4.67687291               -1.45286914
              23.00357184               10.29169812               79.24060294                0.00010000                0.48589146                0.53240847               -2.56002956               -2.40533581                4.19492945               -1.50562450
              24.01079258                9.76093892               78.83536844                0.00010000                0.88150846                0.85914528               -3.40597993               -2.68572911                3.57533657               -1.58548450
              25.02120201                9.23048199               78.42586043                0.00010000                1.12482636                1.25712072               -4.10819310               -2.56486434                2.84414089               -1.72787865
              26.03328911                8.70370244               78.01032266                0.00010000                1.24364057                1.60019517               -4.59410641               -1.97172549                2.01151746               -1.96498215
              27.04607482                8.18359146               77.58688461                0.00010000                1.29469636                1.72425509               -4.79014570               -1.03722638                1.06673534               -2.32954251
              28.05918303                7.67156513               77.15363903                0.40498401                1.31082167                1.51622033               -4.64154143               -0.39580232                0.55462838               -2.86223355
              18.52751962               13.89726977               81.21499273                1.00000000                0.01674368                0.08630892               -0.24428375                0.00320038                0.01181217                0.59798896
              19.52768706               13.38371114               80.75665552                0.54805811               -0.03453490               -0.05826073                0.13738336               -0.03220785                0.06145803               -0.34799147
              20.52682892               12.86937246               80.29932355                0.00010000               -0.60435416               -0.18698713                0.50603559               -0.39779929                2.96427956               -1.04609547
              21.51559997               12.34839048               79.89927291                0.00010000               -0.83136755                0.31552298               -0.70753438               -0.96260705                5.55241215               -1.11045537
              22.51020157               11.82535447               79.49902669                0.00010000               -0.24910283                0.65879463               -1.82136030               -1.40287897                5.14616524               -1.10129935
              23.51061792               11.29934828               79.09701058                0.00010000                0.31220332                0.91295193               -2.85472321               -1.77709193                4.56668174               -1.09598821
              24.51644564               10.77155458               78.69149224                0.00010000                0.79387342                1.18426666               -3.78574113               -1.92622355                3.85886369               -1.11155304
              25.52649539               10.24433466               78.28091319                0.00010000                1.14991106                1.46327671               -4.55925422               -1.76274773                3.05409742               -1.16880808
              26.53944386                9.72017243               77.86365896                0.00010000                1.37636429                1.68064947               -5.09540192               -1.29436639                2.15556151               -1.30426368
              27.55402267                9.20084673               77.43799017                0.00010000                1.48759675                1.73946266               -5.30716381               -0.64564510                1.14395951               -1.56692486
              28.56919579                8.68663293               77.00204992                0.40565323                1.51731222                1.52947118               -5.12308461               -0.21757447                0.58301721               -2.00793259
              19.04183429               14.89815242               81.07625494                1.00000000                0.02043189                0.09002004               -0.26861708                0.00197909                0.01469861                0.50341822
              20.04203861               14.38316299               80.61313994                0.45662533               -0.02403089               -0.05295002                0.14045893               -0.02440428                0.27944767               -0.34779331
              21.04135367               13.86756184               80.15537205                0.00010000               -0.64549844               -0.18249801                0.49884508                0.00567003                3.48794174               -0.83068845
              22.02912864               13.35277495               79.75677179                0.00010000               -0.96471534                0.59815732               -0.78947846               -0.34090180                6.12461742               -0.66773487
              23.02205937               12.83357501               79.35843713                0.00010000               -0.36493757                0.88462989               -1.98236991               -0.74840368                5.61670564               -0.60215394
              24.02182989               12.30995716               78.95746594                0.00010000                0.26111849                1.13312096               -3.08533155               -1.00358946                4.93072178               -0.57874110
              25.02728174               11.78462425               78.55242740                0.00010000                0.77496534                1.37796211               -4.08112510               -1.06014983                4.15784263               -0.56741808
              26.03732920               11.25974753               78.14185791                0.00010000                1.18039851                1.60178563               -4.91275014               -0.93506055                3.30421845               -0.57838303
              27.05088971               10.73731543               77.72419488                0.00010000                1.46861095                1.75711269               -5.49405817               -0.64550984                2.35167253               -0.63892374
              28.06670142               10.21838071               77.29756570                0.00010000                1.61847183                1.78574569               -5.72415242               -0.29035332                1.25211651               -0.78801307
              29.08325914                9.70215456               76.85970082                0.40643343                1.65577272                1.61311194               -5.51172286               -0.05916026                0.62888892               -1.09380449
              19.55753805               15.89907017               80.93577408                0.98683993                0.02514939                0.09177498               -0.29405557               -0.07142614                0.23894211                0.41498227
              20.55778955               15.38265214               80.47005093                0.68475198               -0.01038427               -0.05108485                0.13677357               -0.09228948                0.64462602               -0.33396168
              21.55733037               14.86572250               80.01254001                0.36715004               -0.75103908               -0.18393390                0.49394703                0.48274369                4.24739049               -0.78842659
              22.54276877               14.36035363               79.61927982                0.36253168               -0.96395409                0.75786808               -0.89296041                0.23024071                6.73156982               -0.27418214
              23.53805129               13.84304707               79.22252763                0.36074174               -0.16359379                0.94720533               -2.13025815               -0.31795411                5.95976482               -0.26557999
              24.53949689               13.32201070               78.82277785                0.36209678                0.37004919                1.20535472               -3.27356717               -0.42996230                5.20804793               -0.26066924
              25.54545227               12.79911382               78.41860006                0.36573520                0.78030515                1.44895685               -4.30751525               -0.46496329                4.39196125               -0.26539893
              26.55510299               12.27637037               78.00869964                0.37255154                1.12241051                1.66228423               -5.17733679               -0.41257700                3.52892894               -0.27983416
              27.56790048               11.75531469               77.59166957                0.38240614                1.41367429                1.79992536               -5.79620083               -0.28935889                2.59174532               -0.32155336
              28.58337648               11.23656164               77.16568587                0.39582960                1.62822057                1.81809347               -6.05835882               -0.15346941                1.46557902               -0.41264707
              29.60046489               10.71889517               76.72756550                0.70341328                1.70884126                1.67406124               -5.84631841               -0.04607251                0.80262069               -0.63678696
              14.88112693                6.03728248               83.32024528                1.00000000               -0.00309987                0.04422075               -0.14819559                0.05098955               -0.40799933                0.47619656
              15.88109593                5.52832076               82.89571003                1.00000000               -0.05170169               -0.04036947                0.13705161                0.05698883               -0.51333263                0.06045500
              16.88009290                5.01915023               82.46871244                1.00000000               -0.14298078               -0.11582408                0.40952538                0.05544772               -0.55361275               -0.02995472
              17.87823632                4.50950416               82.04330015                0.69248700               -0.23894534               -0.20439159                0.68532874                0.01939826               -0.51129377               -0.23825772
              18.87531399                3.99897426               81.61728249                0.52273499               -0.33038340               -0.29617889                0.95950007                0.00542973               -0.45725927               -0.26496807
              19.87162865                3.48770152               81.19338151                0.22748103               -0.47595441               -0.40633923                1.27276890               -0.18372719                0.15624452               -0.56130758
              20.86579490                2.97256030               80.78018946                0.00010000               -0.80868450               -0.32534770                1.40772692               -2.74911056                5.38669700               -1.42724057
              21.85545496                2.40708042               80.45870016                0.00010000                0.89996303               -1.21005951                0.08987864               -2.37117981               11.01525459               -0.60133779
              22.88379416                1.82874761               80.14646449                0.00010000                4.57759671               -1.64898320               -1.24514095               -2.74790750               11.48195982               -0.04647628
              23.94700689                1.22511244               79.83997929                1.00000000                3.44813766                0.62610472               -2.20510585               -3.03582420                5.74745405               -0.13386183
              24.95275692                0.68526739               79.41858012                1.00000000                0.57500231                0.42108566               -1.58922776                0.04958472               -0.00946465               -0.11499546
              15.39059855                7.03772469               83.18110511                1.00000000                0.01333970                0.03991762               -0.16529282                0.00803130                0.00086856                0.65283481
              16.39073195                6.52791706               82.75648920                1.00000000               -0.02714374               -0.04322776                0.12256927                0.01539776                0.06205062                0.08488150
              17.39005568                6.01799199               82.33270240                1.00000000               -0.11068299               -0.12000341                0.39992986                0.00658595                0.14213467               -0.19855456
              18.38851829                5.50746024               81.90946093                0.89414715               -0.18930329               -0.22023457                0.68781289               -0.01297923                0.24510896               -0.16380228
              19.38626961                4.99601247               81.48767670                0.76800470               -0.27599655               -0.31668699                0.99397022               -0.02908698                0.30428174               -0.18478235
              20.38299836                4.48363813               81.06555586                0.48841757               -0.38276320               -0.42975164                1.34276998               -0.11099182                0.46854042               -0.39083155
              21.37861435                3.96930682               80.64726045                0.06636333                1.03255755               -0.46469316                1.71650760               -3.04907905                5.29670286               -0.88669309
              22.40364951                3.39497983               80.32199259                0.00010000                3.43423670               -2.04783547               -0.65809170               -3.98302043                9.70756278               -0.42161558
              23.44729908                2.81225778               80.00490110                0.00010000                4.23696275               -1.61637418               -0.89772987               -3.52208299               10.66604561               -1.29957128
              24.48838876                2.23137349               79.69426450                0.99311248                2.28993690                0.57327548               -1.89908074               -1.89697263                5.58116701               -0.13293261
              25.49309782                1.68947824               79.27306849                1.00000000                0.47090551                0.37057237               -1.28860205               -0.05551611                0.00000702               -0.13836113
              15.90090281                8.03808083               83.04507199                1.00000000                0.02337800                0.03556189               -0.18010521                0.00001819                0.13063838                0.75979106
              16.90113659                7.52745620               82.61750696                1.00000000               -0.01106848               -0.04385126                0.11174544               -0.00123696                0.31334674                0.02300288
              17.90068144                7.01675016               82.19320208                0.00010000               -0.05901662               -0.12037593                0.39652100               -0.05723871                0.90927163               -0.63362640
              18.89995626                6.50509947               81.77724465                0.00010000               -0.10635340               -0.65725014                0.68950149               -0.37370144                1.30148139               -0.71816258
              19.89855437                5.99264052               81.36013705                0.00010000               -0.19208983               -1.04175659                1.01332273               -0.37049252                1.22389638               -0.75551656
              20.89611446                5.47910649               80.94200976                0.00010000               -0.25413744               -1.50434036                1.40437021               -0.07404659                1.44548924               -0.62091569
              21.89347162                4.96326644               80.52897924                0.00010000                1.83645696               -2.76936142                1.82009329               -2.97728663                4.84348412               -0.07850042
              22.93284360                4.36612371               80.17899910                0.00010000                4.17436112               -2.28065874               -0.19421823               -5.78505280                7.90902718               -0.63879626
              23.97695884                3.79642012               79.84128107                0.00010000                4.95016880               -1.25912717               -0.99556278               -5.00123711               10.60384715               -3.68143525
              25.03184697                3.23657795               79.54889819                0.00010000                2.92391196                0.68491392               -1.57329171               -5.02650914                6.55122550               -6.36726522
              26.03543708                2.69267883               79.12795145                0.39666002                0.35901088                2.52753014               -0.96821493               -4.25077586                0.04167417               -5.50544301
              16.41184817                9.03843593               82.90779859                1.00000000                0.01897053                0.04054513               -0.18714392               -0.00336611                0.21881260                0.63114975
              17.41203788                8.52704004               82.47689184                0.55564256               -0.02902686               -0.04416304                0.11022333               -0.01165600                0.35761262               -0.27187705
              18.41126764                8.01558447               82.04845725                0.00010000               -0.34419876               -0.15035553                0.38423549               -0.50941743                1.11590241               -1.09991967
              19.40515391                7.49431524               81.63272925                0.00010000               -0.32074473               -0.89482542                0.30636026               -1.21294301                1.86985049               -1.47056560
              20.40485274                6.97517734               81.21985967                0.00010000                0.28688006               -1.55337221                0.23992292               -1.16284071                2.15295675               -1.58744704
              21.41089151                6.45355132               80.81079566                0.00010000                1.35993217               -2.39693446                0.13761302               -1.62713190                2.80017198               -1.42828642
              22.43205139                5.91391959               80.41379328                0.00010000                2.19516292               -3.63261213               -0.27727497               -2.88910071                3.49765539               -0.79573767
              23.45479476                5.34936665               80.02799594                0.00010000                2.23843573               -1.26318448               -0.94367386               -5.13798496                4.79541412               -2.43311955
              24.47682010                4.78707523               79.66094915                0.00010000                1.84025530               -0.13210291               -1.57173156               -5.57851315                4.94555088               -5.07739033
              25.49159987                4.24507177               79.27958249                0.00010000                0.95302158                1.35176992               -1.93073937               -5.08399118                3.09552290              -10.23296360
              26.49588053                3.74002885               78.87646976                0.39704993                0.42806620                3.25137632               -1.83254967               -3.18385995                2.23161009              -10.07189068
              16.92362726               10.03889174               82.76903888                1.00000000                0.01276620                0.05252308               -0.19184395                0.00044507                0.00789036                0.51965960
              17.92375492                9.52657294               82.33186282                0.45686932               -0.02046867               -0.05702354                0.13765645               -0.02792858                0.26012976               -0.42097283
              18.92321789                9.01374305               81.89955265                0.00010000               -0.38251964               -0.21014535                0.39934560               -0.73526166                1.42488315               -1.42757114
              19.91610453                8.48720296               81.48578059                0.00010000               -0.35782048               -0.60579183               -0.00630808               -1.47312600                2.40176299               -1.67088219
              20.91606148                7.96157307               81.07503913                0.00010000                0.43625163               -1.12041126               -0.40697899               -1.70168966                2.57939589               -1.90628473
              21.92482956                7.43116780               80.66807808                0.00010000                1.19063977               -1.67269310               -0.85078052               -2.46784532                2.71499206               -2.08782041
              22.93987427                6.89061419               80.26557163                0.00010000                1.60493487               -1.57854785               -1.37475554               -3.96339313                2.89086320               -2.54387175
              23.95692826                6.34086002               79.86821078                0.00010000                1.49045968               -0.37775685               -1.93385458               -4.82955520                2.97198863               -3.32880980
              24.96968347                5.79377807               79.47203088                0.00010000                1.01426382                0.92036441               -2.41348986               -4.42649279                2.62938475               -5.13703903
              25.97721354                5.26361335               79.06953137                0.00010000                0.60811277                1.79574152               -2.66210488               -2.69118310                1.57164563               -6.63034212
              26.98184572                4.75770636               78.65127081                0.39782182                0.46321859                1.57319432               -2.56455590               -1.29701778                0.89210197               -7.76285082
              17.43649466               11.03948639               82.62943035                1.00000000                0.01333301                0.06568240               -0.19857864               -0.00157645                0.00444434                0.50510739
              18.43662799               10.52589957               82.18805849                0.47063505               -0.02811375               -0.07130868                0.14434228               -0.04751132                0.08088042               -0.34140349
              19.43593239               10.01138157               81.74808502                0.00010000               -0.43833143               -0.23204121                0.46527744               -0.84052984                1.57641428               -1.41042496
              20.42786136                9.48219940               81.33672667                0.00010000               -0.45391371               -0.38952574               -0.24063709               -1.72242848                2.89036434               -1.74086063
              21.42685411                8.95276911               80.92640897                0.00010000                0.23160573               -0.59611959               -0.89446386               -2.06691157                2.78431382               -2.02417250
              22.43249348                8.42009746               80.51771389                0.00010000                0.81185916               -0.66767508               -1.54510713               -2.80250784                2.64167903               -2.34033067
              23.44309130                7.88234864               80.11033372                0.00010000                1.12731548               -0.34892610               -2.18946737               -3.60347973                2.42701916               -2.75446345
              24.45503979                7.34181151               79.70319861                0.00010000                1.12228116                0.42385242               -2.78042167               -3.91130469                2.12401753               -3.39294686
              25.46553692                6.80548252               79.29406877                0.00010000                0.94040629                1.26970011               -3.23197084               -3.23187712                1.64715175               -4.23604574
              26.47384791                6.28098660               78.87919636                0.00010000                0.81086161                1.68285600               -3.43739659               -1.74192256                0.92499064               -5.12081799
              27.48175415                5.77149273               78.45498677                0.39848036                0.79062382                1.37993733               -3.33068258               -0.68290433                0.55688142               -5.77313930
              17.95076937               12.04020539               82.49023204                1.00000000                0.01401482                0.07714726               -0.21457550               -0.00003051                0.00046643                0.54664807
              18.95090952               11.52514677               82.04457096                0.50638628               -0.03309587               -0.07468158                0.14674829               -0.04839316                0.02882813               -0.31644869
              19.95010746               11.00910223               81.59939570                0.00010000               -0.53205531               -0.22170308                0.49943820               -0.78833735                1.70143473               -1.21872342
              20.94026842               10.47941245               81.18725927                0.00010000               -0.66411304               -0.14789392               -0.40675529               -1.67104428                3.20208077               -1.64177571
              21.93682520                9.94965068               80.77643402                0.00010000               -0.05342673               -0.06828423               -1.24866346               -2.03792869                3.00099156               -1.91434794
              22.93919988                9.41781429               80.36587367                0.00010000                0.46327131                0.08933056               -2.05574501               -2.57028428                2.66956465               -2.17578273
              23.94609062                8.88363567               79.95461273                0.00010000                0.81842017                0.43525175               -2.81580518               -3.00328769                2.25615627               -2.48820137
              24.95556828                8.34933707               79.54153072                0.00010000                0.98901117                0.95515205               -3.47519820               -2.98616760                1.79143825               -2.88851827
              25.96587085                7.81917207               79.12516691                0.00010000                1.03982952                1.44058771               -3.95091093               -2.34707817                1.27771565               -3.38497959
              26.97636487                7.29727047               78.70371390                0.00010000                1.06522594                1.62808655               -4.15585508               -1.23019318                0.68550636               -3.92806389
              27.98717536                6.78530511               78.27523923                0.39925023                1.08104892                1.40116604               -4.02274279               -0.46861888                0.40501221               -4.47597629
              18.46661128               13.04102933               82.35131399                1.00000000                0.01520037                0.08500372               -0.23470302                0.00191954                0.00161640                0.57048510
              19.46676329               12.52440594               81.90130926                0.54122725               -0.03556587               -0.07045873                0.14827028               -0.03857152                0.03081471               -0.30494733
              20.46589997               12.00694750               81.45184885                0.00010000               -0.64356304               -0.21043929                0.52241195               -0.60010929                1.87961140               -1.15452315
              21.45389203               11.47924153               81.03890766                0.00010000               -0.91031373                0.10947842               -0.52711524               -1.33040104                3.53051492               -1.42469181
              22.44769369               10.95140343               80.62757248                0.00010000               -0.33946115                0.37745686               -1.50680695               -1.68486191                3.27086937               -1.61861922
              23.44710280               10.42188407               80.21573693                0.00010000                0.19045377                0.63250363               -2.43754767               -2.10210484                2.82304408               -1.78773249
              24.45150277                9.89105367               79.80207492                0.00010000                0.63386187                0.93726309               -3.30050574               -2.33390269                2.29087715               -1.97975853
              25.45978004                9.36091456               79.38552104                0.00010000                0.95795970                1.28628778               -4.03664399               -2.20506119                1.73875233               -2.22116183
              26.47066196                8.83429427               78.96508592                0.00010000                1.16654860                1.57045092               -4.55974433               -1.66878320                1.19170839               -2.52734295
              27.48311101                8.31354833               78.53969719                0.00010000                1.28252687                1.65100490               -4.77657032               -0.86066312                0.62742017               -2.90485927
              28.49631250                7.79951605               78.10807882                0.40011185                1.32014854                1.44418038               -4.61003533               -0.31307329                0.36231331               -3.36123953
              18.98405456               14.04190546               82.21248146                1.00000000                0.01653639                0.08802341               -0.25585577                0.00369259                0.01194138                0.57166861
              19.98421992               13.52373760               81.75813093                0.58541439               -0.03924383               -0.06309388                0.15286709               -0.02839104                0.05447744               -0.31817192
              20.98326968               13.00489344               81.30462966                0.00010000               -0.75077252               -0.19898614                0.54491055               -0.28306732                2.16769920               -0.98601381
              21.96920447               12.48160201               80.89267009                0.00010000               -1.13921332                0.36821444               -0.61681725               -0.74794936                3.97993968               -1.12014979
              22.96048542               11.95719982               80.48145436                0.00010000               -0.58484666                0.75155904               -1.69800446               -1.17160882                3.60607585               -1.18769236
              23.95750754               11.43046437               80.06920475                0.00010000               -0.00516678                1.00469068               -2.72458613               -1.52626917                3.06006332               -1.26238842
              24.96038208               10.90238093               79.65440829                0.00010000                0.53594597                1.25333651               -3.67363692               -1.65911642                2.44156951               -1.35867796
              25.96822646               10.37506283               79.23608201                0.00010000                0.97396653                1.49560467               -4.48174581               -1.50495034                1.82443478               -1.48851315
              26.97986141                9.85058109               78.81345032                0.00010000                1.28516880                1.67251271               -5.05473959               -1.08915973                1.23440385               -1.67248520
              27.99392983                9.33029057               78.38569636                0.00010000                1.45585177                1.70330637               -5.28701982               -0.53322426                0.64552429               -1.93494688
              29.00897845                8.81418871               77.95172717                0.40073859                1.50486117                1.50604396               -5.08766247               -0.16793455                0.36215496               -2.30059011
              19.50302086               15.04278980               82.07352610                1.00000000                0.01866197                0.09001621               -0.27639750                0.00342046                0.01399048                0.48020389
              20.50320748               14.52314406               81.61468302                0.49224981               -0.03233312               -0.05848916                0.16266048               -0.02059230                0.25273483               -0.31832657
              21.50237420               14.00296778               81.16064107                0.00010000               -0.82904102               -0.19354509                0.54244902                0.15900746                2.62033349               -0.77544680
              22.48662666               13.48660581               80.74937860                0.00010000               -1.34875197                0.70598008               -0.68984233               -0.15158483                4.44690305               -0.66098464
              23.47539916               12.96643461               80.33928958                0.00010000               -0.76151792                0.99267128               -1.84684707               -0.59205643                3.96931092               -0.63405936
              24.47139630               12.44197788               79.92738744                0.00010000               -0.08385917                1.22431684               -2.94243849               -0.85867965                3.31714424               -0.65366995
              25.47372198               11.91612040               79.51242025                0.00010000                0.50422884                1.44319035               -3.95731418               -0.91150714                2.63110525               -0.68640915
              26.48148088               11.39082665               79.09352178                0.00010000                0.99645243                1.63693875               -4.82539536               -0.79733801                1.96727661               -0.73716123
              27.49365103               10.86774453               78.67003243                0.00010000                1.36790093                1.76318808               -5.44561108               -0.54377421                1.33871867               -0.82288994
              28.50883890               10.34761445               78.24113753                0.00010000                1.57532417                1.77210324               -5.69777790               -0.24106841                0.69977912               -0.96688398
              29.52515751                9.82963693               77.80553450                0.40147151                1.63186107                1.60565886               -5.46883299               -0.03983784                0.38210194               -1.21233879
              20.02341445               16.04370578               81.93285029                1.00000000                0.02156450                0.09159812               -0.29360279               -0.07443819                0.22562293                0.39439016
              21.02363010               15.52256781               81.47157182                0.70044798               -0.02131886               -0.05762475                0.16334188               -0.09190066                0.59753754               -0.30666182
              22.02298808               15.00102254               81.01779092                0.36625542               -1.04620749               -0.19452399                0.54190073                0.71907763                3.30083292               -0.72441727
              23.00270595               14.49572162               80.61091440                0.36242726               -1.48579278                0.91158005               -0.77835660                0.40946373                4.95294743               -0.25673463
              23.99327222               13.97705324               80.20197733                0.36112786               -0.60288990                1.06186369               -1.97609721               -0.25123972                4.24262264               -0.26609106
              24.99064815               13.45495070               79.79089803                0.36186151                0.00154744                1.29728223               -3.11093921               -0.36524056                3.52594604               -0.28012707
              25.99330317               12.93124474               79.37640782                0.36550034                0.50037105                1.51243384               -4.16552922               -0.39933603                2.79237520               -0.30201125
              27.00065557               12.40780160               78.95778853                0.37115668                0.94474762                1.69749524               -5.07546427               -0.35252561                2.11220937               -0.32985502
              28.01219812               11.88584485               78.53454532                0.37964875                1.32802456                1.81003192               -5.73820087               -0.24873911                1.49521555               -0.37668330
              29.02721606               11.36573263               78.10596295                0.39189088                1.59693057                1.81181765               -6.02791565               -0.13943156                0.84557862               -0.45750675
              30.04413673               10.84630189               77.67009782                0.70086847                1.69206703                1.66649591               -5.80049694               -0.04515169                0.50710976               -0.63336800
              15.30008844                6.18127006               84.31835358                1.00000000                0.01299676                0.06305519               -0.22116408                0.05954302               -0.42146327                0.47713190
              16.30021841                5.66822863               83.89684890                1.00000000               -0.04227434               -0.02850097                0.09377900                0.06581186               -0.53813285                0.06307202
              17.29924296                5.15492713               83.47273209                1.00000000               -0.14474984               -0.10844046                0.39160284                0.06295205               -0.58438832               -0.02608811
              18.29732341                4.64097409               83.05025424                0.69687928               -0.25247564               -0.20830770                0.69669119                0.01506922               -0.53662040               -0.23201752
              19.29419344                4.12581501               82.62718599                0.53988297               -0.35289508               -0.31578726                1.00386258                0.00235341               -0.45614382               -0.24622276
              20.29026551                3.60959596               82.20663995                0.27313997               -0.45760548               -0.44849370                1.36388142               -0.14113790                0.12171467               -0.53901023
              21.28504133                3.09023064               81.79550114                0.00010000               -0.44937966               -0.49594002                1.61070727               -1.81318718                4.45175916               -1.32221627
              22.28127792                2.53901804               81.46059253                0.00010000                0.94998621               -0.20769363                0.10071451               -2.66296760                9.28219046               -1.93737797
              23.30404106                1.97115159               81.13341589                0.00010000                4.20678878               -1.95390194               -1.49050570               -2.64537493                9.80477537                0.20423346
              24.36541369                1.36789853               80.81782488                1.00000000                3.34738642                0.61060016               -2.18831447               -3.00057399                4.97917881               -0.07070521
              25.37098879                0.82810416               80.40304537                1.00000000                0.55750921                0.37913706               -1.48397388                0.05188072               -0.00593389               -0.07177315
              15.81372529                7.18190061               84.17907387                1.00000000                0.03226971                0.05485478               -0.23313540                0.01250389               -0.01067893                0.64982168
              16.81404799                6.66794362               83.75751616                1.00000000               -0.01127732               -0.03372192                0.08458237                0.02025573                0.04172195                0.08807511
              17.81349975                6.15384273               83.33665787                1.00000000               -0.10089123               -0.11472307                0.38587783                0.00576655                0.12438189               -0.18810848
              18.81203017                5.63889101               82.91647162                0.90479697               -0.17968526               -0.23189863                0.70105558               -0.01951165                0.25455509               -0.15266917
              19.80990604                5.12265713               82.49798559                0.78949707               -0.26919243               -0.34375063                1.04395021               -0.03837442                0.37413822               -0.16771842
              20.80664632                4.60511102               82.07967107                0.54336513               -0.38538119               -0.48077871                1.45778632               -0.12303773                0.61184135               -0.37094010
              21.80219842                4.08527124               81.66542715                0.18340257                0.37707231               -0.59671755                1.93249264               -1.51726962                3.83215746               -0.83461662
              22.81418776                3.53694111               81.31085353                0.00010000                3.04743221               -1.10218274               -0.62186796               -3.12199980                7.77341654               -0.68993112
              23.86314706                2.95161257               80.99793236                0.00010000                4.63719536               -2.08749578               -0.43293765               -3.63105687                9.69505519               -1.18610813
              24.90693167                2.37400453               80.67620415                1.00000000                2.40774531                0.55423088               -1.82031745               -1.72311711                4.67036202               -0.06967344
              25.91130197                1.83189553               80.26132856                1.00000000                0.43702981                0.32715887               -1.13374318               -0.06307822               -0.00192554               -0.09948715
              16.32825249                8.18236715               84.04293202                1.00000000                0.04289199                0.04382770               -0.24123807                0.00097190                0.11803416                0.75759608
              17.32868141                7.66755420               83.61846495                1.00000000                0.00792055               -0.03671456                0.08045348               -0.00375545                0.29511079                0.03210174
              18.32841090                7.15263267               83.19716906                0.00010000               -0.02813178               -0.11540103                0.39016725               -0.08924779                0.89559153               -0.61993000
              19.32811877                6.63633612               82.78429554                0.00010000               -0.06024757               -0.67654491                0.70231349               -0.45735992                1.33287279               -0.89506953
              20.32720595                6.11893999               82.37067161                0.00010000               -0.14640577               -1.04373378                1.05962782               -0.52118126                1.35507089               -1.13961730
              21.32519066                5.59998038               81.95683063                0.00010000               -0.21700455               -1.46277198                1.51461459               -0.34153070                1.69163864               -1.28179991
              22.32286585                5.07829628               81.54823660                0.00010000                1.36529648               -2.36891507                2.00922982               -1.44973766                4.09865562               -1.25060567
              23.35249659                4.51697439               81.18041974                0.00010000                3.57453185               -2.79761415                0.83773673               -4.26995032                5.89298103               -0.36823760
              24.39435649                3.92940168               80.83339997                0.00010000                4.90859057               -1.58956516               -0.25238067               -5.10038792                9.35601519               -4.56023887
              25.45066840                3.37898315               80.53475327                0.00010000                2.97943721                0.35234785               -1.47075545               -4.45093697                5.85164573               -6.68290747
              26.45394524                2.83464733               80.11979751                0.39240608                0.32768397                2.21174351               -0.80225054               -4.03109884                0.03736696               -6.10025074
              16.84337064                9.18277716               83.90563855                1.00000000                0.03367212                0.04516506               -0.23902380               -0.00755348                0.20197568                0.63100659
              17.84370736                8.66720933               83.47788413                0.57904883               -0.02188869               -0.03516132                0.08808622               -0.02381660                0.32714926               -0.24339960
              18.84293287                8.15153470               83.05236201                0.00010000               -0.35658613               -0.14225997                0.39096694               -0.56951660                0.89692468               -1.07105452
              19.83657564                7.62536011               82.63600271                0.00010000               -0.35473594               -0.88920648                0.33259994               -1.36031795                1.47975054               -1.80667000
              20.83583815                7.10178246               82.22263682                0.00010000                0.19418857               -1.48704307                0.28761233               -1.38919627                1.76511603               -2.30541501
              21.84045941                6.57585558               81.81274897                0.00010000                1.01857552               -2.16150408                0.21357770               -1.71337668                2.27675910               -2.62898758
              22.85620966                6.03789293               81.41208698                0.00010000                1.86119764               -3.07975507               -0.10861091               -2.54005833                2.69643102               -2.48663101
              23.87768337                5.48098882               81.02045378                0.00010000                2.14604404               -2.37952388               -0.58131022               -4.44470528                3.95204318               -3.64558761
              24.89913054                4.91982127               80.64652092                0.00010000                1.74919538               -0.21926736               -1.44093417               -5.03244081                4.07105031               -6.19351825
              25.91266727                4.38105149               80.26071887                0.00010000                1.01105419                0.87199646               -1.87832249               -4.62851899                2.55268237              -11.03952786
              26.91935163                3.87613040               79.85860377                0.39265711                0.66843520                2.74139663               -1.80838550               -2.80718825                1.95604238              -11.24041118
              17.35923707               10.18327045               83.76688917                1.00000000                0.02104573                0.05767494               -0.23280542               -0.00148250                0.01059357                0.51760938
              18.35944753                9.66685097               83.33318897                0.48746186               -0.01836452               -0.05013524                0.12641787               -0.04080597                0.22632921               -0.38848939
              19.35886978                9.14978747               82.90365780                0.00010000               -0.43914368               -0.20150737                0.41378053               -0.77932417                1.02433809               -1.35929936
              20.35066466                8.61855199               82.48597802                0.00010000               -0.49716148               -0.55959832                0.03462971               -1.57003494                1.65292593               -1.92536932
              21.34892655                8.08919913               82.07135827                0.00010000                0.20739944               -0.99356507               -0.34785363               -1.77134588                1.79321024               -2.46929890
              22.35481265                7.55675030               81.66005213                0.00010000                0.90024461               -1.40349738               -0.78746599               -2.40486066                1.84974878               -2.95497492
              23.36693145                7.01670118               81.25238094                0.00010000                1.34307489               -1.39001446               -1.30780372               -3.55435821                1.96998411               -3.60833634
              24.38167414                6.46938391               80.84935411                0.00010000                1.33567811               -0.50880954               -1.90625777               -4.35102303                2.03238056               -4.47027456
              25.39364501                5.92501633               80.44805766                0.00010000                1.00573720                0.80608500               -2.47029741               -3.99918347                1.85298862               -6.17483186
              26.40178889                5.39642308               80.04290494                0.00010000                0.69993257                1.54240229               -2.75256629               -2.36090819                1.15724446               -7.60227840
              27.40764366                4.88947527               79.62577883                0.39320158                0.58547712                1.24142448               -2.62003068               -1.15358040                0.72882617               -8.77371612
              17.87617996               11.18393066               83.62727006                1.00000000                0.01942681                0.07213741               -0.22869263               -0.00384678                0.00406921                0.49565825
              18.87637423               10.66620663               83.18948906                0.50290675               -0.02672965               -0.07059883                0.13946911               -0.05432838                0.06749183               -0.32234575
              19.87564537               10.14750456               82.75286817                0.00010000               -0.53054744               -0.22920510                0.48129608               -0.84697795                1.04328082               -1.33395013
              20.86576328                9.61416815               82.33462835                0.00010000               -0.67162242               -0.32277232               -0.18575375               -1.72255839                1.84338229               -1.91136101
              21.86221292                9.08191116               81.91788838                0.00010000               -0.04515650               -0.45445258               -0.82122006               -1.99687090                1.72296294               -2.42013780
              22.86486015                8.54778563               81.50269514                0.00010000                0.51379849               -0.47944375               -1.48220993               -2.60770716                1.54656770               -2.94278524
              23.87248889                8.01009264               81.08875686                0.00010000                0.87438052               -0.19173717               -2.16952561               -3.27471415                1.33087894               -3.52113096
              24.88234776                7.47081263               80.67546572                0.00010000                0.98094074                0.48577718               -2.83219719               -3.49965189                1.12164076               -4.25775623
              25.89210770                6.93594297               80.26153186                0.00010000                0.93212063                1.22177288               -3.35548032               -2.85995696                0.87726861               -5.13828507
              26.90099017                6.41189954               79.84449439                0.00010000                0.90339703                1.54382201               -3.60489783               -1.52526354                0.51551818               -6.03816131
              27.91017564                5.90095889               79.42151012                0.39400495                0.91854717                1.21108394               -3.48644691               -0.57080852                0.38278770               -6.68112907
              18.39460820               12.18471320               83.48796028                1.00000000                0.01788642                0.08279328               -0.23555891               -0.00167811               -0.00022554                0.52849953
              19.39478707               11.66543899               83.04605266                0.54010930               -0.03197491               -0.07686697                0.14626326               -0.05085813                0.02216009               -0.29914646
              20.39396870               11.14520337               82.60452328                0.00010000               -0.64900884               -0.22636963                0.51588304               -0.75024952                1.06909546               -1.16093247
              21.38180689               10.61209654               82.18354191                0.00010000               -0.92985269               -0.08041577               -0.34003560               -1.58035536                1.94107480               -1.74280352
              22.37537165               10.08011008               81.76441823                0.00010000               -0.36649371                0.05476176               -1.15958254               -1.87425804                1.73361906               -2.17671254
              23.37447702                9.54716143               81.34576083                0.00010000                0.15192567                0.24133767               -1.98483743               -2.32867576                1.38637466               -2.59205290
              24.37841016                9.01286644               80.92671802                0.00010000                0.56768834                0.57277728               -2.80334245               -2.68624237                1.00937753               -3.04222991
              25.38583078                8.47909945               80.50674906                0.00010000                0.84744004                1.03474189               -3.54841676               -2.63981797                0.68397048               -3.55149909
              26.39535896                7.94945179               80.08532885                0.00010000                1.02184588                1.44646028               -4.11428487               -2.04802603                0.43789303               -4.11910014
              27.40626770                7.42729952               79.66164590                0.00010000                1.13749127                1.58061366               -4.38031567               -1.05573483                0.23003177               -4.69103441
              28.41810879                6.91369695               79.23459302                0.39462883                1.18410903                1.34467588               -4.24608256               -0.38573745                0.20750407               -5.19235995
              18.91469481               13.18558653               83.34888223                1.00000000                0.01720847                0.08889131               -0.24807079                0.00084121                0.00077745                0.54792971
              19.91486690               12.66466929               82.90282809                0.57723417               -0.03559935               -0.07325201                0.15123384               -0.03840115                0.02442061               -0.28450563
              20.91398283               12.14297716               82.45720898                0.00010000               -0.78087205               -0.21717019                0.53824922               -0.52172062                1.16821867               -1.09604404
              21.89924946               11.61255983               82.03402683                0.00010000               -1.21599777                0.17100010               -0.44892865               -1.17018009                2.10888608               -1.47422905
              22.88966287               11.08300639               81.61303019                0.00010000               -0.68595913                0.48867168               -1.40130937               -1.47653335                1.84190186               -1.77926726
              23.88553028               10.55261239               81.19185199                0.00010000               -0.14184289                0.76442880               -2.35202881               -1.85349776                1.38376156               -2.06317221
              24.88682601               10.02154819               80.76935833                0.00010000                0.37178890                1.05846222               -3.28025506               -2.05576569                0.90034029               -2.36609653
              25.89296605                9.49150747               80.34512755                0.00010000                0.80605515                1.37320963               -4.11275606               -1.92823748                0.50686087               -2.70402578
              26.90294712                8.96487217               79.91912777                0.00010000                1.13321317                1.61622139               -4.73781793               -1.44185216                0.25438249               -3.07760943
              27.91563032                8.44351181               79.49135321                0.00010000                1.33594633                1.67039697               -5.02905832               -0.73155807                0.11504870               -3.46953873
              28.92966604                7.92785240               79.06143832                0.39537410                1.40357270                1.47342539               -4.87303619               -0.25251587                0.13713031               -3.85988772
              19.43645950               14.18649103               83.20987561                1.00000000                0.01689043                0.09005682               -0.26272698                0.00356517                0.01099656                0.54673257
              20.43662840               13.66397395               82.75971286                0.62471312               -0.04078766               -0.06568599                0.15858381               -0.02598127                0.04507387               -0.29031323
              21.43564375               13.14085996               82.31022176                0.00010000               -0.91271724               -0.20427610                0.56057221               -0.16877391                1.38798729               -0.93253021
              22.41837406               12.61551654               81.88693657                0.00010000               -1.49276593                0.43755562               -0.52629727               -0.54038583                2.43011648               -1.13109255
              23.40578843               12.08988351               81.46506660                0.00010000               -0.97543989                0.86822348               -1.57382088               -0.96463330                2.04886227               -1.27220656
              24.39886526               11.56245000               81.04251886                0.00010000               -0.36943314                1.12890420               -2.61947790               -1.31680008                1.48921796               -1.42574431
              25.39839977               11.03403568               80.61801950                0.00010000                0.25383931                1.36741694               -3.63776623               -1.44714364                0.92011232               -1.60173712
              26.40394205               10.50656365               80.19127827                0.00010000                0.80589077                1.58951586               -4.54933901               -1.30814867                0.47016576               -1.80268625
              27.41451758                9.98177621               79.76256417                0.00010000                1.23571300                1.74452307               -5.23291577               -0.93774844                0.19759573               -2.03331178
              28.42865631                9.46070746               79.33224977                0.00010000                1.49298516                1.76323190               -5.54717969               -0.45230736                0.07541452               -2.29443879
              29.44437728                8.94316545               78.90029667                0.39604577                1.57209765                1.58423635               -5.36254309               -0.13214079                0.10853018               -2.58330530
              19.95980027               15.18738766               83.07072699                1.00000000                0.01780703                0.09092834               -0.27999302                0.00418807                0.01806130                0.45650162
              20.95997834               14.66335557               82.61639315                0.52966774               -0.03677544               -0.06163261                0.17278844               -0.01623784                0.22556999               -0.28905545
              21.95906476               14.13889164               82.16622103                0.00010000               -1.02800736               -0.19627529                0.56038175                0.31580401                1.77457453               -0.72593010
              22.93941819               13.62131095               81.74297494                0.00010000               -1.78140059                0.83154015               -0.58426612                0.03732327                2.80195997               -0.65447297
              23.92343675               13.10037086               81.32150019                0.00010000               -1.21880428                1.12331190               -1.69975702               -0.44944012                2.31131502               -0.66564886
              24.91504210               12.57519047               80.89861717                0.00010000               -0.48336241                1.34684858               -2.81244551               -0.73771402                1.64155422               -0.72743733
              25.91376950               12.04889653               80.47328112                0.00010000                0.20102227                1.55313824               -3.89914986               -0.79415827                0.99887570               -0.80332778
              26.91906255               11.52329779               80.04535001                0.00010000                0.81394190                1.73380703               -4.87674331               -0.69331261                0.50185314               -0.89262964
              27.93004834               10.99976264               79.61528266                0.00010000                1.30661907                1.84895174               -5.61526258               -0.47042750                0.20503102               -1.00220463
              28.94519493               10.47877645               79.18361015                0.00010000                1.60294521                1.85266070               -5.95570820               -0.20731320                0.07177168               -1.13935855
              29.96210724                9.95953713               78.75032416                0.39669021                1.69123092                1.69678578               -5.74042376               -0.02592893                0.09895400               -1.31705846
              20.48460745               16.18830959               82.92990202                1.00000000                0.01922193                0.09219314               -0.29312632               -0.07611121                0.21869832                0.37231842
              21.48479967               15.66274130               82.47331776                0.71742477               -0.03014986               -0.06142690                0.17847972               -0.08662376                0.54904478               -0.27839559
              22.48400445               15.13693446               82.02337803                0.36549549               -1.35791809               -0.19571851                0.56109867                0.96427163                2.38250980               -0.66553730
              23.45764131               14.63214735               81.60371268                0.36212097               -2.05421754                1.08364012               -0.65192311                0.59307635                3.22213615               -0.24211053
              24.44292010               14.11234975               81.18300568                0.36076731               -1.10279956                1.19788907               -1.80153910               -0.18968317                2.52095220               -0.26948041
              25.43558531               13.58938697               80.76055907                0.36189130               -0.42554083                1.41965036               -2.95182946               -0.30824417                1.78110523               -0.30159495
              26.43440928               13.06509845               80.33528948                0.36472255                0.18121873                1.62019199               -4.08182124               -0.34338078                1.08006628               -0.33905293
              27.43920969               12.54123979               79.90719035                0.36987795                0.76105435                1.79419994               -5.10897867               -0.30244605                0.55482323               -0.37810610
              28.44963037               12.01875525               79.47690555                0.37775366                1.27629298                1.89926132               -5.90039982               -0.21575222                0.26249067               -0.42735632
              29.46473555               11.49776067               79.04512755                0.38827063                1.63534846                1.89842246               -6.28970207               -0.12864226                0.13558027               -0.49484536
              30.48233734               10.97710117               78.61155556                0.69867278                1.76017913                1.75640371               -6.07845424               -0.04294047                0.16179815               -0.61109259
              15.71570704                6.32538455               85.31582200                1.00000000                0.02477301                0.07581392               -0.27319823                0.06565044               -0.43999054                0.47851962
              16.71595477                5.80824769               84.89758561                1.00000000               -0.03536232               -0.01851741                0.05798097                0.07237927               -0.57112995                0.06543862
              17.71499979                5.29077691               84.47654449                1.00000000               -0.14523800               -0.09840536                0.36794902                0.06787455               -0.62257892               -0.02482487
              18.71305001                4.77242906               84.05723397                0.69877868               -0.25971953               -0.20634980                0.69007693                0.00685279               -0.56446700               -0.22845051
              19.70980540                4.25245062               83.63735975                0.55911287               -0.36511047               -0.32781353                1.01559141               -0.00374601               -0.43611787               -0.21622749
              20.70574780                3.73085909               83.22065914                0.32805583               -0.44639471               -0.48304384                1.41797354               -0.10475168                0.14669575               -0.47173102
              21.70087751                3.20626395               82.81240361                0.00010000               -0.12818906               -0.63849196                1.71403036               -0.83265910                3.42123005               -1.08129441
              22.70318402                2.66781086               82.46071445                0.00010000                1.08899068               -0.64568635                0.16481950               -2.78037004                7.31978776               -2.75358989
              23.72265732                2.10379933               82.11665438                0.00010000                3.68884869               -1.52477997               -1.22474338               -2.72432887                7.80691345                0.51995960
              24.77696099                1.50693980               81.79621300                1.00000000                2.97699751                0.61118301               -2.12205654               -2.68280798                4.37076769               -0.06794984
              25.78219727                0.96726554               81.38890064                1.00000000                0.52362792                0.34708149               -1.34621223                0.09389620               -0.00662705               -0.06737234
              16.23350040                7.32614269               85.17644240                1.00000000                0.04819794                0.06417640               -0.28247754                0.01651212               -0.02771424                0.64691117
              17.23398238                6.80806251               84.75818085                1.00000000                0.00437249               -0.02587107                0.05130475                0.02485796                0.01067354                0.09111246
              18.23358785                6.28979285               84.34041995                1.00000000               -0.08503517               -0.10647382                0.36093006                0.00329667                0.09264102               -0.17845951
              19.23228168                5.77036556               83.92348204                0.91639163               -0.15174641               -0.23810348                0.68608295               -0.02796058                0.25507779               -0.14540438
              20.23055293                5.24917248               83.50855571                0.81557801               -0.22440305               -0.36268434                1.03923126               -0.05108028                0.46280387               -0.14438866
              21.22779362                4.72602865               83.09471158                0.60862282               -0.32389480               -0.52332536                1.49844751               -0.13295064                0.85223935               -0.31971640
              22.22407503                4.19987903               82.68591031                0.31733353               -0.05904955               -0.73347282                2.10026149               -0.68482668                2.88141288               -0.71089437
              23.22661263                3.66135400               82.30955523                0.00327086                2.58872678               -0.93260776                0.79298906               -2.44858351                7.30860479               -1.45006612
              24.27584956                3.08855153               81.99624235                0.09089802                4.58935899               -2.35862719               -0.29060428               -3.06070396               10.15350213               -1.57806456
              25.31839981                2.51305163               81.65785815                1.00000000                2.34804639                0.57326382               -1.86899555               -1.61469091                3.45728933               -0.07270525
              26.32281049                1.97073636               81.25039363                1.00000000                0.44106853                0.30665325               -1.06531567               -0.03659390                0.00392917               -0.09123065
              16.75219763                8.32666808               85.04024723                1.00000000                0.06041350                0.04781129               -0.28651326                0.00102553                0.09920282                0.75801812
              17.75280176                7.80773027               84.61911603                1.00000000                0.02825262               -0.03072434                0.05125427               -0.00728111                0.26541576                0.04331121
              18.75276268                7.28864743               84.20100542                0.00010000                0.01547005               -0.10591055                0.36972581               -0.12817899                0.85995284               -0.60074422
              19.75311116                6.76766699               83.79129092                0.00010000                0.01790114               -0.69330975                0.67542866               -0.56290369                1.33665257               -1.06310710
              20.75312070                6.24519693               83.38132960                0.00010000               -0.03644610               -1.03950565                1.02756346               -0.72092647                1.47712209               -1.50787869
              21.75238224                5.72039258               82.97230205                0.00010000               -0.06325397               -1.41392945                1.49549071               -0.72097646                1.98667340               -1.92374102
              22.75185562                5.19159449               82.56916384                0.00010000                0.65788023               -1.99181985                2.05731506               -0.85168542                4.04921432               -2.36526271
              23.76553985                4.64915871               82.19575384                0.00010000                2.89449942               -2.69167379                1.52043316               -3.10893233                5.45511832               -2.59956645
              24.80974561                4.05662679               81.83623346                0.00010000                4.84712509               -2.00021741                1.35340454               -4.43135909                9.72630010               -4.75199914
              25.86248235                3.51840508               81.51948308                0.00010000                2.81751646                0.15389559               -1.61943038               -3.55286597                4.56044876               -6.98746853
              26.86609594                2.97339861               81.11190644                0.38826830                0.36135931                1.92514748               -0.78655907               -3.67959237                0.04180224               -6.75416298
              17.27139653                9.32709891               84.90301811                1.00000000                0.04608739                0.04721688               -0.27715750               -0.01299396                0.18014727                0.63717151
              18.27185741                8.80744803               84.47865357                0.60339966               -0.01544905               -0.02660222                0.06606143               -0.03565811                0.28995034               -0.21083186
              19.27108755                8.28767464               84.05627659                0.00010000               -0.36916531               -0.12982601                0.38512628               -0.63978694                0.66488157               -1.03809351
              20.26447410                7.75649936               83.63938125                0.00010000               -0.38393762               -0.87985278                0.33040764               -1.54704273                1.06347393               -2.11319787
              21.26340880                7.22838237               83.22561192                0.00010000                0.12512142               -1.41306972                0.28129665               -1.70092169                1.34100433               -2.98200796
              22.26697653                6.69775006               82.81506721                0.00010000                0.74331967               -1.91352273                0.19124194               -1.99600550                1.76258712               -3.77829896
              23.27827519                6.16004263               82.41162106                0.00010000                1.62125785               -2.49084539               -0.11373886               -2.60565922                2.18739164               -4.39231012
              24.29940169                5.60752052               82.01636974                0.00010000                1.98504108               -2.63580553               -0.50780711               -3.75680698                2.94132058               -5.93034160
              25.31797602                5.04854718               81.63213047                0.00010000                1.55844908               -0.06781500               -1.64570184               -4.39720912                2.63608646               -7.56668622
              26.33057067                4.51612954               81.24201604                0.00010000                1.06277854                0.46935945               -1.90464734               -3.95764857                2.12992417              -11.61424902
              27.33923159                4.00923930               80.84030205                0.38848709                0.86609177                2.29635405               -1.89851720               -2.46009750                1.60841100              -12.57560913
              17.79123952               10.32761241               84.76438277                1.00000000                0.02733519                0.06147655               -0.26170661               -0.00434356                0.01201078                0.52424854
              18.79151287                9.80719822               84.33439118                0.51979469               -0.01619581               -0.04295303                0.11271361               -0.05195929                0.18847457               -0.35472053
              19.79091561                9.28605091               83.90782826                0.00010000               -0.50251472               -0.19187796                0.41300730               -0.82785627                0.62045356               -1.29581331
              20.78146258                8.75006993               83.48647319                0.00010000               -0.65320169               -0.50455338                0.06035975               -1.69403378                0.89184855               -2.14882186
              21.77785157                8.21693554               83.06808206                0.00010000               -0.03303534               -0.85379878               -0.31710588               -1.90550113                0.96636079               -2.98090888
              22.78080187                7.68212213               82.65232876                0.00010000                0.60602027               -1.11085056               -0.78570048               -2.47890675                0.94099627               -3.80169691
              23.78997198                7.14177758               82.23941556                0.00010000                1.05486426               -1.12268451               -1.34950455               -3.35082115                0.93871805               -4.74876025
              24.80189916                6.59644260               81.83008562                0.00010000                1.16102183               -0.41295427               -2.03733439               -4.06055913                0.89966914               -5.78681349
              25.81319241                6.05527049               81.42262493                0.00010000                1.03690487                0.84492232               -2.65855993               -3.62863647                0.94556849               -7.26878934
              26.82263725                5.52779226               81.01448004                0.00010000                0.87410257                1.26764345               -3.00905594               -2.11677243                0.66913794               -8.68318778
              27.83067446                5.01932569               80.59887019                0.38934727                0.80372104                0.99083248               -2.86297526               -1.03931516                0.60598160               -9.86625831
              18.31213805               11.32832844               84.62485650                1.00000000                0.02416804                0.07753967               -0.24828120               -0.00691905                0.00312580                0.49452013
              19.31237973               10.80658897               84.19084787                0.53842011               -0.02396642               -0.06867022                0.12981551               -0.06072586                0.05055789               -0.30528050
              20.31165872               10.28383708               83.75771094                0.00010000               -0.63354654               -0.22540741                0.47769147               -0.85480777                0.51874817               -1.26500384
              21.29970880                9.74640830               83.33301159                0.00010000               -0.92060682               -0.24560165               -0.13490118               -1.73991511                0.80230482               -2.05632000
              22.29324658                9.21130640               82.90998456                0.00010000               -0.35762235               -0.29804579               -0.75648592               -1.97240825                0.62592857               -2.77708353
              23.29255635                8.67553305               82.48806970                0.00010000                0.18458591               -0.26528690               -1.45343554               -2.49458682                0.35894944               -3.51306006
              24.29693830                8.13758894               82.06694320                0.00010000                0.60706268                0.02060131               -2.22798032               -3.04768228                0.08982547               -4.28442063
              25.30469760                7.59926144               81.64655467                0.00010000                0.85576597                0.61013288               -3.00699288               -3.17028030               -0.04317366               -5.14512931
              26.31405362                7.06544563               81.22695916                0.00010000                0.97412086                1.19618360               -3.65509580               -2.56197857               -0.04470511               -6.07753298
              27.32418002                6.54148241               80.80709841                0.00010000                1.06624103                1.43993484               -3.99534261               -1.36627981                0.01446038               -7.03631277
              28.33537844                6.02905595               80.38525783                0.38957075                1.11984202                1.11020119               -3.89990043               -0.50480937                0.15868226               -7.70804324
              18.83458010               12.32916321               84.48552086                1.00000000                0.02096223                0.08720764               -0.24745372               -0.00398520               -0.00119827                0.51699915
              19.83478972               11.80582482               84.04749622                0.57700126               -0.02899880               -0.07666711                0.13909117               -0.05376134                0.01337559               -0.28461364
              20.83400012               11.28154276               83.60971336                0.00010000               -0.77973780               -0.22544655                0.51009103               -0.71300189                0.45653056               -1.11088404
              21.81919496               10.74515790               83.18045856                0.00010000               -1.23607341               -0.00230055               -0.26865953               -1.50141948                0.70404839               -1.82649536
              22.80927865               10.21097462               82.75324237                0.00010000               -0.72836861                0.19316573               -1.06436268               -1.74407615                0.43527055               -2.40908051
              23.80462759                9.67681639               82.32617692                0.00010000               -0.19943545                0.41647745               -1.93288373               -2.14457330                0.00713007               -2.98022430
              24.80528994                9.14218961               81.89854588                0.00010000                0.30046372                0.74206568               -2.85717467               -2.44377120               -0.38796744               -3.58066112
              25.81063686                8.60864526               81.47056239                0.00010000                0.72209641                1.15216969               -3.75156751               -2.37726214               -0.60316661               -4.21786404
              26.81973187                8.07919416               81.04288121                0.00010000                1.05322339                1.50305687               -4.47675922               -1.82919805               -0.56667888               -4.88823802
              27.83170133                7.55659096               80.61610759                0.00010000                1.28496591                1.60356346               -4.86940594               -0.93715149               -0.32811361               -5.51842321
              28.84543119                7.04152971               80.19031758                0.39032866                1.37298570                1.37793467               -4.77976500               -0.33080321               -0.03364379               -5.99482344
              19.35873512               13.33007260               84.34635257                1.00000000                0.01898247                0.09160708               -0.25382184               -0.00070283               -0.00031274                0.53025210
              20.35892495               12.80505562               83.90433394                0.61459528               -0.03347611               -0.07292767                0.14588643               -0.03794550                0.01607568               -0.26689003
              21.35806560               12.27932815               83.46261383                0.00010000               -0.93382011               -0.21559849                0.53150338               -0.44438680                0.48728734               -1.04629708
              22.34024854               11.74636228               83.02992909                0.00010000               -1.56795160                0.24370761               -0.35905789               -1.01957244                0.72854952               -1.51219362
              23.32670657               11.21516971               82.59954629                0.00010000               -1.08993245                0.61555306               -1.27798446               -1.29489824                0.39161804               -1.91968434
              24.31844990               10.68386260               82.16869635                0.00010000               -0.52362788                0.91839564               -2.27390564               -1.65140235               -0.14888222               -2.31846364
              25.31623401               10.15243026               81.73646982                0.00010000                0.08489586                1.21168941               -3.32136283               -1.84113978               -0.64483983               -2.73963656
              26.32014781                9.62230483               81.30326592                0.00010000                0.66449714                1.50706945               -4.32486194               -1.72376219               -0.91145132               -3.18778679
              27.32952395                9.09550677               80.87032956                0.00010000                1.14768127                1.72829033               -5.13518420               -1.28205996               -0.85760409               -3.64498903
              28.34310144                8.57355368               80.43911603                0.00010000                1.46804630                1.77769454               -5.57629037               -0.64439169               -0.50674232               -4.06974400
              29.35888488                8.05661465               80.01061810                0.39066231                1.57834407                1.60535281               -5.47984018               -0.21270078               -0.13840284               -4.40783180
              19.88459998               14.33099535               84.20722692                1.00000000                0.01752694                0.09104144               -0.26363884                0.00282398                0.00978575                0.52455765
              20.88477525               13.80436626               83.76130261                0.66431790               -0.03971309               -0.06487870                0.15465563               -0.02323295                0.03355835               -0.26462893
              21.88380572               13.27723079               83.31584110                0.00010000               -1.09066504               -0.20176227                0.55300412               -0.05579534                0.64880231               -0.88599327
              22.86296195               12.75003205               82.88214414                0.00010000               -1.89626754                0.51889776               -0.41731281               -0.34034738                0.93917582               -1.13497636
              23.84588037               12.22328568               82.44997795                0.00010000               -1.43114776                1.00064210               -1.42054511               -0.77855404                0.48084653               -1.34396081
              24.83433900               11.69518430               82.01681519                0.00010000               -0.79277293                1.27631614               -2.51028169               -1.14328598               -0.17100291               -1.57599339
              25.83002491               11.16642340               81.58165296                0.00010000               -0.06269440                1.51768076               -3.65575693               -1.28325079               -0.75799040               -1.83531234
              26.83308511               10.63878664               81.14509523                0.00010000                0.64084558                1.73785707               -4.75301288               -1.16474212               -1.07719918               -2.11382747
              27.84284183               10.11375996               80.70879200                0.00010000                1.23102531                1.89261427               -5.63935644               -0.83371178               -1.02161152               -2.39942021
              28.85770562                9.59214485               80.27475277                0.00010000                1.61067059                1.91979089               -6.11873245               -0.39959034               -0.60958661               -2.66574607
              29.87505524                9.07363677               79.84447631                0.39158410                1.73496207                1.77111147               -6.00093503               -0.10962471               -0.19902215               -2.87719571
              20.41204977               15.33189343               84.06792624                1.00000000                0.01750748                0.09033754               -0.27698760                0.00430985                0.02228572                0.43316903
              21.41222485               14.80375805               83.61813879                0.56632654               -0.03829321               -0.06077922                0.17063279               -0.01203949                0.19717204               -0.26016605
              22.41128391               14.27529291               83.17184870                0.00010000               -1.24190710               -0.19164959                0.55454809                0.47099099                0.97936573               -0.68247994
              23.38738670               13.75674024               82.73769328                0.00010000               -2.26503357                0.96859330               -0.45324926                0.22243569                1.23319166               -0.64365285
              24.36598324               13.23518255               82.30529444                0.00010000               -1.74701213                1.26834852               -1.51133542               -0.31934054                0.65414500               -0.69105608
              25.35244646               12.70938892               81.87113853                0.00010000               -0.95082917                1.49253487               -2.66496265               -0.63756115               -0.12000994               -0.79432689
              26.34696665               12.18278387               81.43443725                0.00010000               -0.14650281                1.70117806               -3.88370270               -0.70393245               -0.79421453               -0.91397688
              27.34951640               11.65706197               80.99598692                0.00010000                0.62624288                1.88860737               -5.05801587               -0.61869827               -1.16669837               -1.04367458
              28.35949151               11.13335905               80.55772718                0.00010000                1.28582125                2.01459850               -6.01344631               -0.42217854               -1.12373369               -1.17949863
              29.37523283               10.61194950               80.12202336                0.00010000                1.71085238                2.03280264               -6.53064884               -0.18750655               -0.68019815               -1.31082495
              30.39370856               10.09203688               79.69072602                0.39196846                1.84757272                1.89902382               -6.38175388               -0.01818966               -0.24452030               -1.41034842
              20.94095693               16.33280210               83.92698776                1.00000000                0.01780518                0.09086742               -0.28698000               -0.07442577                0.21164235                0.34907510
              21.94113498               15.80315068               83.47514141                0.73522143               -0.03567901               -0.06073703                0.17923000               -0.07920111                0.49676779               -0.24924430
              22.94024335               15.27339780               83.02901289                0.36504097               -1.68069824               -0.18951062                0.55471858                1.20860646                1.52762875               -0.61522618
              23.90752102               14.76940392               82.59787593                0.36200703               -2.66992369                1.26636763               -0.49085103                0.77617442                1.59224592               -0.23058952
              24.88684488               14.24865265               82.16594655                0.36086953               -1.67672814                1.34701019               -1.57159073               -0.13228145                0.81076718               -0.27597320
              25.87398646               13.72503500               81.73186145                0.36164912               -0.92858331                1.56460769               -2.75962686               -0.25628510               -0.05066896               -0.32484532
              26.86827321               13.20044696               81.29477140                0.36425467               -0.19252464                1.76630895               -4.02670984               -0.29315428               -0.80481410               -0.37600715
              27.87013596               12.67655879               80.85560895                0.36858188                0.56187595                1.94968174               -5.26215128               -0.25779533               -1.22572937               -0.42405052
              28.87951073               12.15405193               80.41653732                0.37545406                1.25708476                2.06928832               -6.28620442               -0.18597211               -1.19065929               -0.47307014
              29.89527766               11.63280091               79.98016890                0.38464227                1.75029761                2.08514077               -6.86927395               -0.11725162               -0.72165230               -0.52329890
              30.91451668               11.11161724               79.54852873                0.69620598                1.92390245                1.95803651               -6.72866176               -0.03755356               -0.26483116               -0.56271669
              16.12776141                6.46959964               86.31288962                1.00000000                0.03119039                0.08139562               -0.29841808                0.06799867               -0.46272955                0.47944967
              17.12807332                5.94834693               85.89800852                1.00000000               -0.03092006               -0.01114733                0.03256094                0.07506298               -0.61132289                0.06700478
              18.12714301                5.42667971               85.48009107                1.00000000               -0.14272481               -0.08671060                0.33961588                0.06893790               -0.66633466               -0.02742562
              19.12521882                4.90390895               85.06405578                0.69917940               -0.25485450               -0.19829742                0.66391821               -0.00134414               -0.59276591               -0.23120947
              20.12204592                4.37909854               84.64749782                0.57874228               -0.35316285               -0.32990327                0.98695532               -0.00396015               -0.39719799               -0.18959364
              21.11815556                3.85205644               84.23499942                0.38796653               -0.43176525               -0.49826623                1.40743535               -0.05726502                0.21439642               -0.37247827
              22.11341062                3.32159135               83.82978175                0.12172519                0.26336704               -0.72982337                1.77894107               -0.13234723                2.61601522               -0.63349148
              23.12342290                2.78626468               83.46388892                0.00010000                0.56350817               -1.33642849                0.54601250               -2.30033518                5.18535019               -2.32598719
              24.12468078                2.22237483               83.10892102                0.00010000                2.85799394               -2.19026361               -0.16647450                2.17256872                8.26377795               -0.54843110
              25.18058278                1.64324924               82.77538375                1.00000000                3.04000921                0.60311115               -2.00399766               -1.79586582                3.30567563               -0.10685511
              26.18548097                1.10377073               82.37612112                1.00000000                0.48981812                0.32943839               -1.25128954                0.13501128               -0.00979261               -0.04147601
              16.64969412                7.47041360               86.17342432                1.00000000                0.05897950                0.06760806               -0.30754260                0.01906217               -0.05064988                0.64329473
              17.65028391                6.94823545               85.75854225                1.00000000                0.01786311               -0.01996130                0.02549178                0.02786121               -0.03289820                0.09349205
              18.65005138                6.42581261               85.34387648                1.00000000               -0.06439713               -0.09592821                0.32617479               -0.00087137                0.04151867               -0.17051967
              19.64899597                5.90192598               84.93019327                0.93034929               -0.10594022               -0.23670930                0.64133564               -0.03521437                0.22981738               -0.14610411
              20.64793257                5.37579950               84.51877021                0.84556880               -0.13297317               -0.36861631                0.96978757               -0.05804280                0.52706281               -0.12477399
              21.64633651                4.84707378               84.10964002                0.68225831               -0.14747745               -0.54532556                1.41614794               -0.12860295                1.12124692               -0.24907662
              22.64498303                4.31429312               83.70743238                0.46587015                0.18456538               -0.81555380                2.00699000               -0.35928254                2.83161493               -0.44906792
              23.65002781                3.77290040               83.32671331                0.24818188                3.64655830               -1.40480650                1.79545530               -2.13572501                6.69057556               -1.34696336
              24.71791419                3.20047220               82.99212028                0.39329756                3.59491825               -1.19506284               -0.63855522                0.84262110                7.32242148               -0.30332364
              25.72192618                2.64928035               82.63882424                1.00000000                0.41976986                0.59133273               -1.90794335               -0.38927400                2.31656541               -0.13529816
              26.72630959                2.10706511               82.24002225                1.00000000                0.43834103                0.29424658               -1.01967053                0.00115568                0.02862667               -0.03758024
              17.17249895                8.47095180               86.03720176                1.00000000                0.07325841                0.04857281               -0.31072020                0.00001765                0.07335026                0.76080347
              18.17323153                7.94794770               85.61949004                1.00000000                0.04680562               -0.02589547                0.02643186               -0.01133350                0.22148718                0.05661659
              19.17343506                7.42476115               85.20456358                0.00010000                0.06480532               -0.09313046                0.33552072               -0.16607467                0.79055636               -0.57427821
              20.17452764                6.89917477               84.79780411                0.00010000                0.11511002               -0.70060427                0.60819648               -0.67605597                1.27612928               -1.21009617
              21.17573726                6.37172621               84.39122288                0.00010000                0.12811253               -1.02048300                0.91073606               -0.94925677                1.50090603               -1.83209623
              22.17708989                5.84114993               83.98674044                0.00010000                0.23305441               -1.34054473                1.30806162               -1.15402131                2.16677963               -2.49462104
              23.18039835                5.30528028               83.58938290                0.00010000                0.87197189               -1.72490525                1.76478556               -1.46547187                3.84387222               -3.32801591
              24.19452933                4.75816855               83.21082840                0.00010000                4.23774516               -2.24250954                1.33657945               -2.04170736                6.39423040               -4.60129294
              25.26515325                4.19847357               82.86046806                0.00010000                3.58375308               -0.91880606                0.87297180               -4.74004400                6.79428224               -5.35333759
              26.26620439                3.65507589               82.50236466                0.00010000                0.23906512                0.22446008               -1.75986447               -3.18249580                2.04943637               -7.29305556
              27.26993456                3.10965566               82.10406633                0.38427260                0.37301661                1.52946781               -0.77623000               -3.11011154                0.03611877               -7.39861744
              17.69570268                9.47138506               85.90009540                1.00000000                0.05452192                0.04826175               -0.29740559               -0.01867540                0.15316415                0.65015442
              18.69624790                8.94771754               85.47920536                0.62944048               -0.00999281               -0.01927214                0.04526108               -0.04475277                0.24617339               -0.17416532
              19.69550282                8.42395000               85.06006453                0.00010000               -0.38690529               -0.11621522                0.36495764               -0.70209328                0.42222439               -0.99983021
              20.68850979                7.88791389               84.64261086                0.00010000               -0.42652746               -0.86147791                0.31413478               -1.74199855                0.60852001               -2.36094611
              21.68697227                7.35538984               84.22826276                0.00010000                0.05961114               -1.32589505                0.24187511               -2.04950360                0.81893283               -3.55629772
              22.68970201                6.82026289               83.81657381                0.00010000                0.58413481               -1.67180253                0.07904730               -2.51928215                1.07910872               -4.77606992
              23.69865497                6.27979501               83.40981220                0.00010000                1.31491772               -1.94382200               -0.30677538               -3.23310418                1.42938901               -6.13871879
              24.71600037                5.72805021               83.01029764                0.00010000                1.37755030               -1.73529208               -0.87141305               -3.78850579                1.41302833               -7.77017524
              25.72620597                5.18209607               82.61360689                0.00010000                1.55469060               -0.68308620               -1.69502482               -5.56359758                1.51097194               -9.91253246
              26.74709418                4.65376955               82.22262593                0.00010000                1.43709259                0.13005321               -2.07994625               -3.58598054                1.49081592              -12.59719817
              27.75494783                4.13765447               81.82063343                0.38469292                0.78536460                1.87693302               -2.12662075               -2.55908658                1.03915871              -14.09982241
              18.21946046               10.47191704               85.76165504                1.00000000                0.03110705                0.06489563               -0.27576012               -0.00762546                0.01191530                0.54043162
              19.21977153                9.94756226               85.33544325                0.55408540               -0.01318080               -0.03607846                0.09642596               -0.05985764                0.14849305               -0.31981327
              20.21919685                9.42243685               84.91191795                0.00010000               -0.57618549               -0.18153118                0.39597011               -0.86316319                0.22705780               -1.24043457
              21.20824782                8.88194521               84.48718521                0.00010000               -0.83993268               -0.44287576                0.09299451               -1.81012858                0.12859025               -2.31435857
              22.20239819                8.34520831               84.06501616                0.00010000               -0.29743740               -0.70903331               -0.28197099               -2.07651051                0.07360315               -3.39329203
              23.20229908                7.80771388               83.64433812                0.00010000                0.27753760               -0.82933050               -0.80734732               -2.67129929               -0.10279218               -4.52509299
              24.20794895                7.26640384               83.22539085                0.00010000                0.70795374               -0.72605530               -1.48322653               -3.35528570               -0.29790064               -5.74119274
              25.21645815                6.72346271               82.80860742                0.00010000                1.01065067               -0.03084628               -2.28201660               -3.80620127               -0.33425728               -7.02918595
              26.22816196                6.18481185               82.39488646                0.00010000                1.12341177                0.60199770               -3.00545377               -3.06609330               -0.11892526               -8.34416967
              27.23892639                5.65767696               81.98272382                0.00010000                1.14105158                0.78880919               -3.44691859               -2.08655004                0.09525034              -10.03315236
              28.25098299                5.14719432               81.56851932                0.38497908                1.20566046                0.88480850               -3.36352089               -0.94413299                0.37069454              -11.31672640
              18.74425973               11.47268297               85.62230444                1.00000000                0.02712064                0.08200336               -0.25576649               -0.01004683                0.00160619                0.50256492
              19.74453094               10.94699597               85.19208537                0.57504929               -0.02015617               -0.06508054                0.11542459               -0.06365239                0.03123537               -0.28954725
              20.74385661               10.42031937               84.76242199                0.00010000               -0.74975907               -0.21770228                0.45660977               -0.84997330                0.02435127               -1.20846939
              21.72953576                9.87905638               84.33193033                0.00010000               -1.20916107               -0.16480349               -0.06316612               -1.74995875               -0.20410956               -2.15505277
              22.71967339                9.34120918               83.90275866                0.00010000               -0.72276280               -0.14207805               -0.66104679               -1.97097956               -0.50913721               -3.05993098
              23.71508050                8.80367628               83.47362643                0.00010000               -0.19364808               -0.03917985               -1.41881146               -2.44591197               -0.94892197               -4.00122668
              24.71580042                8.26527391               83.04419726                0.00010000                0.31939137                0.26613836               -2.32829956               -2.89632987               -1.32002050               -4.99576507
              25.72146833                7.72743328               82.61532586                0.00010000                0.74347198                0.72841079               -3.28763388               -2.90819565               -1.41483530               -6.03473963
              26.73066986                7.19413603               82.18842995                0.00010000                1.07561920                1.17523892               -4.13530144               -2.37846617               -1.14483208               -7.14550857
              27.74298071                6.66954573               81.76458754                0.00010000                1.31802885                1.36182396               -4.65327537               -1.27213581               -0.60308429               -8.23203688
              28.75703044                6.15535064               81.34351211                0.38549674                1.40497297                1.06229455               -4.63599212               -0.51786235               -0.10303382               -8.99329944
              19.27063351               12.47355711               85.48301120                1.00000000                0.02285657                0.09012733               -0.24938747               -0.00634137               -0.00248956                0.51292981
              20.27086208               11.94626065               85.04883449                0.61562781               -0.02482668               -0.07354340                0.12580280               -0.05390450                0.00207210               -0.27163558
              21.27013698               11.41808280               84.61472510                0.00010000               -0.92516156               -0.21979457                0.48498322               -0.66673450               -0.10915672               -1.06846331
              22.25235885               10.87864914               84.17816872                0.00010000               -1.58891390                0.07870003               -0.16580292               -1.41819085               -0.46746928               -1.87836845
              23.23835870               10.34236675               83.74313098                0.00010000               -1.15213709                0.33339766               -0.92279000               -1.63321342               -0.88301709               -2.59110724
              24.22931611                9.80693029               83.30710316                0.00010000               -0.60466789                0.59642829               -1.85753423               -2.00457715               -1.48359139               -3.32276242
              25.22626534                9.27172660               82.86957452                0.00010000                0.00580055                0.91872358               -2.94442726               -2.26700642               -1.97505009               -4.09847071
              26.22943212                8.73803093               82.43171771                0.00010000                0.61074203                1.28928063               -4.07174690               -2.20005080               -2.11808342               -4.91399300
              27.23848018                8.20831663               81.99579366                0.00010000                1.14184725                1.59627879               -5.05564880               -1.69212171               -1.78951734               -5.73993538
              28.25226906                7.68491343               81.56425778                0.00010000                1.52678771                1.69630089               -5.67273733               -0.88250999               -1.02391693               -6.48767785
              29.26901594                7.16844021               81.13899772                0.38622147                1.67468766                1.50932022               -5.70122495               -0.30415236               -0.34047299               -6.98380699
              19.79872582               13.47448551               85.34380579                1.00000000                0.02013314                0.09257032               -0.25133614               -0.00252466               -0.00164115                0.51816903
              20.79892715               12.94552511               84.90574582                0.65471918               -0.02961979               -0.06920589                0.13323852               -0.03693619                0.00675070               -0.25083440
              21.79813343               12.41592348               84.46783905                0.00010000               -1.10195814               -0.20887874                0.50343373               -0.36267269               -0.13230844               -1.00136546
              22.77688799               11.88063038               84.02684567                0.00010000               -1.97027287                0.32018439               -0.22941607               -0.86922360               -0.56146102               -1.52963983
              23.75872797               11.34787713               83.58747050                0.00010000               -1.56294449                0.74446991               -1.09582762               -1.13249618               -1.06283928               -2.02852473
              24.74562910               10.81560484               83.14637387                0.00010000               -0.96841578                1.07788355               -2.16131749               -1.48873343               -1.79128465               -2.54680489
              25.73935965               10.28364838               82.70293107                0.00010000               -0.23759082                1.38176989               -3.39248092               -1.68456873               -2.38886291               -3.10559679
              26.74087728                9.75321889               82.25863031                0.00010000                0.52926344                1.67675837               -4.66258502               -1.58799351               -2.57898270               -3.69355004
              27.74994492                9.22606160               81.81642409                0.00010000                1.21648232                1.90367808               -5.77088684               -1.18997592               -2.20752436               -4.27113373
              28.76520693                8.70347175               81.37982740                0.00010000                1.69744613                1.97858837               -6.47175612               -0.60066764               -1.28061752               -4.76152513
              29.78389385                8.18553704               80.95184152                0.38676942                1.86869139                1.85367029               -6.51573804               -0.19677956               -0.48414752               -5.06937925
              20.32850384               14.47540851               85.20460283                1.00000000                0.01815505                0.09023412               -0.25765174                0.00155490                0.00817078                0.50649028
              21.32868539               13.94487653               84.76280598                0.70615879               -0.03627900               -0.06058338                0.14217969               -0.02155647                0.02225884               -0.24062162
              22.32777826               13.41390522               84.32128184                0.00010000               -1.28323281               -0.19266156                0.52348790                0.05702239               -0.01475869               -0.84353656
              23.30302073               12.88505283               83.87859031                0.00010000               -2.35219719                0.60378604               -0.26094713               -0.14503924               -0.43727276               -1.12649403
              24.28073431               12.35725615               83.43665570                0.00010000               -1.96252708                1.13520060               -1.19614114               -0.61092216               -1.07616231               -1.39685864
              25.26377019               11.82848796               82.99231322                0.00010000               -1.28871970                1.43264174               -2.35446992               -1.00120773               -1.93643020               -1.71057831
              26.25495992               11.29936200               82.54490437                0.00010000               -0.42555833                1.69250875               -3.69620320               -1.16223477               -2.64127100               -2.06356306
              27.25525902               10.77156609               82.09621801                0.00010000                0.47339458                1.93458401               -5.08285210               -1.07052189               -2.88680828               -2.43597828
              28.26442781               10.24639019               81.64977704                0.00010000                1.27606253                2.11828721               -6.29412648               -0.77442999               -2.49429824               -2.79520293
              29.28078027                9.72448520               81.20987512                0.00010000                1.82609796                2.18360327               -7.05676956               -0.37456915               -1.45684001               -3.08247121
              30.30094977                9.20551361               80.78027797                0.38707387                2.01694964                2.08703478               -7.09228153               -0.10127527               -0.58368173               -3.21959188
              20.85982089               15.47629020               85.06518724                1.00000000                0.01784242                0.08797692               -0.26783032                0.00378189                0.02583644                0.41276668
              21.85999931               14.94431344               84.61980581                0.60340987               -0.03616551               -0.05626862                0.15806168               -0.00977193                0.17058558               -0.23286050
              22.85909758               14.41207025               84.17731199                0.00010000               -1.46815135               -0.18018333                0.52560715                0.62184548                0.27518472               -0.64419762
              23.83063629               13.89270610               83.73390995                0.00010000               -2.80115917                1.10587115               -0.26572847                0.40213646               -0.19522636               -0.62552234
              24.80307440               13.37058114               83.29127348                0.00010000               -2.35685969                1.41349674               -1.23650090               -0.20164002               -0.97431979               -0.70827361
              25.78349909               12.84425768               82.84531791                0.00010000               -1.50187875                1.64781411               -2.45401433               -0.55528478               -1.98177657               -0.85375979
              26.77303682               12.31749855               82.39560706                0.00010000               -0.55302173                1.87740080               -3.87616592               -0.63707631               -2.79915486               -1.02070987
              27.77243866               11.79191057               81.94418969                0.00010000                0.42501980                2.09743072               -5.35614653               -0.57005233               -3.11331718               -1.19679405
              28.78153722               11.26842735               81.49501373                0.00010000                1.30767335                2.26416880               -6.65743652               -0.39686680               -2.72521955               -1.36608245
              29.79859212               10.74714382               81.05299717                0.00010000                1.91371494                2.32592061               -7.47570283               -0.18093985               -1.60798481               -1.49619274
              30.81981151               10.22727774               80.62268908                0.38764554                2.12193906                2.23638990               -7.48214150               -0.01804369               -0.67380509               -1.50604925
              21.39253299               16.47716805               84.92416242                1.00000000                0.01769029                0.08778544               -0.27583104               -0.07047940                0.20556512                0.32844161
              22.39270989               15.94375116               84.47690236                0.75186726               -0.03552414               -0.05622826                0.16724792               -0.07226670                0.44726954               -0.22203886
              23.39182251               15.41030156               84.03447240                0.36434336               -2.00786611               -0.17686942                0.52488545                1.44344741                0.78420116               -0.57244839
              24.35255257               14.90717025               83.59389566                0.36176086               -3.33362875                1.44641503               -0.25874475                0.95285456                0.14241348               -0.22534652
              25.32514993               14.38552608               83.15157387                0.36097664               -2.34027447                1.49449387               -1.23362153               -0.07874681               -0.85228825               -0.28906235
              26.30574708               13.86144424               82.70536653                0.36162159               -1.52922182                1.71865608               -2.47948491               -0.20600429               -1.98179146               -0.35343562
              27.29456550               13.33691002               82.25475528                0.36359785               -0.64089498                1.94114627               -3.95596322               -0.24360894               -2.91662857               -0.41656086
              28.29292918               12.81351471               81.80194733                0.36737526                0.33458684                2.16041347               -5.51236119               -0.21277009               -3.31148070               -0.47175516
              29.30125723               12.29167357               81.35118146                0.37338357                1.26909532                2.32462185               -6.90345659               -0.15355315               -2.95129578               -0.51805341
              30.31831109               11.77100361               80.90774208                0.38131550                1.95319121                2.38597978               -7.81062795               -0.09971135               -1.78643091               -0.54652840
              31.34032106               11.25024141               80.47698232                0.69395026                2.20099685                2.29636767               -7.83194253               -0.02526602               -0.80516871               -0.48657394
              16.53621465                6.61390414               87.30985364                1.00000000                0.03122070                0.07923042               -0.29235628                0.06530724               -0.48669356                0.47862924
              17.53652686                6.08852032               86.89823683                1.00000000               -0.02944056               -0.00694849                0.02039244                0.07221276               -0.65417449                0.06746217
              18.53562584                5.56265759               86.48333681                1.00000000               -0.13694582               -0.07476338                0.30981985                0.06461391               -0.71156396               -0.03448899
              19.53378794                5.03552987               86.07051234                0.69833318               -0.23540222               -0.18347335                0.61851499               -0.00754571               -0.62642822               -0.24222189
              20.53091780                4.50611397               85.65709885                0.59890115               -0.30180683               -0.31620223                0.90871083                0.00288788               -0.36615805               -0.17646521
              21.52775181                3.97412834               85.24880784                0.45098004               -0.33047411               -0.48222388                1.29041051               -0.01059798                0.34562115               -0.29274547
              22.52430831                3.43829285               84.84798243                0.25500922               -0.00000295               -0.69963329                1.70423252                0.00827163                2.12634017               -0.36429323
              23.52775175                2.89564234               84.47163470                0.07447733                2.60648684               -0.81670827                0.93482544               -0.79458289                4.06629064               -1.22349737
              24.57643805                2.32643220               84.11332489                0.25165843                2.40613286                0.45058191               -0.05540199               -2.51112921                6.12343450               -1.19261061
              25.57587440                1.77792172               83.75613305                1.00000000                0.20443142                0.54430335               -1.81628692               -0.29444678                1.73373260               -0.21625652
              26.58052668                1.23863378               83.36387485                1.00000000                0.46522752                0.34057677               -1.24898791                0.11723909               -0.05076578                0.02821824
              17.06225155                7.61469645               87.17029155                1.00000000                0.06207174                0.06544613               -0.30364631                0.01910980               -0.07785063                0.63799268
              18.06287226                7.08845083               86.75869068                1.00000000                0.02578284               -0.01604143                0.01025518                0.02781671               -0.08683413                0.09500595
              19.06276720                6.56190995               86.34694345                1.00000000               -0.04439852               -0.08418904                0.28627350               -0.00609017               -0.03005437               -0.16496342
              20.06198429                6.03369514               85.93630875                0.94965194               -0.05598809               -0.22411972                0.57072578               -0.03857483                0.16218909               -0.15643466
              21.06164744                5.50295195               85.52795146                0.88089510               -0.02139531               -0.35257540                0.84210819               -0.05521675                0.50370952               -0.11376344
              22.06155639                4.96930610               85.12303454                0.76263407                0.09932948               -0.52809865                1.20336018               -0.09247127                1.19201900               -0.19270506
              23.06363403                4.43129652               84.72605011                0.62163742                0.70899280               -0.78192488                1.58379134               -0.07470243                2.64555914               -0.27106639
              24.07573624                3.88747526               84.34546434                0.49961986                2.32765183               -1.10469087                1.39782400               -0.28854758                4.61321737               -0.72078010
              25.11018707                3.33093802               83.98347125                0.69523280                2.05464521                0.08206139               -0.66660409               -1.32267794                2.78502492               -0.01983148
              26.11682915                2.78336475               83.61969928                1.00000000                0.53999745                0.54102777               -1.76742782               -0.24500344                1.45893875               -0.24885822
              27.12098702                2.24203954               83.23000022                1.00000000                0.41578692                0.30906493               -1.04242211                0.01189407                0.14292783                0.05729581
              17.58908807                8.61521306               87.03403283                1.00000000                0.07816154                0.04761379               -0.30947557               -0.00193933                0.04192863                0.76492180
              18.58986969                8.08819949               86.61964467                1.00000000                0.05858312               -0.02196612                0.00889288               -0.01498893                0.16449816                0.07154185
              19.59025973                7.56097381               86.20771584                0.00010000                0.10523824               -0.07931438                0.29174308               -0.18963384                0.68295581               -0.54021899
              20.59197445                7.03104748               85.80345485                0.00010000                0.19713832               -0.68978990                0.51110461               -0.77246779                1.12503749               -1.31496737
              21.59420250                6.49906246               85.39954432                0.00010000                0.27916816               -0.97444046                0.73534172               -1.16520219                1.34816919               -2.07464823
              22.59755781                5.96356637               84.99846328                0.00010000                0.52213058               -1.23375599                1.00237403               -1.54776213                1.97154588               -2.93818249
              23.60464511                5.42265435               84.60445955                0.00010000                1.23907401               -1.50181044                1.20351594               -2.02563669                3.10738257               -3.99667321
              24.62233929                4.87354852               84.22248543                0.00010000                2.47249415               -1.65686303                0.82303621               -2.32247979                4.21595331               -5.22427925
              25.65409499                4.32807343               83.85369290                0.00010000                1.87667575               -0.75299396               -0.56469321               -2.95630724                1.88756749               -6.26737416
              26.65987281                3.78874228               83.48428579                0.00010000                0.46599958                0.02308340               -1.61293268               -2.33635268                1.07680133               -7.75288241
              27.66341498                3.24481507               83.09638184                0.38040847                0.35421761                1.03751604               -0.83985241               -2.24208307                0.14252793               -8.14702409
              18.11623991                9.61564872               86.89707000                1.00000000                0.05718372                0.04994723               -0.29645711               -0.02305408                0.12232209                0.66885275
              19.11681174                9.08801151               86.47955879                0.65752472               -0.00566836               -0.01387754                0.02733555               -0.04874600                0.19792591               -0.13422105
              20.11612654                8.56032367               86.06357574                0.00010000               -0.41827311               -0.10445245                0.33001177               -0.73285548                0.18616035               -0.95634409
              21.10844628                8.01989934               85.64566394                0.00010000               -0.51510152               -0.82920925                0.31342022               -1.89493997                0.13501696               -2.51182633
              22.10582451                7.48346314               85.23044942                0.00010000               -0.07185119               -1.22443350                0.22162750               -2.36500653                0.18227572               -3.96326025
              23.10700926                6.94463098               84.81664816                0.00010000                0.36573172               -1.44993604               -0.03084345               -3.06946558                0.15965344               -5.54085119
              24.11313914                6.40126031               84.40548555                0.00010000                0.84291579               -1.50428370               -0.51471302               -3.75967167                0.17446699               -7.34302542
              25.12386757                5.85433800               83.99894148                0.00010000                1.13640126               -1.13589304               -1.22822896               -4.10015292                0.12942532               -9.12813434
              26.13586717                5.31587814               83.59822997                0.00010000                1.47464362               -0.72546978               -1.82618873               -4.39545267                0.58424383              -11.45250624
              27.15336044                4.78382642               83.20041711                0.00010000                1.40662968               -0.17873343               -2.49642767               -3.10258431                0.24749373              -14.16178162
              28.16399976                4.26278986               82.79776963                0.38095093                1.06393162                1.26486990               -2.60757142               -1.94953784                0.36728331              -15.95945408
              18.64390141               10.61621201               86.75886757                1.00000000                0.03184144                0.06874260               -0.27301281               -0.01058707                0.01032759                0.56487370
              19.64421982               10.08792194               86.33631970                0.59181500               -0.00933067               -0.03023653                0.07800593               -0.06260581                0.10825872               -0.28334387
              20.64371479                9.55888476               85.91574766                0.00010000               -0.66418222               -0.17315636                0.36165153               -0.86421970               -0.12643861               -1.18779126
              21.63093618                9.01446329               85.48833308                0.00010000               -1.07720331               -0.37878019                0.16718818               -1.87336530               -0.59070187               -2.39599537
              22.62217073                8.47457379               85.06244264                0.00010000               -0.62824210               -0.57350931               -0.18496241               -2.21762104               -0.86690705               -3.66949568
              23.61837133                7.93456765               84.63618182                0.00010000               -0.12130322               -0.59437506               -0.77700931               -2.84375295               -1.31057333               -5.05989081
              24.61974466                7.39256868               84.20975103                0.00010000                0.36735346               -0.38851698               -1.60800927               -3.40188334               -1.70093778               -6.54813733
              25.62571840                6.85083066               83.78444529                0.00010000                0.84764249                0.05591810               -2.56768389               -3.53520069               -1.72664940               -8.15392062
              26.63669751                6.31356403               83.36251586                0.00010000                1.25954960                0.28750576               -3.49348462               -2.98174605               -1.34020410               -9.92458650
              27.65090940                5.78516761               82.94554167                0.00010000                1.48999170                0.57406455               -4.15133704               -1.98879171               -0.60364483              -11.78863604
              28.66649735                5.27011247               82.53159977                0.38132564                1.55879507                0.79608506               -4.23593371               -0.93207122               -0.03087772              -13.23304918
              19.17260830               11.61702357               86.61974117                1.00000000                0.02785769                0.08542192               -0.25039216               -0.01256241               -0.00039414                0.51879447
              20.17288688               11.08740678               86.19315636                0.61511620               -0.01537552               -0.05951383                0.09715370               -0.06327982                0.01269014               -0.27298504
              21.17230079               10.55686054               85.76684314                0.00010000               -0.87984698               -0.20641598                0.41823485               -0.81575416               -0.40274246               -1.15719015
              22.15528994               10.01232374               85.33174827                0.00010000               -1.54665285               -0.08940536                0.06597502               -1.71820301               -1.11483058               -2.19108438
              23.14136773                9.47199295               84.89676363                0.00010000               -1.15753124               -0.00665760               -0.48004347               -1.95335575               -1.65451329               -3.24433585
              24.13213931                8.93274348               84.45969347                0.00010000               -0.62646364                0.15230246               -1.31619578               -2.41810517               -2.37165110               -4.39383743
              25.12883846                8.39348997               84.02037721                0.00010000                0.00144458                0.44588537               -2.41542583               -2.79286991               -2.92434022               -5.65533876
              26.13216821                7.85545636               83.58080199                0.00010000                0.65284191                0.81151410               -3.65073602               -2.77620303               -3.02030954               -6.99460574
              27.14189530                7.32162825               83.14425313                0.00010000                1.24339814                1.14186409               -4.81511309               -2.27223492               -2.48256147               -8.39289610
              28.15703617                6.79530771               82.71403290                0.00010000                1.67866551                1.32149667               -5.63731653               -1.29035760               -1.39032603               -9.74055170
              29.17546861                6.27871156               82.29253799                0.38167499                1.84324413                1.17058482               -5.81225767               -0.52739045               -0.43746208              -10.65360123
              19.70288374               12.61792045               86.48053311                1.00000000                0.02335175                0.09103869               -0.24127459               -0.00818055               -0.00395871                0.51603734
              20.70311726               12.08673166               86.05001228                0.65519541               -0.02004941               -0.06696680                0.10793047               -0.05120921               -0.00822815               -0.25801427
              21.70248275               11.55475644               85.61941303                0.00010000               -1.08387791               -0.20582154                0.44477730               -0.60188453               -0.58592056               -1.03362246
              22.68143970               11.01267519               85.17714250                0.00010000               -1.98994426                0.15120780                0.00525483               -1.31089290               -1.50445732               -1.88579557
              23.66268387               10.47444064               84.73478657                0.00010000               -1.64637420                0.45407703               -0.68108795               -1.52538242               -2.18565831               -2.71120723
              24.64851222                9.93761370               84.28902623                0.00010000               -1.07547409                0.74864782               -1.70319701               -1.89649701               -3.08764687               -3.61620523
              25.64117439                9.40148638               83.83965734                0.00010000               -0.32280801                1.07492560               -3.02377137               -2.15954494               -3.78388395               -4.61375671
              26.64205606                8.86706094               83.38912745                0.00010000                0.51135355                1.42385873               -4.49454025               -2.10890686               -3.92053280               -5.68042980
              27.65140146                8.33640131               82.94176824                0.00010000                1.29814370                1.72362317               -5.87532123               -1.65911621               -3.29665416               -6.75148238
              28.66801893                7.81159754               82.50265284                0.00010000                1.88701889                1.86990607               -6.86036714               -0.89208264               -1.90572539               -7.68663207
              29.68914184                7.29352417               82.07629308                0.38235463                2.11229045                1.76176245               -7.12083822               -0.32208308               -0.73639543               -8.26457698
              20.23482226               13.61884435               86.34132585                1.00000000                0.02044462                0.09116299               -0.24078353               -0.00402145               -0.00326389                0.51207372
              21.23502670               13.08606745               85.90699871                0.69507781               -0.02513399               -0.06189130                0.11544708               -0.03380367               -0.00290289               -0.23470499
              22.23431958               12.55274411               85.47268251                0.00010000               -1.28194132               -0.19346600                0.46001011               -0.27380466               -0.64442297               -0.96293224
              23.20938788               12.01534789               85.02534077                0.00010000               -2.41990009                0.38813491               -0.02251861               -0.71333403               -1.68274021               -1.51868567
              24.18592158               11.48107449               84.57762974                0.00010000               -2.11121233                0.85524431               -0.80084676               -0.98405552               -2.48343006               -2.09998200
              25.16716363               10.94771644               84.12547000                0.00010000               -1.48606303                1.22075008               -1.96023601               -1.36182510               -3.54582104               -2.75039633
              26.15620032               10.41498848               83.66862020                0.00010000               -0.60442449                1.54948795               -3.45416379               -1.58312934               -4.37071842               -3.47915053
              27.15507514                9.88393353               83.21001421                0.00010000                0.39880307                1.87233786               -5.11498171               -1.52337744               -4.55972074               -4.25427163
              28.16417638                9.35610072               82.75491182                0.00010000                1.34982590                2.14324754               -6.67372569               -1.16652019               -3.86725652               -5.00506935
              29.18207166                8.83270584               82.30968091                0.00010000                2.04986594                2.28640592               -7.79108200               -0.60524770               -2.25748378               -5.61256671
              30.20517370                8.31394681               81.88030334                0.38293610                2.31020366                2.24365964               -8.10302205               -0.20419928               -0.92550037               -5.92846541
              20.76835712               14.61974371               86.20207388                1.00000000                0.01843095                0.08724124               -0.24498063                0.00036843                0.00594472                0.49355388
              21.76854143               14.08549384               85.76414620                0.74682416               -0.03154519               -0.05314971                0.12360936               -0.01857438                0.01060609               -0.21759011
              22.76772621               13.55088712               85.32631086                0.00010000               -1.48493958               -0.17628589                0.47629714                0.16539627               -0.55240532               -0.80496912
              23.73884263               13.02043788               84.87692520                0.00010000               -2.85459991                0.67882743               -0.01798294                0.03956099               -1.61211674               -1.10206957
              24.71063422               12.49154553               84.42605512                0.00010000               -2.57404520                1.25122108               -0.84499710               -0.46209416               -2.57939768               -1.42951914
              25.68736173               11.96202870               83.96972579                0.00010000               -1.86697551                1.57719903               -2.09630023               -0.88778339               -3.80804560               -1.83341305
              26.67329470               11.43247614               83.50772890                0.00010000               -0.84427296                1.87651384               -3.71849004               -1.08047673               -4.77008361               -2.29844189
              27.67047627               10.90450770               83.04343819                0.00010000                0.30020235                2.17316235               -5.52718429               -1.02208139               -5.02672886               -2.79128088
              28.67929875               10.37926626               82.58290947                0.00010000                1.37958042                2.42661307               -7.22664810               -0.75893886               -4.29565225               -3.25488305
              29.69806788                9.85732566               82.13361738                0.00010000                2.16385708                2.57264261               -8.44026872               -0.37713895               -2.51897672               -3.58987574
              30.72257589                9.33839736               81.70263068                0.38321076                2.45080138                2.56323640               -8.76637675               -0.10908351               -1.07114638               -3.66530037
              21.30332936               15.62058917               86.06256963                1.00000000                0.01824407                0.08384338               -0.25313963                0.00308950                0.02832730                0.39658805
              22.30351181               15.08500445               85.62130002                0.63843591               -0.03229543               -0.04885224                0.13777175               -0.00709072                0.14524130               -0.20740813
              23.30268346               14.54921839               85.18236085                0.00010000               -1.69955590               -0.16295509                0.47798444                0.75639273               -0.28160417               -0.61027004
              24.26952069               14.02892444               84.73237871                0.00010000               -3.37972882                1.22438418                0.02003429                0.56528573               -1.38529820               -0.59855011
              25.23508888               13.50609892               84.28056442                0.00010000               -3.05216701                1.53625558               -0.81525287               -0.09849972               -2.52330450               -0.71871330
              26.20847735               12.97926042               83.82205824                0.00010000               -2.14885511                1.79201763               -2.11886803               -0.48863396               -3.94110779               -0.90952429
              27.19211178               12.45251876               83.35691394                0.00010000               -1.03169766                2.06715819               -3.83071951               -0.58992478               -5.05684664               -1.13068167
              28.18784339               11.92739678               82.88886399                0.00010000                0.20339310                2.35503587               -5.75460360               -0.54409399               -5.40936851               -1.36374479
              29.19617964               11.40463298               82.42457845                0.00010000                1.37771934                2.60445709               -7.57264557               -0.39233892               -4.67912124               -1.57902812
              30.21539778               10.88415869               81.97250931                0.00010000                2.23344918                2.75274317               -8.86751440               -0.18705682               -2.76722303               -1.71780201
              31.24084862               10.36521154               81.54108319                0.38370297                2.54508424                2.74509606               -9.17205336               -0.02686876               -1.21624953               -1.62855178
              21.83958835               16.62142057               85.92147114                1.00000000                0.01820463                0.08314023               -0.26056672               -0.06447980                0.20083883                0.31152581
              22.83977039               16.08451679               85.47848637                0.76774031               -0.03271356               -0.04876586                0.14565034               -0.06376903                0.40204923               -0.19746359
              23.83893408               15.54762802               85.03951060                0.36371825               -2.32512854               -0.15903741                0.47582284                1.64550086                0.21819939               -0.53564810
              24.79326782               15.04492557               84.59270104                0.36177069               -4.03029161                1.60011261                0.09296017                1.10684480               -1.00842903               -0.23275506
              25.75832825               14.52227064               84.14127411                0.36108721               -3.10493061                1.61717234               -0.71820546               -0.02888938               -2.40569745               -0.31601930
              26.73116921               13.99786905               83.68227175                0.36137984               -2.24841988                1.86086323               -2.03992917               -0.15338016               -4.00568953               -0.39482197
              27.71335985               13.47381931               83.21565214                0.36316644               -1.18445208                2.13005513               -3.81267369               -0.18822465               -5.29844891               -0.46819912
              28.70748017               12.95160842               82.74536173                0.36654488                0.06651093                2.42116381               -5.83212524               -0.15951755               -5.78023814               -0.52889523
              29.71469007               12.43135540               82.27846819                0.37122011                1.31340046                2.67224265               -7.76704644               -0.11035209               -5.10797505               -0.57018828
              30.73374818               11.91238052               81.82395635                0.37813572                2.26213719                2.82218361               -9.18059387               -0.06776625               -3.12257465               -0.57200350
              31.75993281               11.39329928               81.39188988                0.69207737                2.61846307                2.80877405               -9.50998888                0.00029453               -1.49339027               -0.38546488
              16.94126116                6.75829640               88.30704249                1.00000000                0.02454913                0.06978598               -0.25464061                0.05697260               -0.50628577                0.47458827
              17.94150665                6.22878846               87.89841637                1.00000000               -0.03124703               -0.00607229                0.02285954                0.06288039               -0.69072064                0.06692497
              18.94063622                5.69877666               87.48628747                1.00000000               -0.12892192               -0.06423436                0.28251495                0.05376177               -0.74886850               -0.04416194
              19.93892822                5.16747169               87.07642608                0.69716112               -0.21044836               -0.16169177                0.55832704               -0.01527944               -0.66530167               -0.26040656
              20.93642726                4.63386402               86.66567204                0.62000486               -0.23719033               -0.27852589                0.79207111               -0.00080580               -0.38599775               -0.17759048
              21.93418441                4.09774814               86.26080763                0.51476989               -0.16583475               -0.41838935                1.07460729                0.00468857                0.37161674               -0.25073516
              22.93311056                3.55817013               85.86386640                0.38714950                0.26109256               -0.57754640                1.33849965                0.05475116                1.70721880               -0.32585717
              23.93940626                3.01413546               85.48258543                0.29293043                1.47702839               -0.65013905                0.81103202               -0.45053620                2.84680877               -0.75377876
              24.96265113                2.45822990               85.10781298                0.51535193                1.26506060                0.14776582               -0.41615853               -1.44432938                1.42272277                0.19537316
              25.96470747                1.91179163               84.73905801                1.00000000                0.31654583                0.43588040               -1.57142678               -0.32042678                0.93695939               -0.23984213
              26.96898205                1.37208435               84.35114136                1.00000000                0.42745719                0.36196844               -1.30417061               -0.01230648               -0.05841853                0.02768452
              17.47133884                7.75899426               88.16735139                1.00000000                0.05564947                0.05876936               -0.26983174                0.01598109               -0.10504535                0.62998053
              18.47189533                7.22872773               87.75874735                1.00000000                0.02466944               -0.01390122                0.00777424                0.02359430               -0.14299021                0.09574969
              19.47183223                6.69813432               87.34960195                1.00000000               -0.03317945               -0.07260902                0.24816877               -0.01125974               -0.11365474               -0.16098900
              20.47123174                6.16585477               86.94160779                0.97365752               -0.02756259               -0.19757315                0.48588422               -0.03919364                0.05362483               -0.17462035
              21.47128097                5.63107876               86.53561237                0.92183060                0.04232480               -0.30643686                0.68703925               -0.05127831                0.36850731               -0.10989802
              22.47207824                5.09356424               86.13370722                0.84764527                0.20917183               -0.44877358                0.92348855               -0.06314581                0.96850215               -0.15581611
              23.47546441                4.55239467               85.73910821                0.77819978                0.63963903               -0.61293854                1.05458059               -0.02584400                1.84556808               -0.21267847
              24.48487102                4.00763407               85.35466979                0.74371594                1.19576692               -0.69648160                0.67696185               -0.12391665                2.38935427               -0.48861616
              25.49937975                3.45970755               84.97878819                0.97711419                0.98524807                0.00687344               -0.37962973               -0.65152607                1.33808118               -0.03762053
              26.50457598                2.91615044               84.60347568                1.00000000                0.45932600                0.37543888               -1.32772277               -0.18297634                0.75341323               -0.25322970
              27.50856627                2.37570403               84.21917380                1.00000000                0.39902883                0.34307082               -1.16093293               -0.06409256                0.27604947                0.04495407
              18.00211384                8.75947179               88.03101224                1.00000000                0.07246443                0.04665546               -0.28155272               -0.00450064                0.00906707                0.76834641
              19.00283849                8.22851043               87.61966790                1.00000000                0.05850737               -0.01848225                0.00116960               -0.01709843                0.10175378                0.08685783
              20.00328399                7.69732448               87.21039844                0.00010000                0.11807052               -0.06715112                0.24562937               -0.18507796                0.54737408               -0.50113502
              21.00519990                7.16352023               86.80802621                0.00010000                0.22041123               -0.65278158                0.40573199               -0.82422447                0.89718629               -1.35027089
              22.00769222                6.62773528               86.40592971                0.00010000                0.32028425               -0.89262193                0.55476010               -1.31974818                1.03963561               -2.19882629
              23.01160558                6.08877267               86.00678792                0.00010000                0.54158183               -1.09184581                0.69625124               -1.80216039                1.44672294               -3.22153625
              24.01852385                5.54591136               85.61345322                0.00010000                0.90047306               -1.23758214                0.70937046               -2.20901289                1.93709951               -4.42542523
              25.02961505                5.00020583               85.22728912                0.00010000                1.12901936               -1.20532070                0.36974182               -2.32852829                2.02214980               -5.60751310
              26.04110424                4.45836736               84.84917420                0.00010000                0.77182122               -0.77422819               -0.37073775               -2.19349749                0.91098967               -7.04467172
              27.04505147                3.91930041               84.47010601                0.00010000                0.37443846               -0.34362001               -1.08365390               -1.57465935                0.48210855               -8.51538917
              28.04859301                3.37894576               84.08726928                0.37707586                0.35415399                0.37717112               -1.00713690               -1.08435579                0.26485425               -9.27275519
              18.53317154                9.75992737               87.89416626                1.00000000                0.05291345                0.05357783               -0.27352786               -0.02448328                0.09057644                0.69020801
              19.53370067                9.22835809               87.47975207                0.68724211               -0.00253333               -0.01063115                0.01406565               -0.04589765                0.14923822               -0.09322091
              20.53312087                8.69679129               87.06666477                0.00010000               -0.46821125               -0.09554295                0.28219781               -0.70941222               -0.00645810               -0.90926103
              21.52433645                8.15279914               86.64887926                0.00010000               -0.67436520               -0.77896254                0.36505748               -1.95130329               -0.28533726               -2.52391022
              22.51963357                7.61322632               86.23269531                0.00010000               -0.32387503               -1.11155483                0.28329978               -2.57763569               -0.49062921               -4.15546337
              23.51785895                7.07172733               85.81595694                0.00010000                0.01087093               -1.26509529               -0.03836011               -3.42048266               -0.85719381               -6.05310083
              24.51985099                6.52764303               85.39951794                0.00010000                0.39927518               -1.26809670               -0.61590090               -4.05284040               -1.14269215               -8.23540355
              25.52584445                5.98352766               84.98573306                0.00010000                0.82821143               -1.08410214               -1.40849338               -4.19373755               -1.16478744              -10.59749777
              26.53641522                5.44422299               84.57708311                0.00010000                1.33299712               -0.90352017               -2.31911877               -3.75461804               -0.82532738              -13.47458548
              27.55250439                4.90927804               84.17269737                0.00010000                1.55866172               -0.55059817               -3.10931548               -2.41287173               -0.64295459              -16.12295212
              28.56758845                4.38324745               83.76848200                0.37756347                1.50840563                0.44096082               -3.37799380               -1.12024756               -0.09927094              -18.33358480
              19.06476275               10.76054335               87.75619478                1.00000000                0.02938689                0.07329685               -0.25345239               -0.01205783                0.00750328                0.59406091
              20.06505662               10.22829781               87.33700336                0.63114734               -0.00540244               -0.02571976                0.05883908               -0.05738181                0.07054609               -0.24510505
              21.06465470                9.69541362               86.91915098                0.00010000               -0.76589053               -0.16405443                0.31378109               -0.81339297               -0.38941295               -1.13642010
              22.04973880                9.14794097               86.49052898                0.00010000               -1.37216917               -0.31869367                0.32281840               -1.84636143               -1.17295821               -2.37098370
              23.03721131                8.60550419               86.06131691                0.00010000               -1.04797899               -0.46238963                0.03695124               -2.27329307               -1.77893226               -3.79215735
              24.02877922                8.06347076               85.62879794                0.00010000               -0.57722995               -0.43861079               -0.62447359               -2.93899050               -2.59742421               -5.44692193
              25.02566672                7.52054943               85.19323066                0.00010000                0.01905535               -0.26911031               -1.64186982               -3.42964331               -3.23179039               -7.33105312
              26.02916033                6.97852379               84.75725375                0.00010000                0.72973919               -0.03343246               -2.87971170               -3.44553534               -3.31519107               -9.44500181
              27.04026150                6.44029696               84.32501677                0.00010000                1.43046199                0.14013674               -4.14271424               -2.94314143               -2.74382436              -11.74700667
              28.05776957                5.90828845               83.89969708                0.00010000                1.89938647                0.41727435               -5.18286975               -1.90735206               -1.53914049              -13.97439186
              29.07824923                5.38776498               83.48380065                0.37775706                2.04796565                0.71689266               -5.56388541               -0.86821845               -0.47014636              -15.57216979
              19.59742146               11.76139331               87.61729660                1.00000000                0.02613066                0.08749110               -0.23273339               -0.01329864               -0.00273046                0.54037023
              20.59768277               11.22784369               87.19402845                0.65679849               -0.01058050               -0.05198996                0.07686604               -0.05610585               -0.00429315               -0.25286152
              21.59720985               10.69351020               86.77078669                0.00010000               -1.01820552               -0.19213178                0.36650125               -0.73923892               -0.70606290               -1.10593549
              22.57731866               10.14642527               86.33324983                0.00010000               -1.92859632               -0.03001231                0.29500985               -1.61871618               -1.82748062               -2.14941940
              23.55863792                9.60397853               85.89315779                0.00010000               -1.66423803                0.08861549               -0.15224205               -1.89598326               -2.74308755               -3.32355011
              24.54403389                9.06295511               85.44730251                0.00010000               -1.12164140                0.26794430               -1.07938283               -2.39022646               -3.87906214               -4.71389786
              25.53620509                8.52226082               84.99588874                0.00010000               -0.34238401                0.53295255               -2.44156270               -2.76381854               -4.74157021               -6.32374943
              26.53718621                7.98285901               84.54231114                0.00010000                0.57913160                0.83431608               -4.07756861               -2.77424347               -4.91533317               -8.10242029
              27.54778773                7.44702572               84.09212769                0.00010000                1.48515605                1.11656654               -5.72417529               -2.32376371               -4.13715451               -9.95856219
              28.56688934                6.91762352               83.65184121                0.00010000                2.17416470                1.36221694               -7.02185983               -1.37901390               -2.39550761              -11.64614917
              29.59127102                6.39758531               83.22726696                0.37829788                2.43816853                1.38091705               -7.54624639               -0.56590530               -0.90218246              -12.77349654
              20.13159601               12.76229317               87.47818571                1.00000000                0.02215979                0.08964558               -0.22388497               -0.00884783               -0.00556733                0.52462872
              21.13181760               12.22725801               87.05099309                0.69736508               -0.01538289               -0.05733031                0.08772420               -0.04462554               -0.01653857               -0.24083833
              22.13128835               11.69157098               86.62362065                0.00010000               -1.24607234               -0.18715993                0.39164612               -0.51121097               -0.91388644               -0.99694202
              23.10689616               11.14734073               86.17827381                0.00010000               -2.42632723                0.20243494                0.28944041               -1.16635937               -2.29915256               -1.83945313
              24.08276180               10.60727650               85.72950922                0.00010000               -2.21018765                0.53152035               -0.27593260               -1.41094359               -3.40951187               -2.76395385
              25.06269240               10.06882965               85.27303922                0.00010000               -1.61376776                0.84711235               -1.40682952               -1.81898462               -4.78761814               -3.86969757
              26.05048645                9.53120848               84.80909910                0.00010000               -0.68909221                1.18664924               -3.04844851               -2.12117799               -5.83862178               -5.15706879
              27.04891056                8.99521011               84.34182691                0.00010000                0.42676300                1.54818586               -5.00655365               -2.11875787               -6.06881808               -6.57000549
              28.05902171                8.46262829               83.87828724                0.00010000                1.53595764                1.88966276               -6.96697199               -1.72659733               -5.16108860               -7.98891784
              29.07962971                7.93553279               83.42705043                0.00010000                2.39929260                2.13161783               -8.51738002               -0.97342833               -3.03417595               -9.21397010
              30.10700756                7.41538332               82.99658096                0.37856403                2.73778477                2.15224146               -9.18277725               -0.37154914               -1.24706558               -9.95048183
              20.66731482               13.76318622               87.33899012                1.00000000                0.01976188                0.08713189               -0.22299014               -0.00480897               -0.00497337                0.51142729
              21.66751244               13.22669709               86.90805476                0.73466448               -0.02059547               -0.05172955                0.09517624               -0.02881442               -0.01023685               -0.21654735
              22.66690291               12.68976701               86.47703925                0.00010000               -1.46132415               -0.17217417                0.40646393               -0.17801613               -0.98586180               -0.92698523
              23.63828596               12.15047396               86.02639530                0.00010000               -2.89863891                0.43163814                0.30820219               -0.55100482               -2.52260627               -1.47353966
              24.60893013               11.61460894               85.57145356                0.00010000               -2.72818700                0.92272899               -0.32783890               -0.84963207               -3.80378710               -2.13164720
              25.58372222               11.07989736               85.10716915                0.00010000               -2.07645306                1.32009038               -1.60586058               -1.26860155               -5.39388867               -2.93645463
              26.56740107               10.54599381               84.63384779                0.00010000               -1.01654853                1.69454724               -3.45939819               -1.53576158               -6.61546738               -3.88105952
              27.56339125               10.01382273               84.15633068                0.00010000                0.27660146                2.08402983               -5.66872726               -1.52707588               -6.91243079               -4.90811650
              28.57293310                9.48481898               83.68294957                0.00010000                1.56372473                2.44988057               -7.87938974               -1.21264895               -5.91058820               -5.90737925
              29.59466574                8.96025588               83.22400576                0.00010000                2.56029356                2.71632491               -9.63095972               -0.65695103               -3.49236135               -6.70474881
              30.62413897                8.44063014               82.78978108                0.37911086                2.94732319                2.80222160              -10.40432158               -0.23794021               -1.49092021               -7.09489714
              21.20447809               14.76403581               87.19970322                1.00000000                0.01824368                0.08192385               -0.22653437               -0.00064678                0.00337059                0.48605881
              22.20466053               14.22622342               86.76527816                0.78598132               -0.02634725               -0.04359923                0.10213677               -0.01539110                0.00058871               -0.19490351
              23.20395115               13.68812750               86.33080778                0.00010000               -1.68132001               -0.15509484                0.41986208                0.26169821               -0.89626526               -0.77114642
              24.17103413               13.15597349               85.87823065                0.00010000               -3.38026905                0.72426467                0.35970793                0.20221813               -2.46352422               -1.05972628
              25.13634577               12.62573108               85.41975576                0.00010000               -3.25493136                1.31894741               -0.29914307               -0.33717000               -3.95572516               -1.44382352
              26.10593550               12.09523145               84.95038722                0.00010000               -2.52499588                1.68119390               -1.66807270               -0.80132219               -5.76254395               -1.95266935
              27.08584585               11.56509943               84.47053456                0.00010000               -1.31958173                2.04839383               -3.67287484               -1.03238385               -7.16649465               -2.55653649
              28.07954387               11.03689070               83.98567433                0.00010000                0.12448614                2.44447068               -6.07140058               -1.01389976               -7.55423801               -3.20752062
              29.08833557               10.51162590               83.50524408                0.00010000                1.55678340                2.82345461               -8.47402158               -0.78275251               -6.49824653               -3.82006713
              30.11067954                9.98985929               83.04106975                0.00010000                2.65823377                3.10964646              -10.37225606               -0.40604862               -3.85081654               -4.24670125
              31.14150025                9.47142775               82.60495044                0.37943039                3.08207118                3.24086788              -11.19943797               -0.13316440               -1.68835569               -4.29143867
              21.74292666               15.76482470               87.06012445                1.00000000                0.01862624                0.07798724               -0.23389139                0.00210090                0.02983233                0.38513132
              22.74311292               15.22582510               86.62256124                0.67052499               -0.02699289               -0.03971207                0.11325467               -0.00543514                0.12371108               -0.18399762
              23.74238680               14.68666511               86.18687168                0.00010000               -1.91930894               -0.14192063                0.41970422                0.85774173               -0.61544144               -0.58182509
              24.70472675               14.16495926               85.73431064                0.00010000               -3.97290165                1.29484996                0.45545642                0.69545604               -2.20220530               -0.56252418
              25.66292877               13.64098788               85.27496842                0.00010000               -3.81996613                1.60276179               -0.17454483               -0.01592574               -3.90833061               -0.72676779
              26.62832742               13.11352124               84.80294055                0.00010000               -2.89173138                1.89446696               -1.58586746               -0.43532175               -5.96795756               -0.96874519
              27.60509414               12.58696168               84.31899267                0.00010000               -1.58703246                2.24851051               -3.69159015               -0.55742056               -7.58664020               -1.25436281
              28.59658677               12.06271214               83.82909762                0.00010000               -0.03923363                2.65253091               -6.23336811               -0.53545565               -8.11241984               -1.55988914
              29.60430947               11.54128807               83.34356082                0.00010000                1.50780729                3.04322103               -8.79243149               -0.40478936               -7.05994055               -1.84046002
              30.62674292               11.02244881               82.87564688                0.00010000                2.70146404                3.34050912              -10.80829172               -0.20411083               -4.21403817               -2.00575772
              31.65833875               10.50544749               82.43924802                0.37982713                3.15958323                3.47454910              -11.63121165               -0.04583549               -1.89975898               -1.81485433
              22.28251930               16.76559555               86.91895109                1.00000000                0.01921146                0.07708537               -0.24202390               -0.05737345                0.19745377                0.29875721
              23.28271142               16.22542918               86.47981537                0.78268564               -0.02737366               -0.03959255                0.11821521               -0.05547398                0.36390613               -0.17602930
              24.28197183               15.68528909               86.04398886                0.36298336               -2.60454704               -0.13760209                0.41539719                1.78056807               -0.08005694               -0.50709605
              25.23062048               15.18187049               85.59575487                0.36159726               -4.72532774                1.69112325                0.62364082                1.21423413               -1.69541484               -0.26238371
              26.18746527               14.65778631               85.13720976                0.36107797               -3.96826030                1.67984264                0.05856762                0.01616536               -3.74909916               -0.36852786
              27.15125527               14.13312079               84.66456795                0.36111668               -3.09793686                1.95995560               -1.35533566               -0.09304909               -6.08624341               -0.46054034
              28.12550654               13.61006964               84.17850181                0.36264716               -1.83734519                2.31079531               -3.52902285               -0.11773419               -7.97076722               -0.54206324
              29.11450837               13.08994132               83.68530482                0.36550672               -0.25017115                2.72291846               -6.18978882               -0.08680642               -8.69525141               -0.60657032
              30.12050311               12.57249032               83.19584053                0.36944669                1.39647664                3.12022515               -8.89931913               -0.04422854               -7.74340229               -0.64080169
              31.14243790               12.05666947               82.72413020                0.37515854                2.70415301                3.42206571              -11.07127423               -0.00908158               -4.79399039               -0.61141573
              32.17458617               11.54091873               82.28678255                0.69015370                3.21482749                3.54712408              -11.93387682                0.04966877               -2.36404062               -0.26749932
              17.34334119                6.90277811               89.30476083                1.00000000                0.01262791                0.05481981               -0.19101183                0.04362656               -0.51502337                0.46603105
              18.34346747                6.36919685               88.89869402                1.00000000               -0.03512155               -0.00825460                0.03813919                0.04780811               -0.70997106                0.06608676
              19.34263876                5.83514540               88.48898711                1.00000000               -0.11850650               -0.05661932                0.25957843                0.03756460               -0.76593587               -0.05232899
              20.34109734                5.29995832               88.08167888                0.69530328               -0.19112378               -0.13557123                0.48914784               -0.02829317               -0.69823760               -0.27910139
              21.33881628                4.76268149               87.67294027                0.64015933               -0.20537783               -0.21851766                0.66571164               -0.02200503               -0.45022277               -0.17625990
              22.33698978                4.22331447               87.27029999                0.57492553               -0.10706961               -0.31049749                0.83528853               -0.02538916                0.22554387               -0.21739285
              23.33667489                3.68129208               86.87475242                0.50877343                0.18757762               -0.38359592                0.89352237               -0.05502876                1.02797731               -0.29533966
              24.34074134                3.13639804               86.48785534                0.48769229                0.58725153               -0.33987993                0.41988815               -0.33494183                1.40889050               -0.45254314
              25.34841992                2.58838923               86.10500171                0.73912969                0.52719362                0.04351551               -0.23793242               -0.63313740                0.66902533                0.06480539
              26.35128521                2.04428954               85.72470451                1.00000000                0.33858421                0.29626256               -1.22319475               -0.24067276                0.44227774               -0.02757226
              27.35519161                1.50312259               85.33779144                1.00000000                0.39063989                0.36881178               -1.31452464               -0.12467903                0.05360471               -0.12255429
              17.87735872                7.90332631               89.16489492                1.00000000                0.04031878                0.04935092               -0.21083028                0.00964520               -0.12629802                0.61831648
              18.87776191                7.36911430               88.75884617                1.00000000                0.01374759               -0.01324562                0.01745084                0.01519961               -0.18893629                0.09623978
              19.87763367                6.83457920               88.35190682                1.00000000               -0.03577728               -0.06285575                0.21758810               -0.01507767               -0.19011746               -0.15681945
              20.87704636                6.29860260               87.94602644                1.00000000               -0.03577563               -0.15938644                0.40288489               -0.03966635               -0.06506057               -0.19282546
              21.87691816                5.76049631               87.54169224                0.96603989                0.01921176               -0.23392427                0.54132393               -0.04879497                0.18174990               -0.10248876
              22.87743060                5.22020949               87.14150431                0.93258889                0.13323298               -0.32142729                0.66970017               -0.05306049                0.61626697               -0.12247191
              23.87958282                4.67745612               86.74714172                0.92755518                0.32063722               -0.37779858                0.64561244               -0.04996227                1.05248525               -0.15407453
              24.88384334                4.13299924               86.35900358                0.96512605                0.42799909               -0.30315247                0.32467746               -0.11558789                1.17534525               -0.20847218
              25.88814280                3.58882439               85.97587865                1.00000000                0.38342312                0.02479201               -0.26813775               -0.23345501                0.78731947               -0.01281901
              26.89151180                3.04725216               85.59314483                1.00000000                0.34844838                0.24616317               -0.89613359               -0.09394978                0.46039813               -0.09238904
              27.89511177                2.50681071               85.20678156                1.00000000                0.35999639                0.34645923               -1.19830292               -0.08444989                0.21379189               -0.11083741
              18.41195811                8.90376513               89.02840177                1.00000000                0.05604569                0.04720202               -0.23062758               -0.00726449               -0.01913554                0.76842954
              19.41251857                8.36893193               88.61966806                1.00000000                0.04453973               -0.01513372                0.00365137               -0.01703780                0.04532503                0.10058958
              20.41284890                7.83388828               88.21262842                0.00010000                0.09341686               -0.05966492                0.20479474               -0.14624187                0.41128738               -0.46245791
              21.41438690                7.29677059               87.81156949                0.00010000                0.16922965               -0.58421188                0.31500630               -0.81113195                0.65275592               -1.28746384
              22.41623350                6.75800301               87.41063953                0.00010000                0.22909315               -0.77648186                0.41345730               -1.39342879                0.70273667               -2.18076976
              23.41896877                6.21688592               87.01238831                0.00010000                0.33262009               -0.93252707                0.47998862               -1.93273747                0.90741091               -3.36167880
              24.42288590                5.67373611               86.61864696                0.00010000                0.40462725               -1.03406662                0.42711849               -2.28122854                1.06992201               -4.80411304
              25.42706131                5.13033499               86.22988026                0.00010000                0.33060007               -1.02879114                0.20657106               -2.28438601                1.02877312               -6.39176645
              26.42949790                4.58888507               85.84627814                0.00010000                0.21792924               -0.91402646               -0.26143855               -1.84343408                0.71441243               -8.18840867
              27.43141990                4.04921280               85.46261271                0.00010000                0.24438131               -0.77379260               -0.66410718               -1.06213199                0.43640545               -9.80756884
              28.43438553                3.51005177               85.07623911                0.37390367                0.29656304               -0.36119531               -1.05554793               -0.14943668                0.23698385              -10.87583663
              18.94687982                9.90427035               88.89159944                1.00000000                0.04181798                0.05988819               -0.23162779               -0.02206249                0.06176495                0.70967334
              19.94729800                9.36881163               88.47984010                0.71934596               -0.00048182               -0.00942367                0.00668234               -0.03642323                0.10503145               -0.05455871
              20.94687018                8.83338591               88.06921970                0.00010000               -0.52944986               -0.09269242                0.22591460               -0.61706207               -0.10328441               -0.86013080
              21.93670900                8.28691837               87.65296509                0.00010000               -0.89679661               -0.70487647                0.50147042               -1.87475236               -0.54182989               -2.35354093
              22.92893425                7.74496668               87.23611542                0.00010000               -0.68331281               -0.98674224                0.47313439               -2.66348932               -1.07796929               -4.09892239
              23.92304274                7.20155895               86.81588096                0.00010000               -0.42125352               -1.13011438                0.09697242               -3.63257796               -1.81094927               -6.34973025
              24.92050918                6.65677479               86.39316753                0.00010000               -0.00180434               -1.20796464               -0.61067090               -4.26841928               -2.36334855               -9.12967672
              25.92300666                6.11242342               85.97077161                0.00010000                0.59435646               -1.24912215               -1.60064882               -4.28318791               -2.48431984              -12.33550619
              26.93239631                5.57054386               85.55184760                0.00010000                1.30479042               -1.26528770               -2.77234855               -3.53836564               -2.11975750              -15.84350067
              27.94910246                5.03177631               85.13823080                0.00010000                1.90243928               -1.13384319               -3.84363726               -2.05171263               -1.38419361              -18.96370749
              28.97044509                4.49958680               84.73020976                0.37414680                2.13426278               -0.50838295               -4.41235933               -0.49386367               -0.35085475              -21.38986529
              19.48243430               10.90496289               88.75379852                1.00000000                0.02402407                0.07848492               -0.21966020               -0.01143447                0.00406905                0.62276452
              20.48267454               10.36874346               88.33749648                0.67352214               -0.00166904               -0.02259020                0.04109973               -0.04577674                0.03896238               -0.20524584
              21.48240092                9.83203443               87.92202328                0.00010000               -0.86817295               -0.15568737                0.25812665               -0.69912144               -0.49475496               -1.08061768
              22.46531108                9.28267306               87.49478945                0.00010000               -1.70388984               -0.26639259                0.59822450               -1.70530229               -1.49046109               -2.21372232
              23.44832312                8.73826816               87.06318167                0.00010000               -1.54009951               -0.38185191                0.43539058               -2.24351881               -2.56116490               -3.74297764
              24.43450909                8.19428363               86.62369234                0.00010000               -1.08350397               -0.36673549               -0.30279491               -2.99534821               -3.88039094               -5.72864430
              25.42665304                7.64957682               86.17691363                0.00010000               -0.34403060               -0.28141216               -1.57081367               -3.52209154               -4.89576275               -8.16753758
              26.42762848                7.10535255               85.72685106                0.00010000                0.63623237               -0.17943139               -3.21930754               -3.56907784               -5.16311640              -10.98384443
              27.43937769                6.56357932               85.27966157                0.00010000                1.68571103               -0.06786618               -5.01140914               -3.07953877               -4.44338258              -13.96977916
              28.46134270                6.02653594               84.84188428                0.00010000                2.47547923                0.16275304               -6.56287584               -1.94054641               -2.62937931              -16.70079355
              29.48888728                5.49988411               84.42032207                0.37469659                2.75445746                0.54372612               -7.38175974               -0.85876448               -0.96908442              -18.57019968
              20.01908999               11.90584005               88.61508650                1.00000000                0.02209303                0.08783011               -0.20494382               -0.01185594               -0.00504595                0.56329722
              21.01931092               11.36835982               88.19469368                0.70079927               -0.00659173               -0.04274363                0.05714741               -0.04454400               -0.01642032               -0.22702917
              22.01895815               10.83027216               87.77417316                0.00010000               -1.14708463               -0.17346991                0.30801761               -0.61229610               -0.81148470               -1.05150557
              22.99636923               10.28159051               87.33764847                0.00010000               -2.32524294                0.00337980                0.66855622               -1.43427613               -2.20530712               -2.00940864
              23.97245330                9.73732964               86.89371879                0.00010000               -2.22710521                0.12988162                0.38405941               -1.79805847               -3.68026354               -3.28365220
              24.95182712                9.19422424               86.43810581                0.00010000               -1.67274313                0.30347349               -0.64952879               -2.37611036               -5.42838540               -4.96707181
              25.93899843                8.65114655               85.97154596                0.00010000               -0.71022632                0.54045690               -2.36553121               -2.82141166               -6.77532034               -7.04242743
              26.93762260                8.10883479               85.49925062                0.00010000                0.53118541                0.81443732               -4.55731071               -2.90484684               -7.15257778               -9.40952051
              27.94962214                7.56918654               85.02976963                0.00010000                1.81820731                1.11108737               -6.88523629               -2.51124757               -6.16864668              -11.87162523
              28.97398674                7.03503137               84.57359570                0.00010000                2.84756555                1.43088238               -8.88101252               -1.55131129               -3.67735775              -14.07152327
              30.00657345                6.51046132               84.14161306                0.37522281                3.25867098                1.60581513               -9.95266958               -0.64439523               -1.49529645              -15.51906970
              20.55715763               12.90671949               88.47605541                1.00000000                0.01939192                0.08576695               -0.19897059               -0.00791377               -0.00714028                0.53627372
              21.55735155               12.36788859               88.05176676                0.73918280               -0.01166623               -0.04541953                0.06789768               -0.03462700               -0.02216214               -0.21809835
              22.55692431               11.82856504               87.62724595                0.00010000               -1.38917350               -0.16274427                0.33226721               -0.39221429               -1.01388257               -0.95597241
              23.52956808               11.28274065               87.18293131                0.00010000               -2.85980395                0.21648735                0.73645646               -0.97735130               -2.70394852               -1.72405811
              24.49972823               10.74086579               86.72926792                0.00010000               -2.81990508                0.54326859                0.36176057               -1.28844345               -4.45947074               -2.73669445
              25.47316998               10.20035310               86.26088964                0.00010000               -2.20569826                0.87075515               -0.90022849               -1.77076669               -6.53770654               -4.08460882
              26.45561426                9.66038595               85.77868837                0.00010000               -1.08392120                1.23926371               -2.96753792               -2.14903984               -8.14299656               -5.74647865
              27.45149155                9.12164129               85.28899638                0.00010000                0.36709479                1.65444966               -5.59022129               -2.22413690               -8.60591331               -7.62400121
              28.46295616                8.58580107               84.80242880                0.00010000                1.87750677                2.09048781               -8.36387136               -1.89101599               -7.44894607               -9.53241676
              29.48904169                8.05515359               84.33230524                0.00010000                3.10916579                2.47800874              -10.74080425               -1.11972313               -4.46057885              -11.18709546
              30.52513947                7.53200042               83.89263753                0.37531837                3.60977837                2.66090344              -12.06088193               -0.45375654               -1.90410445              -12.21600490
              21.09659352               13.90755538               88.33686605                1.00000000                0.01793124                0.08055324               -0.19925283               -0.00454463               -0.00664719                0.51480374
              22.09677284               13.36745143               87.90890224                0.77406475               -0.01658612               -0.03996536                0.07505286               -0.02205108               -0.01526589               -0.19483928
              23.09626180               12.82701727               87.48081178                0.00010000               -1.61256971               -0.14666372                0.34621953               -0.08035292               -1.07315256               -0.88811162
              24.06452144               12.28592026               87.03150481                0.00010000               -3.35949131                0.42936812                0.81642961               -0.38830853               -2.92361806               -1.38634642
              25.02907198               11.74819501               86.57107296                0.00010000               -3.38149082                0.91442010                0.39678299               -0.73229987               -4.92058617               -2.11874931
              25.99689163               11.21163934               86.09335279                0.00010000               -2.71712654                1.34254043               -1.02499996               -1.20505608               -7.28236780               -3.10878560
              26.97472945               10.67593182               85.59943224                0.00010000               -1.45834405                1.79072889               -3.35326890               -1.53260592               -9.11637561               -4.32923079
              27.96772475               10.14192378               85.09663967                0.00010000                0.17800421                2.29745263               -6.30547817               -1.58725415               -9.67106712               -5.69251494
              28.97828953                9.61099629               84.59732403                0.00010000                1.88340925                2.82263028               -9.42598963               -1.31749962               -8.39606522               -7.04229775
              30.00539293                9.08459155               84.11706171                0.00010000                3.27575654                3.27984642              -12.10659817               -0.75067028               -5.03632641               -8.14230550
              31.04380466                8.56367939               83.67221691                0.37578179                3.84117299                3.55506146              -13.62736677               -0.29581976               -2.20530073               -8.71853910
              21.63727465               14.90833056               88.19754319                1.00000000                0.01739951                0.07442747               -0.20343625               -0.00118291                0.00095766                0.48323349
              22.63744864               14.36708928               87.76618893                0.82143889               -0.02131139               -0.03320698                0.08062567               -0.01164199               -0.00655278               -0.17184063
              23.63684842               13.82563176               87.33470810                0.00010000               -1.84122346               -0.13082306                0.35861104                0.33010829               -0.95756589               -0.73827446
              24.60062417               13.29132802               86.88411936                0.00010000               -3.87426356                0.71147421                0.92786446                0.31904149               -2.82350324               -0.99843906
              25.55936315               12.75915419               86.42007226                0.00010000               -3.96460623                1.29572756                0.51813711               -0.24518623               -5.09104783               -1.44303192
              26.52133205               12.22720391               85.93636434                0.00010000               -3.23427212                1.70327197               -0.99316754               -0.73756710               -7.73616097               -2.07787371
              27.49467770               11.69620053               85.43427140                0.00010000               -1.83250238                2.17662169               -3.50154585               -1.00605508               -9.81461566               -2.85565483
              28.48468200               11.16759035               84.92201018                0.00010000               -0.03696514                2.73223590               -6.69618651               -1.03223765              -10.49575459               -3.71534853
              29.49393840               10.64225367               84.41342904                0.00010000                1.83315930                3.31155129              -10.07791713               -0.83488978               -9.15588458               -4.54074844
              30.52134519               10.12075051               83.92617226                0.00010000                3.35544954                3.81957662              -12.97875578               -0.45575681               -5.50015844               -5.12852925
              31.56104739                9.60310165               83.47864192                0.37631687                3.97022065                4.17014776              -14.62025194               -0.17256138               -2.45989586               -5.20589620
              22.17905242               15.90904393               88.05789180                1.00000000                0.01863725                0.07059436               -0.21114865                0.00104616                0.03059118                0.37801421
              23.17923879               15.36678729               87.62356511                0.69836492               -0.02135948               -0.03006631                0.08785022               -0.00405092                0.10616217               -0.16259017
              24.17862523               14.82440081               87.19075493                0.00010000               -2.09294778               -0.11900087                0.35640647                0.89537395               -0.62971268               -0.55645189
              25.13737984               14.30014975               86.74148784                0.00010000               -4.51664388                1.27307125                1.09907560                0.76116032               -2.46087940               -0.51835439
              26.08829235               13.77410956               86.27707353                0.00010000               -4.61429461                1.56316111                0.76719686                0.03625358               -4.99999555               -0.73985804
              27.04509395               13.24570478               85.79034089                0.00010000               -3.70352231                1.90997699               -0.77279449               -0.39125314               -7.98770399               -1.04110522
              28.01422191               12.71946425               85.28308213                0.00010000               -2.20335474                2.38796202               -3.39545683               -0.53031777              -10.36575799               -1.40446158
              29.00102685               12.19656850               84.76419663                0.00010000               -0.28951713                2.97361293               -6.76862838               -0.53412595              -11.24539677               -1.80340369
              30.00843157               11.67722732               84.24872982                0.00010000                1.72014846                3.58631345              -10.35617813               -0.42635900               -9.92035251               -2.17744087
              31.03542982               11.16098308               83.75634347                0.00010000                3.36098020                4.12175294              -13.42576367               -0.22818996               -5.99620090               -2.39971752
              32.07565117               10.64708235               83.30845896                0.37640910                4.02213494                4.48892946              -15.09609244               -0.07507808               -2.74867181               -2.11841517
              22.72180885               16.90974245               87.91663066                1.00000000                0.02018907                0.06985113               -0.22076864               -0.04980583                0.19515544                0.28983741
              23.72201075               16.36648795               87.48085068                0.79485165               -0.02077058               -0.02993372                0.08866302               -0.04733998                0.33318001               -0.15769720
              24.72139344               15.82325174               87.04781854                0.36249531               -2.79360590               -0.11490678                0.34880041                1.79189544                0.00153754               -0.48247374
              25.66613863               15.31678944               86.60517385                0.36132838               -5.34301317                1.66396957                1.40100214                1.23416255               -1.69466620               -0.32986035
              26.61453318               14.79041742               86.14244547                0.36088067               -4.89931678                1.63078550                1.18983620                0.05478307               -4.73286900               -0.46342284
              27.56815229               14.26540345               85.65516503                0.36135493               -4.06627745                1.96986684               -0.33118760               -0.01704764               -8.14101009               -0.56673853
              28.53320763               13.74395977               85.14507168                0.36251334               -2.59579376                2.44955187               -3.02969187               -0.01847009              -10.91101420               -0.65320630
              29.51623642               13.22706261               84.62156595                0.36434320               -0.61054940                3.04941039               -6.55006896                0.02196496              -12.08412754               -0.71967049
              30.52099664               12.71397994               84.10048181                0.36768688                1.53449708                3.67526237              -10.32878887                0.06265608              -10.91727931               -0.74564791
              31.54692636               12.20318557               83.60253086                0.37240846                3.31753278                4.22024931              -13.60035057                0.09466841               -6.85517148               -0.68210573
              32.58734730               11.69288024               83.15321235                0.68837609                4.04209400                4.57978884              -15.33185177                0.13907897               -3.44742637               -0.14865329
              17.74309431                7.04734885               90.30322226                1.00000000               -0.00133616                0.03708002               -0.11271550                0.02731026               -0.50863591                0.45245529
              18.74308095                6.50980589               89.89917915                1.00000000               -0.03808331               -0.01274010                0.06099492                0.02946498               -0.70478982                0.06538128
              19.74233265                5.97189065               89.49147904                1.00000000               -0.10353245               -0.05340371                0.23966857                0.02112927               -0.75543912               -0.05430738
              20.74101030                5.43319455               89.08620903                0.69322165               -0.17654777               -0.10868990                0.41401191               -0.03930723               -0.70680112               -0.29090182
              21.73880169                4.89283488               88.67898627                0.65796488               -0.20635807               -0.15051521                0.54868800               -0.04650545               -0.50463582               -0.17147873
              22.73688314                4.35099163               88.27751340                0.62785056               -0.13434687               -0.19651426                0.63374662               -0.06041032                0.05906491               -0.17232017
              23.73611475                3.80748475               87.88173684                0.61193483                0.02258193               -0.20661068                0.57723623               -0.12016520                0.54461630               -0.22247407
              24.73733478                3.26278813               87.49098319                0.64693041                0.15338582               -0.13484251                0.25331713               -0.25501014                0.71165516               -0.22808178
              25.73918247                2.71777213               87.10305433                0.91080493                0.17142644                0.04026182               -0.17982512               -0.24118675                0.44347038               -0.03767301
              26.74076331                2.17435956               86.71459412                1.00000000                0.23489097                0.20348979               -0.83711698               -0.09418331                0.25637071                0.02176378
              27.74388029                1.63165301               86.32485087                1.00000000                0.31169813                0.33866041               -1.17851330               -0.10182002                0.10319715               -0.17649373
              18.28091037                8.04771965               90.16313479                1.00000000                0.01943280                0.03935043               -0.13678934                0.00109702               -0.13709570                0.60254492
              19.28110470                7.50967849               89.75909637                1.00000000               -0.00303796               -0.01388002                0.03557046                0.00371792               -0.21365286                0.09653057
              20.28084961                6.97135661               89.35395371                1.00000000               -0.04797923               -0.05641014                0.19426314               -0.01475903               -0.23823297               -0.14950880
              21.28014511                6.43210765               88.94966549                1.00000000               -0.07057583               -0.11811287                0.33619455               -0.03966354               -0.15309692               -0.20559121
              22.27943809                5.89132973               88.54643885                1.00000000               -0.05955047               -0.15690851                0.43338452               -0.04773565                0.03764476               -0.09482913
              23.27895410                5.34902649               88.14710122                1.00000000               -0.02116212               -0.19145937                0.48541949               -0.05239282                0.35139459               -0.08823742
              24.27901485                4.80541864               87.75202046                1.00000000                0.03434425               -0.18407327                0.41286411               -0.06356011                0.61123526               -0.09565458
              25.27964099                4.26143971               87.36116334                1.00000000                0.09850191               -0.10928325                0.17984195               -0.10096765                0.73590200               -0.07484545
              26.28098489                3.71817475               86.97342544                1.00000000                0.16200228                0.04290584               -0.20709358               -0.07838403                0.67530155               -0.02753300
              27.28288103                3.17639445               86.58555301                1.00000000                0.22918734                0.18517508               -0.66857186               -0.00399126                0.42184806               -0.03262509
              28.28556864                2.63503961               86.19520774                1.00000000                0.26876023                0.31739130               -1.05348329               -0.02550348                0.21549982               -0.19703923
              18.81919856                9.04813585               90.02639969                1.00000000                0.03197760                0.05022246               -0.16519303               -0.00999883               -0.03788202                0.76265229
              19.81951834                8.50952829               89.61974092                1.00000000                0.02048710               -0.01199994                0.01398909               -0.01485263                0.00723093                0.11084134
              20.81960831                7.97076245               89.21449433                0.00010000                0.03627863               -0.05813975                0.17139313               -0.08077081                0.30640081               -0.43142499
              21.82024391                7.43083229               88.81432633                0.00010000                0.06599149               -0.47996414                0.25708880               -0.73033575                0.46836742               -1.09623389
              22.82092814                6.88969671               88.41419886                0.00010000                0.07512293               -0.63119982                0.32855407               -1.39748099                0.46816151               -1.99192848
              23.82174637                6.34716244               88.01638769                0.00010000                0.07510987               -0.77989034                0.35474214               -2.01298439                0.57766867               -3.37239714
              24.82243033                5.80380329               87.62199559                0.00010000                0.04064757               -0.93179110                0.29625408               -2.39407329                0.69071432               -5.19346711
              25.82255932                5.26060247               87.23142054                0.00010000                0.01148535               -1.07964830                0.13125524               -2.36680185                0.77608129               -7.34583136
              26.82266004                4.71863024               86.84394543                0.00010000                0.06296462               -1.21025996               -0.20320026               -1.84817114                0.80211069               -9.63604717
              27.82381862                4.17806306               86.45682387                0.00010000                0.17099307               -1.28310641               -0.53670979               -0.85260399                0.57504579              -11.65519150
              28.82607990                3.63800083               86.06615832                0.37132131                0.22612868               -1.18362133               -0.92634045                0.54601826                0.33658615              -13.05147929
              19.35792552               10.04872410               89.88953370                1.00000000                0.02555305                0.06878641               -0.17738311               -0.01607863                0.03930680                0.72256747
              20.35818105                9.50943849               89.47988571                0.75437493                0.00023372               -0.00944884                0.00514265               -0.02187580                0.06911269               -0.02139008
              21.35793019                8.97019382               89.07118306                0.00010000               -0.57884590               -0.09573257                0.16791246               -0.45358988               -0.04482237               -0.81247196
              22.34660413                8.42250837               88.65890867                0.00010000               -1.13859376               -0.59245675                0.74337563               -1.64803995               -0.51590635               -1.94114774
              23.33515832                7.87870574               88.24215799                0.00010000               -1.10081442               -0.83277267                0.81480842               -2.64613510               -1.48215837               -3.72787303
              24.32458784                7.33342868               87.81789639                0.00010000               -0.87324779               -1.02447116                0.38330600               -3.81149216               -2.64565549               -6.41309741
              25.31769336                6.78678282               87.38730453                0.00010000               -0.35549262               -1.24915150               -0.51771134               -4.57097646               -3.54056535               -9.99351403
              26.31747799                6.23984674               86.95372009                0.00010000                0.44337558               -1.51172881               -1.81303992               -4.61112683               -3.86684432              -14.25433928
              27.32656088                5.69396955               86.52163614                0.00010000                1.44901861               -1.78254480               -3.33768873               -3.77069127               -3.45102409              -18.75696344
              28.34645836                5.15073233               86.09582463                0.00010000                2.50262866               -1.95776901               -4.77529161               -2.09497427               -2.19377993              -22.75644311
              29.37661345                4.61136719               85.68023481                0.37142247                3.01550843               -1.65215764               -5.73616061               -0.14091123               -0.63733338              -25.65023270
              19.89744820               11.04951158               89.75180158                1.00000000                0.01629008                0.08391314               -0.17648053               -0.00819415                0.00077291                0.64553429
              20.89761110               10.50933931               89.33782536                0.71853624                0.00092174               -0.02028317                0.02703823               -0.02885717                0.01553300               -0.16453585
              21.89746663                9.96884780               88.92431351                0.00010000               -0.94199512               -0.14681972                0.20110045               -0.51304916               -0.36465589               -1.01501332
              22.87877120                9.41898316               88.50249347                0.00010000               -2.01907585               -0.22065683                1.02922698               -1.43718896               -1.39517872               -1.87929529
              23.85708512                8.87304126               88.07002472                0.00010000               -2.06658778               -0.32432519                1.05541166               -2.14465723               -3.11204131               -3.46683883
              24.83743944                8.32667302               87.62274204                0.00010000               -1.62461851               -0.35061530                0.22702624               -3.05849165               -5.11608690               -5.85584060
              25.82459275                7.77882026               87.16181439                0.00010000               -0.71446905               -0.35726428               -1.37972079               -3.72223083               -6.69925764               -9.00752317
              26.82315006                7.23036789               86.69286759                0.00010000                0.58839415               -0.36617314               -3.57979302               -3.87039546               -7.28658162              -12.73156476
              27.83636063                6.68297935               86.22478858                0.00010000                2.06857147               -0.35717764               -6.06016179               -3.39756890               -6.46177491              -16.65330074
              28.86452149                6.13890768               85.76843956                0.00010000                3.28156639               -0.24801177               -8.33570494               -2.14906418               -3.93830025              -20.22053303
              29.90199196                5.60495768               85.33616545                0.37162326                3.74704669                0.17606289               -9.76253707               -0.95915323               -1.55928804              -22.61167427
              20.43810617               12.05040236               89.61319772                1.00000000                0.01615183                0.08637561               -0.17034895               -0.00783805               -0.00706467                0.58328015
              21.43826769               11.50903283               89.19517140                0.74524908               -0.00404020               -0.03259131                0.04053772               -0.02861039               -0.02346040               -0.19487523
              22.43802537               10.96725743               88.77694704                0.00010000               -1.23004010               -0.15174404                0.24790865               -0.42790410               -0.62840893               -0.98810471
              23.41366689               10.41809523               88.34662095                0.00010000               -2.67250309                0.00100330                1.23351192               -1.15070879               -2.07433014               -1.73441981
              24.38457531                9.87221923               87.90083898                0.00010000               -2.80139369                0.10735878                1.19145143               -1.65749579               -4.34730435               -3.07733224
              25.35763902                9.32641638               87.43431194                0.00010000               -2.25107150                0.26087337                0.03342182               -2.37516561               -6.94939198               -5.11234504
              26.33955388                8.77963754               86.94857812                0.00010000               -1.08640137                0.47861874               -2.13918607               -2.94830321               -9.00285370               -7.78411474
              27.33591099                8.23252328               86.45116492                0.00010000                0.52579158                0.74865718               -5.06529820               -3.14548712               -9.75548345              -10.91903373
              28.35006971                7.68682599               85.95442296                0.00010000                2.27938791                1.07231036               -8.31907150               -2.81889484               -8.62233325              -14.21331849
              29.38149875                7.14577209               85.47422096                0.00010000                3.76303330                1.47085959              -11.28857943               -1.81248215               -5.26323889              -17.18980594
              30.42533038                6.61488844               85.02821357                0.37183388                4.38316285                1.77508472              -13.18297444               -0.77491810               -2.23204276              -19.21914198
              20.98003050               13.05123910               89.47420630                1.00000000                0.01533267                0.07960790               -0.16887663               -0.00499446               -0.00836646                0.54831593
              21.98018383               12.50868749               89.05235105                0.77877983               -0.00921740               -0.03273482                0.05079798               -0.02162431               -0.02437272               -0.18979082
              22.97984615               11.96581292               88.63026599                0.00010000               -1.46943050               -0.13574018                0.27240252               -0.24361756               -0.78663136               -0.90948290
              23.95079522               11.41900322               88.19300294                0.00010000               -3.21160486                0.17318785                1.39986176               -0.73694743               -2.52597473               -1.51396138
              24.91561405               10.87518844               87.73674443                0.00010000               -3.41386949                0.46051874                1.30427142               -1.15088047               -5.19697667               -2.59876218
              25.88251783               10.33189049               87.25503465                0.00010000               -2.80471359                0.79152878               -0.11057268               -1.73596198               -8.24575413               -4.23733078
              26.85951978                9.78839263               86.74974834                0.00010000               -1.47329824                1.20943094               -2.72235804               -2.21583264              -10.64904998               -6.37572151
              27.85305186                9.24534103               86.23002248                0.00010000                0.36070691                1.72176752               -6.21724625               -2.38999760              -11.52686116               -8.86583929
              28.86673392                8.70442556               85.71100981                0.00010000                2.35787685                2.30733929              -10.09026097               -2.12480594              -10.18947222              -11.45234230
              29.90020940                8.16832487               85.21223435                0.00010000                4.07634847                2.88853332              -13.63764501               -1.32092963               -6.21985661              -13.76323577
              30.94826089                7.64045938               84.75536332                0.37210192                4.80514915                3.26832637              -15.96766580               -0.56693975               -2.72313268              -15.32380380
              21.52310950               14.05199452               89.33500507                1.00000000                0.01518859                0.07178121               -0.17140352               -0.00287521               -0.00800731                0.52049469
              22.52326138               13.50837813               88.90955581                0.80927523               -0.01361064               -0.02818789                0.05746330               -0.01355765               -0.01817917               -0.16993374
              23.52283729               12.96454262               88.48396364                0.00010000               -1.68544812               -0.11970259                0.28675071                0.01020548               -0.79975566               -0.84720997
              24.48955242               12.42155899               88.04272389                0.00010000               -3.70834275                0.35092306                1.55833139               -0.23541639               -2.67655029               -1.24462611
              25.44867043               11.88142961               87.57938922                0.00010000               -3.99184195                0.78407159                1.44966216               -0.63231278               -5.67880609               -2.04945042
              26.40971558               11.34224695               87.08666916                0.00010000               -3.34418752                1.23976928               -0.14065251               -1.15540664               -9.09931467               -3.26259507
              27.38178668               10.80382615               86.56678242                0.00010000               -1.88187360                1.79719006               -3.07389198               -1.54502043              -11.80353618               -4.83238638
              28.37207811               10.26695863               86.03022111                0.00010000                0.14015375                2.48428725               -6.99786064               -1.67170510              -12.81099516               -6.63991855
              29.38458976                9.73297278               85.49442978                0.00010000                2.34841116                3.24897935              -11.34802751               -1.45469964              -11.33940020               -8.48265193
              30.41904633                9.20354276               84.98187380                0.00010000                4.25664062                3.98410345              -15.34758861               -0.87318569               -6.91844391              -10.05624753
              31.46972257                8.68025497               84.51723374                0.37262096                5.06762334                4.53041989              -18.03003225               -0.37367240               -3.08535196              -11.00830169
              22.06720576               15.05267472               89.19563450                1.00000000                0.01588032                0.06514985               -0.17703942               -0.00098029               -0.00083746                0.48364227
              23.06736457               14.50812373               88.76689068                0.85238056               -0.01681791               -0.02332870                0.06127000               -0.00720989               -0.01094311               -0.14872853
              24.06686941               13.96341886               88.33798000                0.00010000               -1.90823322               -0.10584972                0.29679724                0.34652454               -0.62355672               -0.70491182
              25.02919990               13.42602168               87.89678794                0.00010000               -4.22947869                0.59893439                1.74413678                0.35445714               -2.46817852               -0.91846272
              25.98227983               12.89086987               87.43011850                0.00010000               -4.60933792                1.11939562                1.68467423               -0.19652175               -5.81448680               -1.43115773
              26.93701314               12.35668587               86.93052387                0.00010000               -3.91860672                1.58257417                0.00668297               -0.68421418               -9.59937937               -2.21838714
              27.90390770               11.82433643               86.40050365                0.00010000               -2.32710051                2.21230094               -3.14217569               -0.97612613              -12.62698240               -3.21307296
              28.89047113               11.29502678               85.85175060                0.00010000               -0.14259496                3.00648308               -7.37582582               -1.04891237              -13.81117614               -4.34676390
              29.90105580               10.76940514               85.30368573                0.00010000                2.24961793                3.88568562              -12.07885947               -0.89270115              -12.27364717               -5.47399057
              30.93546349               10.24800694               84.78149463                0.00010000                4.31536076                4.72765506              -16.40407531               -0.51469714               -7.49127010               -6.33069318
              31.98736301                9.73106777               84.31254540                0.37291849                5.18995207                5.41268940              -19.31398579               -0.22332785               -3.39974680               -6.55406872
              22.61219187               16.05329751               89.05590148                1.00000000                0.01811706                0.06199331               -0.18599798                0.00023534                0.03102699                0.37435307
              23.61237304               15.50791156               88.62431825                0.71748245               -0.01610230               -0.02098124                0.06416766               -0.00246596                0.09345558               -0.14370435
              24.61186982               14.96242563               88.19399981                0.00010000               -2.15912395               -0.09532388                0.29368342                0.82180557               -0.20205169               -0.53458541
              25.56919056               14.43353767               87.75629215                0.00010000               -4.88970104                1.09397839                2.00972559                0.71461087               -1.91862314               -0.46992123
              26.51407580               13.90381752               87.29031236                0.00010000               -5.33129129                1.34520525                2.09060637                0.04488221               -5.60737518               -0.76914660
              27.46256474               13.37389844               86.78748466                0.00010000               -4.50762752                1.77259342                0.40163044               -0.34748166               -9.85544979               -1.13902511
              28.42392325               12.84807217               86.25108354                0.00010000               -2.82667921                2.43449944               -2.87719803               -0.49162545              -13.29512754               -1.59561632
              29.40603115               12.32708829               85.69372505                0.00010000               -0.50838402                3.28912408               -7.33279802               -0.52205641              -14.76014101               -2.11493630
              30.41375557               11.81068649               85.13643726                0.00010000                2.05293043                4.23341253              -12.30471400               -0.44278060              -13.26070307               -2.62233889
              31.44708976               11.29809586               84.60713161                0.00010000                4.26893838                5.13228193              -16.86868146               -0.25186497               -8.13582307               -2.95010065
              32.49913434               10.78850876               84.13732617                0.37339893                5.20445798                5.86855596              -19.86352253               -0.11312701               -3.77596487               -2.61276548
              23.15798238               17.05391459               88.91453571                1.00000000                0.02047521                0.06170719               -0.19741853               -0.04199681                0.19330408                0.28433668
              24.15818713               16.50770411               88.48158863                0.80263302               -0.01514906               -0.02074523                0.06042637               -0.03870058                0.30963221               -0.14315867
              25.15767940               15.96151239               88.05096487                0.36213242               -2.80434528               -0.09132400                0.28418200                1.59081488                0.60915618               -0.46572394
              26.10210023               15.44790125               87.62377491                0.36113730               -5.74313433                1.43635763                2.49276714                1.10404595               -0.71398414               -0.45664733
              27.04281671               14.91777397               87.16100648                0.36099510               -5.81456861                1.39564540                2.76728485                0.08591571               -5.14282330               -0.62446360
              27.98580886               14.39213774               86.65794420                0.36120270               -5.09656898                1.82393073                1.12468892                0.08703438              -10.01624004               -0.73500917
              28.94088533               13.87302642               86.11790797                0.36185375               -3.41965844                2.49542462               -2.23938540                0.12978402              -14.01954868               -0.82136134
              29.91741569               13.36080926               85.55430344                0.36384698               -0.98463585                3.37209710               -6.87566899                0.19080225              -15.90184311               -0.88777399
              30.92119262               12.85407339               84.98926476                0.36620852                1.75941194                4.33869014              -12.08677651                0.23587032              -14.63477980               -0.90604974
              31.95260393               12.35065258               84.45212319                0.37019230                4.15410271                5.25567190              -16.90747313                0.26969158               -9.33302487               -0.80892915
              33.00427467               11.84843889               83.98014551                0.68673019                5.16707453                5.99301341              -19.99362207                0.29266473               -4.76060616               -0.05577255
              18.14125469                7.19200215               91.30250652                1.00000000               -0.01397942                0.01976161               -0.03330073                0.01068316               -0.48775591                0.43425221
              19.14111489                6.65067003               90.89991392                1.00000000               -0.03772964               -0.01868932                0.08516988                0.01089158               -0.67545018                0.06482009
              20.14050009                6.10910991               90.49378048                1.00000000               -0.08304041               -0.05361792                0.21965407                0.00784692               -0.72139654               -0.05173059
              21.13945408                5.56722737               90.08995912                0.69210682               -0.15404483               -0.08538903                0.33704826               -0.03363852               -0.68702666               -0.28164470
              22.13741920                5.02434675               89.68391403                0.67525012               -0.20167871               -0.09596097                0.44138549               -0.04513500               -0.51124557               -0.14815633
              23.13542051                4.48069243               89.28297492                0.67183455               -0.16608846               -0.11219729                0.47130404               -0.05793156               -0.03830184               -0.13435234
              24.13409743                3.93627537               88.88629715                0.69107203               -0.08817808               -0.09910892                0.37731795               -0.09601843                0.30277121               -0.14198499
              25.13365695                3.39147611               88.49292169                0.76209939               -0.02095113               -0.04111274                0.15163636               -0.11914581                0.44962152               -0.12134245
              26.13367841                2.84689356               88.10140521                1.00000000                0.04795675                0.04890747               -0.16344722               -0.07537857                0.33464095               -0.06592281
              27.13461608                2.30280703               87.70796217                1.00000000                0.15318194                0.15628868               -0.55820938               -0.04569201                0.17744637               -0.00310589
              28.13674204                1.75887897               87.31422117                1.00000000                0.21259609                0.26835017               -0.91928527               -0.05578061                0.08087048               -0.15404057
              18.68269364                8.19219977               91.16215913                1.00000000               -0.00237103                0.03085519               -0.06026940               -0.00849708               -0.13597052                0.58269543
              19.68266993                7.65048314               90.75955758                1.00000000               -0.01968733               -0.01553081                0.05661054               -0.00861945               -0.21449320                0.09607862
              20.68229989                7.10857373               90.35579209                1.00000000               -0.05853260               -0.05397414                0.17443872               -0.01091212               -0.24544965               -0.14045677
              21.68149928                6.56637348               89.95275033                1.00000000               -0.10322873               -0.08123232                0.28071456               -0.02954728               -0.18026030               -0.20144250
              22.68023532                6.02338714               89.55035993                1.00000000               -0.13111965               -0.09507296                0.35784975               -0.03434291               -0.02371347               -0.08246026
              23.67887689                5.47957046               89.15121270                1.00000000               -0.12449579               -0.10248076                0.37101531               -0.03989807                0.24693791               -0.06514626
              24.67774540                4.93528428               88.75539900                1.00000000               -0.08602439               -0.08463377                0.29736219               -0.04677841                0.48643737               -0.05586805
              25.67715640                4.39106498               88.36260042                1.00000000               -0.02431214               -0.03072442                0.11876321               -0.04627498                0.64834068               -0.04097884
              26.67725916                3.84738264               87.97173678                1.00000000                0.05050313                0.05299351               -0.15861399               -0.01183408                0.60036433               -0.04992017
              27.67816646                3.30436992               87.57977339                1.00000000                0.14265690                0.15151634               -0.50600540                0.01358328                0.37182940               -0.02935417
              28.68011230                2.76156247               87.18571190                1.00000000                0.19458391                0.25580753               -0.83605330                0.00456996                0.20299770               -0.20150658
              19.22451801                9.19261926               91.02509791                1.00000000                0.00505345                0.05600220               -0.09605772               -0.01256973               -0.04529397                0.74955963
              20.22456854                8.65035942               90.61994784                1.00000000               -0.00632489               -0.00918756                0.02803386               -0.01139341               -0.00859303                0.11603100
              21.22439151                8.10803043               90.21605629                0.00010000               -0.02594077               -0.06282219                0.14313836               -0.00529050                0.25671222               -0.41209363
              22.22404973                7.56560272               89.81671127                0.00010000               -0.04280723               -0.32226028                0.22152788               -0.58342358                0.38778879               -0.73829014
              23.22353537                7.02244529               89.41721061                0.00010000               -0.06621589               -0.44018944                0.27960308               -1.34459332                0.36858220               -1.58608968
              24.22272541                6.47864281               89.01948315                0.00010000               -0.09340160               -0.63138980                0.28922886               -2.08781903                0.47819750               -3.20203927
              25.22166733                5.93458270               88.62457204                0.00010000               -0.10461553               -0.90992888                0.23585863               -2.58262110                0.64399139               -5.52993118
              26.22063310                5.39086162               88.23250537                0.00010000               -0.07652711               -1.25876996                0.09225838               -2.62237546                0.79915998               -8.37600429
              27.22013679                4.84795343               87.84221414                0.00010000                0.00374081               -1.64105997               -0.15819943               -2.05060730                0.84730436              -11.41384184
              28.22070791                4.30583736               87.45187852                0.00010000                0.11557717               -1.96690799               -0.45498758               -0.77482892                0.61144192              -14.10003483
              29.22244833                3.76399512               87.05771230                0.36850003                0.17404201               -2.24937272               -0.75967842                1.25406431                0.37244065              -15.94276891
              19.76696193               10.19331981               90.88805178                1.00000000                0.00689622                0.07951516               -0.11920157               -0.00783337                0.02449758                0.72566609
              20.76703089                9.65029939               90.47994296                0.79240521               -0.00055772               -0.00961767                0.00809416               -0.00489013                0.04321581                0.00431096
              21.76695078                9.10731729               90.07257795                0.00010000               -0.58074758               -0.10301217                0.11491953               -0.21614637                0.22736942               -0.76909677
              22.75541594                8.55992828               89.66783261                0.00010000               -1.33237051               -0.41139256                1.10773528               -1.25436785               -0.09738625               -1.20144587
              23.74030336                8.01458336               89.25241158                0.00010000               -1.52164194               -0.60974485                1.32727613               -2.53436266               -1.63668475               -2.92277697
              24.72498310                7.46694266               88.82354708                0.00010000               -1.32145956               -0.89457704                0.83383880               -3.99126870               -3.36288421               -6.10707587
              25.71387417                6.91708571               88.38281331                0.00010000               -0.68224730               -1.32149677               -0.31259777               -5.00890373               -4.74621114              -10.68901024
              26.71133816                6.36588958               87.93451081                0.00010000                0.36985535               -1.87926035               -1.99804925               -5.21173557               -5.39858347              -16.29605669
              27.72127128                5.81456144               87.48509382                0.00010000                1.76450189               -2.51134731               -4.01007682               -4.32121956               -4.98242617              -22.26991832
              28.74662819                5.26503176               87.04272497                0.00010000                3.38033885               -3.10542019               -5.98255844               -2.37472544               -3.23337088              -27.68159424
              29.78887806                4.71657502               86.61548654                0.36869949                4.22498647               -3.21616232               -7.42863101                0.14439577               -1.04158621              -31.59651682
              20.31040219               11.19420956               90.75026891                1.00000000                0.00710728                0.08905547               -0.12980349               -0.00227918               -0.00171746                0.65859174
              21.31047327               10.65016706               90.33803725                0.76379807                0.00187510               -0.01813800                0.01810250               -0.00889409                0.00089529               -0.12488713
              22.31043970               10.10597018               89.92604529                0.00010000               -0.93884817               -0.13798532                0.14937161               -0.24012718                0.08870249               -0.94146920
              23.29169630                9.55737487               89.51537399                0.00010000               -2.23029832               -0.17678163                1.65182241               -1.00725199               -0.71694080               -1.29003913
              24.26583373                9.01025040               89.08428990                0.00010000               -2.56493092               -0.27600369                1.94403734               -1.95553730               -3.31534760               -2.85237966
              25.24039768                8.46075127               88.62823287                0.00010000               -2.16456968               -0.36289646                1.01457404               -3.09902952               -6.23555455               -5.70579103
              26.22254233                7.90815276               88.14931921                0.00010000               -1.07375130               -0.47777010               -1.01479329               -3.96303296               -8.60614292               -9.73471833
              27.21892266                7.35327641               87.65525520                0.00010000                0.60139462               -0.62951767               -3.91236811               -4.25481755               -9.69050340              -14.63034596
              28.23457023                6.79772648               87.15845834                0.00010000                2.61385839               -0.79312484               -7.29308420               -3.83496498               -8.85118414              -19.87141187
              29.27119983                6.24372895               86.67517018                0.00010000                4.38397513               -0.87956447              -10.56141427               -2.48757244               -5.53551496              -24.75325684
              30.32224973                5.69967187               86.22507133                0.36879482                5.10499042               -0.48471999              -12.85924250               -1.15224226               -2.28744570              -28.17975361
              20.85500134               12.19510092               90.61167952                1.00000000                0.00910433                0.08344512               -0.13272161               -0.00149889               -0.00832859                0.59725274
              21.85509239               11.64993663               90.19550444                0.78729950               -0.00304612               -0.02293551                0.02869572               -0.01061028               -0.02544217               -0.15859209
              22.85494042               11.10455758               89.77913134                0.00010000               -1.20508492               -0.13057040                0.19262358               -0.17219475               -0.04945787               -0.91994882
              23.83099069               10.55639264               89.36231870                0.00010000               -2.85620999               -0.05081931                2.03690561               -0.73102269               -1.21941230               -1.26527946
              24.79781622               10.00906328               88.91754782                0.00010000               -3.29452708                0.00449543                2.33209139               -1.43923263               -4.57867294               -2.62226594
              25.76510015                9.45968473               88.43877425                0.00010000               -2.78639239                0.12489994                1.03519586               -2.33398356               -8.31065936               -5.06448515
              26.74208837                8.90753030               87.92876224                0.00010000               -1.42160319                0.32572315               -1.69959172               -3.06412029              -11.32583551               -8.47932910
              27.73666808                8.35329923               87.39794466                0.00010000                0.60155355                0.59959528               -5.55374799               -3.40305822              -12.66464116              -12.61095973
              28.75411944                7.79869894               86.86338820                0.00010000                2.91316368                0.95104584              -10.01707412               -3.17370730              -11.48896608              -17.05718502
              29.79493136                7.24744047               86.34782411                0.00010000                4.99139634                1.42535396              -14.32760327               -2.13635509               -7.17241302              -21.22196116
              30.85394737                6.70688062               85.87795357                0.36922489                5.90160145                1.84161487              -17.44375494               -0.94752767               -3.12358124              -24.30428842
              21.40070081               13.19587846               90.47267788                1.00000000                0.01035954                0.07180795               -0.13613351               -0.00048397               -0.00901300                0.55830399
              22.40080440               12.64970835               90.05278272                0.81640486               -0.00805108               -0.02117499                0.03782052               -0.00806979               -0.02377514               -0.15787210
              23.40053978               12.10335878               89.63269400                0.00010000               -1.41171267               -0.10992581                0.21624143               -0.05958354               -0.11084682               -0.85776943
              24.37257015               11.55635849               89.21092854                0.00010000               -3.33913979                0.04250483                2.33176195               -0.42221498               -1.51743515               -1.17226123
              25.33375699               11.01034031               88.75535335                0.00010000               -3.86595794                0.23843252                2.61940641               -0.96874249               -5.42061323               -2.30085749
              26.29525099               10.46324927               88.25867819                0.00010000               -3.30557797                0.56067469                1.03262250               -1.66305435               -9.73620127               -4.28163167
              27.26764543                9.91466723               87.72424120                0.00010000               -1.77790653                1.04992397               -2.24735393               -2.24812804              -13.20876045               -7.01566331
              28.25969286                9.36526832               87.16465145                0.00010000                0.46547076                1.70490347               -6.84293416               -2.53652150              -14.72900771              -10.30428544
              29.27695484                8.81674740               86.60062358                0.00010000                3.02990939                2.49841962              -12.15596769               -2.36514451              -13.33634136              -13.82860012
              30.32029105                8.27223603               86.05955234                0.00010000                5.37320161                3.33829259              -17.31878408               -1.54772471               -8.30644286              -17.13331861
              31.38441888                7.73650417               85.57328422                0.36972677                6.41278300                3.97253316              -21.16780226               -0.70166791               -3.70471981              -19.62611994
              21.94733189               14.19653708               90.33343798                1.00000000                0.01187915                0.06142656               -0.14139220               -0.00015893               -0.00845375                0.52651187
              22.94745068               13.64951313               89.91005150                0.83833855               -0.01166355               -0.01780387                0.04371103               -0.00490729               -0.01780863               -0.14347342
              23.94709861               13.10235907               89.48654680                0.00010000               -1.59429091               -0.09307099                0.23221314                0.08349224               -0.03558778               -0.80506136
              24.91556486               12.55724274               89.06267144                0.00010000               -3.77740134                0.15160055                2.58619899               -0.09875903               -1.51319482               -1.03324087
              25.87155059               12.01383193               88.60006620                0.00010000               -4.40263594                0.46337973                2.89782146               -0.53820097               -5.85129814               -1.90619826
              26.82751214               11.47089822               88.09053974                0.00010000               -3.82219121                0.93856957                1.11585174               -1.07974118              -10.63686548               -3.38500548
              27.79510676               10.92852878               87.53795440                0.00010000               -2.18273317                1.64853630               -2.55895343               -1.51175131              -14.49206474               -5.39037012
              28.78385748               10.38739730               86.95668246                0.00010000                0.23710394                2.59414067               -7.70723538               -1.71389606              -16.19270286               -7.77673147
              29.79984884                9.84866733               86.37036348                0.00010000                3.01813083                3.70094920              -13.66635835               -1.57122012              -14.66653984              -10.30354373
              30.84422009                9.31420632               85.81010994                0.00010000                5.57644457                4.83214053              -19.48873146               -0.99834913               -9.12037644              -12.60210248
              31.91137773                8.78633128               85.31161626                0.36987300                6.71576405                5.77118368              -23.92180304               -0.46090198               -4.12590003              -14.23199341
              22.49474554               15.19710699               90.19400240                1.00000000                0.01387363                0.05463479               -0.14893599               -0.00009535               -0.00157993                0.48562477
              23.49488427               14.64935228               89.76741433                0.87401925               -0.01327593               -0.01489393                0.04547746               -0.00253718               -0.01282509               -0.12702316
              24.49448002               14.10149736               89.34064405                0.00010000               -1.78810858               -0.08174134                0.23986778                0.27749525                0.24292526               -0.67393691
              25.45912210               13.55939050               88.91900209                0.00010000               -4.25712662                0.32608071                2.85826879                0.26202552               -1.11145535               -0.82245674
              26.40933749               13.01960790               88.45376575                0.00010000               -5.00813936                0.70033590                3.26369008               -0.19840419               -5.87877927               -1.41516214
              27.35895931               12.48202066               87.93649800                0.00010000               -4.42130787                1.23028644                1.39559717               -0.61341572              -11.11923207               -2.38470775
              28.32091133               11.94763795               87.37142789                0.00010000               -2.68414617                2.08094098               -2.53738872               -0.89486613              -15.39180351               -3.64531766
              29.30527639               11.41715113               86.77449366                0.00010000               -0.10949525                3.21598156               -8.07757413               -1.01293655              -17.33603727               -5.13341016
              30.31872142               10.89076639               86.17185185                0.00010000                2.86918630                4.52670929              -14.50668571               -0.91550930              -15.75853092               -6.68164754
              31.36266012               10.36887884               85.59809075                0.00010000                5.61147459                5.85730967              -20.79858759               -0.56170930               -9.79626248               -7.96455906
              32.43095092                9.85192784               85.09236220                0.36998595                6.82907983                7.04478234              -25.61874103               -0.27684896               -4.49870346               -8.51797625
              23.04283942               16.19762978               90.05417185                1.00000000                0.01701533                0.05268554               -0.15960577               -0.00027468                0.03150609                0.37266976
              24.04300957               15.64921525               89.62484847                0.73046052               -0.01145608               -0.01341296                0.04380382               -0.00077879                0.08537038               -0.12798414
              25.04261030               15.10072424               89.19662860                0.00010000               -2.01573726               -0.07451008                0.23494788                0.57296876                0.81395584               -0.51421054
              26.00269483               14.56376435               88.78168235                0.00010000               -4.88289778                0.66502404                3.23574179                0.49048197               -0.26910190               -0.42598615
              26.94495234               14.02783865               88.31888565                0.00010000               -5.77405252                0.84660028                3.85681935               -0.00452302               -5.46002959               -0.83155783
              27.88721377               13.49550395               87.79837350                0.00010000               -5.14366848                1.38817696                1.99904133               -0.28621798              -11.31874043               -1.27890394
              28.84207897               12.97014760               87.22553817                0.00010000               -3.33717317                2.31228638               -2.08199348               -0.41204692              -16.14625483               -1.84465096
              29.82047031               12.45171693               86.61754066                0.00010000               -0.61340113                3.54996055               -7.89568542               -0.46898541              -18.47838057               -2.51691217
              30.82981095               11.93920152               86.00263554                0.00010000                2.56770686                4.97187820              -14.67112869               -0.43022701              -16.97815212               -3.21114956
              31.87182445               11.43135251               85.41896984                0.00010000                5.49659010                6.40724953              -21.29359318               -0.26248011              -10.59996462               -3.71619874
              32.93974275               10.92722693               84.91118851                0.37045911                6.79183010                7.70991268              -26.28457854               -0.15557810               -4.96961551               -3.39044813
              23.59156910               17.19816071               89.91268229                1.00000000                0.02051360                0.05309271               -0.17279050               -0.03470061                0.19180706                0.28097990
              24.59177424               16.64908402               89.48205920                0.80761148               -0.00894059               -0.01312336                0.03579731               -0.03121088                0.29467197               -0.13219583
              25.59139029               16.10000716               89.05350218                0.36137368               -2.49784536               -0.07170832                0.22471851                1.05834752                1.91343632               -0.45050955
              26.54181733               15.57269098               88.65502920                0.36108259               -5.69414313                0.89266258                3.95515207                0.73888795                1.60774694               -0.67543906
              27.47750743               15.03653991               88.19779116                0.36099555               -6.54456642                0.87012562                4.86001173                0.11016975               -4.68345807               -0.88360988
              28.41092600               14.50978420               87.67765881                0.36112372               -6.05250070                1.42802491                3.08044615                0.23841124              -11.45128428               -0.99371673
              29.35645741               13.99388368               87.10028397                0.36160635               -4.20416159                2.37360752               -1.09792498                0.35615132              -17.06682485               -1.07181551
              30.32684277               13.48815034               86.48405257                0.36278598               -1.29880553                3.64334139               -7.13103219                0.45325928              -19.97101618               -1.13601793
              31.33048130               12.99020395               85.85874628                0.36483217                2.12711683                5.10024321              -14.20028438                0.51070979              -18.79448392               -1.14997547
              32.36938511               12.49702383               85.26438140                0.36793795                5.28046111                6.56713205              -21.14256338                0.55217311              -12.19634385               -1.02528200
              33.43609052               12.00612610               84.75333991                0.68501195                6.67054181                7.88991713              -26.26532206                0.54500395               -6.29284388               -0.02852995
              18.53852439                7.33672867               92.30255624                1.00000000               -0.02264109                0.00534933                0.03578989               -0.00440273               -0.45643119                0.41332935
              19.53829798                6.79181497               91.90088255                1.00000000               -0.03324388               -0.02488305                0.10498497               -0.00640240               -0.62903520                0.06297610
              20.53785951                6.24683283               91.49587212                1.00000000               -0.05808828               -0.05611536                0.19888887               -0.00295128               -0.66994712               -0.04605704
              21.53713622                5.70197924               91.09295000                0.69446902               -0.11492704               -0.06525872                0.26134503               -0.00905901               -0.64192842               -0.25797712
              22.53556097                5.15697996               90.68781398                0.69185004               -0.17011127               -0.05960071                0.34465956               -0.01346333               -0.48490732               -0.11956922
              23.53373399                4.61182902               90.28693949                0.70533720               -0.16687809               -0.06136848                0.34075672               -0.01495026               -0.07965485               -0.08991868
              24.53222341                4.06644134               89.88928320                0.74483708               -0.12574239               -0.04149551                0.24665340               -0.02801275                0.20124242               -0.08490398
              25.53121914                3.52100382               89.49401592                0.82891501               -0.06943041                0.00326238                0.07867446               -0.02745274                0.34586006               -0.07932587
              26.53083480                2.97579053               89.09978539                1.00000000                0.01385673                0.05768834               -0.16153237               -0.01800117                0.27555772               -0.06765830
              27.53149628                2.43067500               88.70342993                1.00000000                0.10724479                0.12160228               -0.39816805               -0.02536654                0.11644122               -0.02084612
              28.53297970                1.88559074               88.30646517                1.00000000                0.14834226                0.19276095               -0.65172875               -0.03123791                0.03036271               -0.13340198
              19.08339406                8.33678216               92.16192940                1.00000000               -0.02121844                0.02528651                0.00777620               -0.01817995               -0.12530738                0.55974340
              20.08318188                7.79156614               91.76022858                1.00000000               -0.03230953               -0.01757181                0.07541590               -0.02101785               -0.19584869                0.09343538
              21.08274787                7.24627168               91.35744248                1.00000000               -0.06049074               -0.05490557                0.15496518               -0.00599414               -0.22172922               -0.13290373
              22.08197206                6.70132665               90.95527978                1.00000000               -0.11232111               -0.04975140                0.22460294               -0.00892870               -0.15944513               -0.18475553
              23.08050145                6.15638395               90.55359585                1.00000000               -0.15591328               -0.05283450                0.28742012               -0.00721923               -0.01299958               -0.06990702
              24.07885380                5.61121534               90.15452153                1.00000000               -0.15727810               -0.05208693                0.28765910               -0.00713310                0.23150399               -0.04566249
              25.07735589                5.06602639               89.75796770                1.00000000               -0.12918874               -0.03254960                0.21568855               -0.00571824                0.44523617               -0.03631017
              26.07627002                4.52103645               89.36353861                1.00000000               -0.07683410                0.00840808                0.06884052                0.00111554                0.58077317               -0.03700003
              27.07581920                3.97636742               88.97025316                1.00000000                0.00362433                0.06029150               -0.14748928                0.01263769                0.53167723               -0.06056630
              28.07634251                3.43189102               88.57543290                1.00000000                0.09661869                0.12178891               -0.38627064                0.01019766                0.32097273               -0.03776286
              29.07775158                2.88751835               88.17848668                1.00000000                0.14090702                0.18900311               -0.61899061                0.00680592                0.16701289               -0.17866898
              19.62859283                9.33723440               92.02447854                1.00000000               -0.02047232                0.06421322               -0.03284460               -0.01513302               -0.04333129                0.72920020
              20.62838811                8.79146353               91.62030160                1.00000000               -0.03068537               -0.00654178                0.04166170               -0.00811755               -0.00534218                0.11555086
              21.62797912                8.24573472               91.21735710                0.00010000               -0.07713710               -0.07243979                0.11799457                0.06803683                0.25312448               -0.40578705
              22.62684537                7.70098421               90.81875689                0.00010000               -0.12256118               -0.07549591                0.18544365               -0.34803702                0.38433102               -0.14832532
              23.62552790                7.15592327               90.41979092                0.00010000               -0.14482373               -0.16065231                0.23089027               -1.19941091                0.36987170               -0.87162277
              24.62394889                6.61078728               90.02217227                0.00010000               -0.16199800               -0.43389472                0.23808395               -2.10291379                0.49071661               -2.76125455
              25.62228794                6.06579035               89.62671276                0.00010000               -0.15242330               -0.88854734                0.18436473               -2.75828901                0.66248373               -5.71431755
              26.62090042                5.52117198               89.23326571                0.00010000               -0.10274797               -1.49303337                0.05683455               -2.89191010                0.79501489               -9.46220247
              27.62023298                4.97699636               88.84078144                0.00010000               -0.01755653               -2.20202185               -0.13810881               -2.25911071                0.80776184              -13.54827052
              28.62054929                4.43311078               88.44772411                0.00010000                0.08140886               -2.90411209               -0.37660770               -0.62849196                0.57671479              -17.24000932
              29.62186116                3.88937081               88.05096476                0.36582867                0.13118631               -3.77202669               -0.59293983                2.25135275                0.35423854              -19.80026654
              20.17463312               10.33806642               91.88714967                1.00000000               -0.01139202                0.09106420               -0.06473885                0.00110521                0.01653396                0.71798107
              21.17451920                9.79143530               91.48004760                0.83432274               -0.00225950               -0.00917213                0.01348248                0.01104866                0.02626287                0.02242099
              22.17458793                9.24482288               91.07348145                0.00010000               -0.48482165               -0.11348486                0.07099018                0.11531239                0.77385787               -0.73138193
              23.16482277                8.69981673               90.68106338                0.00010000               -1.39388901               -0.11439669                1.61350353               -0.61547834                0.83069638                0.00040489
              24.14671015                8.15317091               90.26870352                0.00010000               -1.89471667               -0.25329171                2.03387231               -2.24439526               -1.47399570               -1.49491208
              25.12692844                7.60253744               89.83457316                0.00010000               -1.74523734               -0.67286259                1.47982028               -4.05826586               -3.92599495               -5.23837094
              26.11180541                7.04825544               89.38105257                0.00010000               -0.98513147               -1.38066963                0.05775532               -5.41010220               -5.95539694              -11.05070360
              27.10722581                6.49117578               88.91375910                0.00010000                0.34463943               -2.34224276               -2.09276472               -5.83140080               -7.09124036              -18.40958854
              28.11869819                5.93232698               88.44143460                0.00010000                2.20862096               -3.48698137               -4.74105680               -4.90890046               -6.82251717              -26.45806691
              29.15139823                5.37380878               87.97617346                0.00010000                4.57801915               -4.71836907               -7.46833643               -2.68001262               -4.61173335              -33.98028151
              30.21025858                4.81207782               87.53166219                0.36628822                5.88603513               -5.52376123               -9.61878697                0.55588331               -1.61270149              -39.76561882
              20.72187717               11.33905568               91.74920551                1.00000000               -0.00245481                0.09360082               -0.08503318                0.00527354               -0.00293105                0.66071660
              21.72185262               10.79128009               91.33818741                0.80966045                0.00133865               -0.01598978                0.01427025                0.00985845               -0.00555766               -0.08843052
              22.72190395               10.24346502               90.92730094                0.00010000               -0.78324257               -0.13065702                0.10646839                0.15250970                0.96384124               -0.86276655
              23.70618777                9.69869627               90.53552992                0.00010000               -2.19923320               -0.12908247                2.49967748               -0.32840943                0.74996132               -0.34153269
              24.67791928                9.15085743               90.10890547                0.00010000               -2.92443679               -0.22302207                3.14340854               -1.57650430               -2.99945404               -1.75047302
              25.64769904                8.59733003               89.64303352                0.00010000               -2.62358601               -0.39280452                2.11221750               -2.96987508               -7.07773028               -5.11934014
              26.62544756                8.03817696               89.14151853                0.00010000               -1.37490831               -0.65632402               -0.40560147               -4.04707751              -10.46745217              -10.22282178
              27.62020087                7.47432713               88.61462023                0.00010000                0.69872037               -1.01339757               -4.14214297               -4.50769123              -12.27423238              -16.63388489
              28.63942197                6.90725674               88.07892690                0.00010000                3.34986659               -1.44049650               -8.67169627               -4.19354977              -11.59114887              -23.69388657
              29.68719820                6.33874340               87.55721128                0.00010000                5.85093892               -1.84290412              -13.29277823               -2.81371338               -7.45354363              -30.54859916
              30.75644075                5.77889558               87.07898060                0.36649219                6.92425440               -1.57440196              -16.86953836               -1.36771861               -3.17670514              -35.82540204
              21.27028977               12.33993844               91.61054329                1.00000000                0.00172608                0.07955188               -0.09558624                0.00587604               -0.00843019                0.60384643
              22.27030703               11.79111551               91.19574531                0.82760721               -0.00339127               -0.01485561                0.02180722                0.00554406               -0.02295609               -0.12146437
              23.27022194               11.24220974               90.78079952                0.00010000               -0.97224319               -0.11114766                0.14488225                0.18495105                1.05072351               -0.84953065
              24.25086217               10.69723508               90.38735906                0.00010000               -2.68378181               -0.17455058                3.11757596               -0.09499417                0.62816128               -0.52662966
              25.21654631               10.14871046               89.94748081                0.00010000               -3.53253785               -0.21022668                3.85194038               -1.05104323               -4.13114360               -1.81399128
              26.18021141                9.59468135               89.45501586                0.00010000               -3.13397743               -0.14188353                2.40894316               -2.11872980               -9.26191308               -4.71774986
              27.15386676                9.03512896               88.91458628                0.00010000               -1.61096023                0.03551221               -0.98003724               -2.99248886              -13.49483871               -9.04400359
              28.14799220                8.47090783               88.34008996                0.00010000                0.82720853                0.30951974               -5.95285515               -3.48617243              -15.67353120              -14.45615841
              29.17041093                7.90351705               87.75408148                0.00010000                3.77464541                0.68107679              -11.94954506               -3.41364471              -14.64797687              -20.47528046
              30.22348511                7.33695070               87.18766889                0.00010000                6.60944529                1.23146374              -18.07438239               -2.43527858               -9.36725249              -26.40444610
              31.30259984                6.78058978               86.67933847                0.36701954                7.91147227                1.76893527              -22.99654090               -1.12299194               -4.16008634              -31.28301487
              21.81964055               13.34064672               91.47148363                1.00000000                0.00516513                0.06308953               -0.10326096                0.00480638               -0.00876294                0.56465775
              22.81969221               12.79098298               91.05310746                0.84912515               -0.00785799               -0.01192282                0.02926747                0.00423551               -0.02080876               -0.12518704
              23.81948339               12.24124207               90.63459082                0.00010000               -1.09525204               -0.08591957                0.16742384                0.17529666                1.15545534               -0.80284597
              24.79778716               11.69520526               90.23963818                0.00010000               -3.00156250               -0.22072312                3.56939374                0.01588955                0.63041253               -0.65488842
              25.75945214               11.14665290               89.78913256                0.00010000               -3.94406107               -0.19086115                4.34801766               -0.67415206               -4.83929945               -1.78424516
              26.71890594               10.59449236               89.27568710                0.00010000               -3.50404171                0.10228410                2.57400108               -1.44435137              -10.69562199               -4.15994406
              27.68937131               10.03888720               88.70480126                0.00010000               -1.84083046                0.68515538               -1.48580284               -2.10194642              -15.49682660               -7.62424131
              28.68208933                9.48051752               88.09316380                0.00010000                0.78674461                1.53369822               -7.40763063               -2.50930820              -17.92531230              -11.93566150
              29.70510620                8.92087827               87.46789046                0.00010000                3.96652835                2.60782894              -14.54163088               -2.48621520              -16.69692993              -16.73337589
              30.76141990                8.36337267               86.86585867                0.00010000                7.07982711                3.80057998              -21.88444042               -1.73515377              -10.63783416              -21.50312945
              31.84670274                7.81427429               86.33200728                0.36718177                8.52828435                4.79736694              -27.97555174               -0.83023414               -4.81532406              -25.53691990
              22.36971337               14.34120023               91.33217722                1.00000000                0.00830177                0.05033143               -0.11102780                0.00316991               -0.00773692                0.53108407
              23.36979639               13.79087705               90.91043003                0.86025765               -0.01038892               -0.00983378                0.03383780                0.00326692               -0.01498098               -0.11743397
              24.36950559               13.24049135               90.48860791                0.00010000               -1.20136334               -0.06918711                0.18334247                0.13001616                1.37009427               -0.76157297
              25.34576912               12.69282062               90.09444787                0.00010000               -3.28647136               -0.23218132                3.93232142                0.02319116                0.89884792               -0.73807818
              26.30377617               12.14489324               89.63734565                0.00010000               -4.33395222               -0.14528646                4.77209878               -0.41686914               -5.11606012               -1.67181946
              27.25909008               11.59672704               89.10898619                0.00010000               -3.89867490                0.33327970                2.77684952               -0.90003757              -11.53787395               -3.46035528
              28.22580267               11.04883207               88.51560335                0.00010000               -2.16375536                1.24795484               -1.76404481               -1.32202944              -16.80309324               -5.99589572
              29.21581497               10.50158179               87.87607641                0.00010000                0.60144039                2.54914222               -8.38540704               -1.59606754              -19.47375590               -9.11945738
              30.23783148                9.95567363               87.22110261                0.00010000                3.97855254                4.13109287              -16.37448095               -1.57188037              -18.13772619              -12.57329913
              31.29538602                9.41296230               86.59209917                0.00010000                7.31802229                5.82415900              -24.64905426               -1.07642573              -11.53251926              -15.94105969
              32.38419192                8.87653712               86.03879768                0.36746032                8.88058999                7.34308563              -31.65384223               -0.53535277               -5.28111157              -18.69460290
              22.92035031               15.34165335               91.19265578                1.00000000                0.01161187                0.04353959               -0.12065057                0.00106480               -0.00081310                0.48744790
              23.92046643               14.79078630               90.76780023                0.88641872               -0.01050778               -0.00850236                0.03353726                0.00161420               -0.01145085               -0.10805500
              24.92014015               14.23985833               90.34277736                0.00010000               -1.33086657               -0.06040355                0.19017875                0.07923976                1.79736473               -0.64521669
              25.89384909               13.69056164               89.95395332                0.00010000               -3.64659034               -0.19148853                4.29468793               -0.01644032                1.59239062               -0.72046385
              26.84720834               13.14374717               89.49539230                0.00010000               -4.84413656               -0.08661483                5.27403852               -0.24978940               -4.93925979               -1.40931979
              27.79696636               12.60115796               88.95843581                0.00010000               -4.45661898                0.52162529                3.19264329               -0.47267706              -11.90723790               -2.59103799
              28.75807596               12.06384630               88.34975587                0.00010000               -2.68199700                1.67455007               -1.65518465               -0.68146305              -17.69383078               -4.16750156
              29.74332642               11.53150037               87.69019911                0.00010000                0.21060614                3.28046712               -8.76374683               -0.83974842              -20.69137291               -6.10166066
              30.76228809               11.00350013               87.01355202                0.00010000                3.78507364                5.19477246              -17.36413834               -0.83563203              -19.34110299               -8.21987889
              31.81902790               10.47985585               86.36552288                0.00010000                7.32789797                7.22594693              -26.29297378               -0.56063272              -12.28954507              -10.14247350
              32.90884605                9.96113600               85.80017058                0.36764248                8.98181512                9.15924856              -33.90621350               -0.31634646               -5.70331499              -11.29769114
              23.47146875               16.34207102               91.05270936                1.00000000                0.01549422                0.04299723               -0.13315411               -0.00068200                0.03221239                0.37161429
              24.47162369               15.79070701               90.62519432                0.73394172               -0.00768476               -0.00737960                0.02738526                0.00032553                0.08153731               -0.11614267
              25.47131506               15.23928328               90.19869877                0.00010000               -1.50361122               -0.05516495                0.18300091                0.05609127                2.58109893               -0.49736301
              26.44155147               14.68899085               89.82100699                0.00010000               -4.15654991               -0.14314308                4.79430834               -0.00026190                2.85176106               -0.40208646
              27.38818406               14.14316094               89.36744875                0.00010000               -5.60070305               -0.07282089                6.07477436               -0.12608562               -4.18940735               -0.95296099
              28.32953741               13.60715954               88.82746549                0.00010000               -5.31765315                0.62674172                4.02746015               -0.17569357              -11.96692973               -1.48244000
              29.28183100               13.08232307               88.20944367                0.00010000               -3.50856176                1.91261067               -0.98806607               -0.24446466              -18.48233525               -2.16985753
              30.25936617               12.56719113               87.53581134                0.00010000               -0.45338221                3.67823598               -8.42761430               -0.32736779              -22.00091761               -3.03051989
              31.27276335               12.05956908               86.84301468                0.00010000                3.35856621                5.76761411              -17.46377735               -0.35119356              -20.78685802               -3.97791514
              32.32653750               11.55748124               86.18125974                0.00010000                7.12706732                7.97339876              -26.83603904               -0.23957323              -13.25377980               -4.75753010
              33.41530470               11.05972209               85.61163460                0.36762774                8.87671997               10.12147503              -34.73946886               -0.19317807               -6.27116309               -4.55233982
              24.02306470               17.34251329               90.91107990                1.00000000                0.01959816                0.04422687               -0.14752770               -0.02786314                0.19014227                0.27868464
              25.02326068               16.79063871               90.48230458                0.80870122               -0.00432827               -0.00682935                0.01550306               -0.02421456                0.28551015               -0.12483562
              26.02297813               16.23875503               90.05545924                0.36161921               -1.66472464               -0.05282506                0.17118580                0.01931082                4.10493317               -0.43847113
              26.98996619               15.68769877               89.70287795                0.36081783               -4.82300978               -0.12920736                5.80938995                0.01825820                5.69784261               -1.02934103
              27.92651794               15.14229075               89.25820672                0.36100341               -6.78379115               -0.08701905                7.47792528                0.13308877               -2.96444505               -1.28330697
              28.85429037               14.61369279               88.71955312                0.36079116               -6.66814299                0.65332492                5.54160696                0.46568359              -12.03029730               -1.37859540
              29.79315508               14.10209851               88.09594947                0.36148943               -4.73786527                1.97754430                0.41258237                0.70102314              -19.61492282               -1.43553086
              30.75953306               13.60506509               87.41168280                0.36195324               -1.40904828                3.78739535               -7.28895043                0.85438348              -23.88987212               -1.49498335
              31.76497411               13.11885241               86.70525907                0.36319424                2.72751795                5.92833338              -16.67732523                0.93401314              -23.10707963               -1.51153399
              32.81408342               12.63932383               86.02927192                0.36564695                6.77633327                8.18425902              -26.43853883                0.99024646              -15.30809168               -1.37198522
              33.90050078               12.16356550               85.45483907                0.68389725                8.64173596               10.38434097              -34.52496451                0.94377533               -7.98363834               -0.11768104
              18.93547345                7.48152243               93.30322231                1.00000000               -0.02551412               -0.00500843                0.08863358               -0.01692617               -0.42106559                0.39152168
              19.93521831                6.93323749               92.90201362                1.00000000               -0.02198762               -0.03046936                0.11663250               -0.02156282               -0.57497683                0.06020452
              20.93503370                6.38504805               92.49775826                0.97666963               -0.02723284               -0.06173707                0.18026589               -0.01341988               -0.61987281               -0.04421217
              21.93467366                5.83740827               92.09518602                0.70162671               -0.06510677               -0.05367893                0.19741194                0.01551497               -0.59025963               -0.22545778
              22.93373157                5.29039164               91.69080722                0.70889521               -0.11577311               -0.03795718                0.26017740                0.01628623               -0.44180496               -0.10032759
              23.93235819                4.74372997               91.28979006                0.72978224               -0.13428624               -0.03055477                0.24085409                0.01852505               -0.09707033               -0.06853303
              24.93104584                4.19720830               90.89123021                0.77177469               -0.11431149               -0.00797767                0.15621768                0.01443356                0.14780939               -0.05890473
              25.93007196                3.65084422               90.49449518                0.84807911               -0.06351452                0.02309689                0.02405959                0.01127140                0.27440441               -0.06169832
              26.92977555                3.10460485               90.09817456                1.00000000                0.00965836                0.05704074               -0.14616318               -0.00071735                0.21132073               -0.05375023
              27.93026513                2.55838416               89.69999881                1.00000000                0.07516394                0.09363138               -0.29351881               -0.01312087                0.07194039               -0.02091574
              28.93127883                2.01216790               89.30118659                1.00000000                0.10136988                0.13215976               -0.43960894               -0.01500781                0.00068002               -0.12489115
              19.48358913                8.48147234               93.16231465                1.00000000               -0.03492563                0.02302814                0.06120587               -0.02736459               -0.10899680                0.53498191
              20.48323987                7.93293279               92.76106590                1.00000000               -0.03875095               -0.01930359                0.08858972               -0.03384220               -0.16669813                0.08893686
              21.48281411                7.38443068               92.35889139                1.00000000               -0.05414323               -0.05861647                0.13515176               -0.00481529               -0.18417195               -0.12993902
              22.48215701                6.83687148               91.95724239                1.00000000               -0.10402666               -0.02778247                0.17239319                0.01051312               -0.11856929               -0.16055938
              23.48073358                6.29001206               91.55610834                1.00000000               -0.15109485               -0.02432329                0.21702743                0.01693968                0.01876315               -0.06377778
              24.47913511                5.74342442               91.15696589                1.00000000               -0.15502646               -0.01819406                0.20511346                0.01880818                0.22640542               -0.03955678
              25.47763305                5.19712852               90.75971277                1.00000000               -0.13243562                0.00015892                0.13903176                0.02142482                0.40604865               -0.03034713
              26.47648640                4.65107519               90.36397723                1.00000000               -0.08173208                0.02764279                0.02161331                0.02197469                0.51296259               -0.03785272
              27.47599841                4.10517526               89.96878700                1.00000000               -0.00670023                0.06008624               -0.13946166                0.01516790                0.46287072               -0.05543041
              28.47635240                3.55932047               89.57204798                1.00000000                0.06733000                0.09562259               -0.29609664                0.00540027                0.27239918               -0.03558659
              29.47734501                3.01348950               89.17333208                1.00000000                0.09926121                0.13231850               -0.43485782                0.00555249                0.13746376               -0.15886637
              20.03200526                9.48198299               93.02444102                1.00000000               -0.04221227                0.07400626                0.01843286               -0.01777610               -0.03562330                0.70294027
              21.03158314                8.93285142               92.62078107                1.00000000               -0.05032742               -0.00353980                0.05229261               -0.00613896                0.00976334                0.10995334
              22.03099871                8.38387572               92.21841618                0.00010000               -0.11403035               -0.08424346                0.09437625                0.12996220                0.27821012               -0.40951625
              23.02930253                7.83685262               91.82042014                0.00010000               -0.17406455                0.31459338                0.14478649                0.03401238                0.41941108                0.74988321
              24.02751742                7.28990517               91.42182841                0.00010000               -0.18423142                0.27792516                0.17393751               -0.84532235                0.40296864                0.26487475
              25.02561790                6.74336609               91.02424483                0.00010000               -0.18469262               -0.10552136                0.17349077               -1.88573295                0.51232866               -1.92199142
              26.02382357                6.19721148               90.62825933                0.00010000               -0.15765905               -0.79313253                0.12328735               -2.70108796                0.65649736               -5.64258025
              27.02246472                5.65139708               90.23364206                0.00010000               -0.09949707               -1.73659495                0.01813321               -2.93799927                0.75387236              -10.54660336
              28.02183363                5.10580658               89.83945196                0.00010000               -0.02029128               -2.89603109               -0.13158855               -2.23461483                0.73524504              -16.04708998
              29.02205889                4.56029661               89.44434636                0.00010000                0.06091000               -4.16907550               -0.30339359               -0.15893807                0.51172638              -21.21101960
              30.02305182                4.01481427               89.04585350                0.36381817                0.09929313               -6.01213558               -0.43896808                3.86684395                0.31236845              -24.95119978
              20.58149676               10.48295247               92.88675700                1.00000000               -0.02723877                0.10236440               -0.01908278                0.00967838                0.01319838                0.70056713
              21.58122437                9.93286200               92.48021261                0.87962141               -0.00423018               -0.00753380                0.01927185                0.02384379                0.01559740                0.03377370
              22.58141215                9.38274581               92.07399775                0.00010000               -0.22082824               -0.12394631                0.03759233                0.58383260                1.65846360               -0.69859865
              23.57680780                8.84316335               91.70010268                0.00010000               -1.20492438                0.36979578                2.27356689                0.43066200                2.40930905                1.82650833
              24.55731366                8.29557057               91.29308903                0.00010000               -2.13468277                0.32792375                2.94505849               -1.55128640               -0.86620517                0.77681710
              25.53411415                7.74131399               90.85314348                0.00010000               -2.08666830               -0.27221542                2.34299366               -3.68462892               -4.18567878               -3.57555796
              26.51558030                7.18126587               90.38396841                0.00010000               -1.24914168               -1.35244307                0.63643981               -5.35938451               -7.00782392              -10.89064556
              27.50913131                6.61634329               89.89265552                0.00010000                0.34131390               -2.85646130               -2.03621285               -6.02231576               -8.82756782              -20.49600785
              28.52240658                6.04725464               89.39027269                0.00010000                2.75173111               -4.73023494               -5.47394872               -5.10408732               -8.93471357              -31.35208397
              29.56416594                5.47593896               88.89335824                0.00010000                6.16199933               -6.95175371               -9.23160533               -2.69957467               -6.35858868              -41.93412558
              30.64564656                4.89324679               88.42311081                0.36407128                8.14806266               -8.96633600              -12.44616813                1.33703982               -2.37995573              -50.83834186
              21.13237977               11.48403028               92.74856824                1.00000000               -0.01130916                0.09736297               -0.04609266                0.01364307               -0.00278810                0.65282396
              22.13226667               10.93270074               92.33832265                0.85433039               -0.00028759               -0.01373539                0.01414211                0.02595898               -0.00595818               -0.05690315
              23.13237401               10.38139679               91.92817466                0.00010000               -0.35878330               -0.12343581                0.07274263                0.72383899                2.37047305               -0.78294885
              24.12509101                9.84424854               91.56536754                0.00010000               -1.70164838               -0.07057818                3.58842655                0.75658360                3.25934028                1.08619426
              25.09834105                9.29646365               91.14715807                0.00010000               -2.94304941               -0.15071027                4.66104352               -0.80519330               -1.90220842               -0.00071663
              26.06623002                8.73792178               90.67047722                0.00010000               -2.83672342               -0.43189200                3.53583633               -2.38293846               -7.32301669               -3.93783827
              27.04160658                8.17016261               90.14120718                0.00010000               -1.51001910               -0.89491858                0.49903542               -3.60583678              -11.92313726              -10.34259434
              28.03602964                7.59426785               89.57241234                0.00010000                0.92748145               -1.53553980               -4.18166400               -4.21948952              -14.71884847              -18.67429264
              29.06015621                7.01120188               88.98502441                0.00010000                4.30228052               -2.35124328              -10.11656356               -4.09159558              -14.49047311              -28.16570391
              30.12207525                6.42126154               88.40931461                0.00010000                7.75103820               -3.26174063              -16.54949589               -2.87754731               -9.63326391              -37.86561002
              31.21517697                5.83548755               87.88768056                0.36444185                9.31017228               -3.25265717              -22.02120867               -1.48940236               -4.21432537              -46.19827356
              21.68442869               12.48489973               92.60976779                1.00000000               -0.00516573                0.07537017               -0.06184741                0.01366264               -0.00730859                0.60317373
              22.68437704               11.93258729               92.19594058                0.86401690               -0.00437777               -0.00904269                0.01883049                0.01958615               -0.01783626               -0.08677301
              23.68434114               11.38027709               91.78202898                0.00010000               -0.37522073               -0.09516624                0.10561796                0.69543241                2.80998290               -0.77906087
              24.67687262               10.84175178               91.42467022                0.00010000               -1.84022907               -0.40383109                4.48389964                0.89124636                3.79297743                0.56106342
              25.64753656               10.29255636               90.99458662                0.00010000               -3.20581054               -0.58365434                5.74103594               -0.32472964               -2.65282330               -0.54690517
              26.61275641                9.73267615               90.48695311                0.00010000               -3.02095333               -0.59208616                4.14883864               -1.48745160               -9.35980448               -3.96631688
              27.58711749                9.16336750               89.90916149                0.00010000               -1.45270742               -0.44986404                0.05369949               -2.42090184              -14.99698748               -9.38893352
              28.58370226                8.58563250               89.27888755                0.00010000                1.32317449               -0.18496022               -6.18144507               -3.05349743              -18.29626660              -16.40714151
              29.61358098                8.00022977               88.62439730                0.00010000                4.93135264                0.19284351              -14.04072915               -3.23815874              -17.75221152              -24.51021408
              30.68232931                7.41070415               87.98633647                0.00010000                8.69127526                0.82408136              -22.57010463               -2.53469143              -11.68693692              -32.96461197
              31.78740648                6.82819365               87.41802275                0.36445128               10.50771700                1.54095046              -30.14117767               -1.21914006               -5.27662391              -40.72274162
              22.23727789               13.48553768               92.47061266                1.00000000                0.00031428                0.05434450               -0.07250547                0.01036209               -0.00733955                0.56673308
              23.23728103               12.93251989               92.05336807                0.87516420               -0.00798612               -0.00578046                0.02441672                0.01495612               -0.01581835               -0.09467854
              24.23711817               12.37949347               91.63604248                0.00010000               -0.33221857               -0.06680092                0.12717718                0.48967776                3.16444639               -0.74728167
              25.23063666               11.83617191               91.28231642                0.00010000               -1.80980423               -0.67928720                5.10947484                0.66142720                4.28050765                0.07951450
              26.20092208               11.28479056               90.84231370                0.00010000               -3.24834058               -0.92102814                6.45789330               -0.14686758               -3.04641556               -0.99467616
              27.16566985               10.72608005               90.31015821                0.00010000               -3.03449432               -0.68668737                4.48104030               -0.89423347              -10.59849474               -3.81615008
              28.14023220               10.16116533               89.69452515                0.00010000               -1.37862173                0.01443787               -0.42721522               -1.53371070              -16.89287017               -8.15110389
              29.13809742                9.59056865               89.01649884                0.00010000                1.50445889                1.11701703               -7.84605497               -2.04628782              -20.50973688              -13.73418778
              30.17032138                9.01505875               88.30979096                0.00010000                5.26600641                2.56550074              -17.18117622               -2.26674526              -19.81343050              -20.20688053
              31.24341754                8.43774317               87.62186354                0.00010000                9.27469021                4.25083814              -27.39044633               -1.76034283              -12.98339889              -27.05310927
              32.35581518                7.86630656               87.01377318                0.36488590               11.23976355                5.80411357              -36.73403217               -0.89606052               -5.95538576              -33.48709053
              22.79067152               14.48598662               92.33121742                1.00000000                0.00488491                0.03930667               -0.08211989                0.00663071               -0.00575614                0.53302636
              23.79072037               13.93247168               91.91072826                0.87421490               -0.00944293               -0.00465009                0.02731070                0.01035477               -0.01017321               -0.09392480
              24.79048267               13.37894107               91.49021365                0.00010000               -0.29581508               -0.04956524                0.14182871                0.14252049                3.57448973               -0.71921868
              25.78480407               12.82816604               91.14131787                0.00010000               -1.78958013               -0.88749054                5.57952508                0.14565167                4.94028784               -0.35262351
              26.75469106               12.27413580               90.69550818                0.00010000               -3.31535532               -1.17360756                7.01752843               -0.20379607               -3.03493733               -1.33792461
              27.71849697               11.71894241               90.14607673                0.00010000               -3.13681903               -0.71797256                4.78435147               -0.48492036              -11.22483064               -3.47531494
              28.69195468               11.16365626               89.50267350                0.00010000               -1.48069371                0.46411325               -0.70109690               -0.79651781              -18.04715998               -6.63254623
              29.68888309               10.60797284               88.78897432                0.00010000                1.45584370                2.24071683               -8.98281393               -1.12805498              -21.97192671              -10.66220298
              30.72107156               10.05153979               88.04287386                0.00010000                5.34957757                4.46989950              -19.41490768               -1.29988497              -21.22753426              -15.32713328
              31.79587464                9.49572091               87.31712885                0.00010000                9.56434608                6.95628154              -30.89123797               -1.02153792              -13.88439947              -20.20088295
              32.91235848                8.94427592               86.67853942                0.36491424               11.64838356                9.34152700              -41.58508367               -0.55579809               -6.43236651              -24.68590554
              23.34444038               15.48632382               92.19158939                1.00000000                0.00932981                0.03256598               -0.09360994                0.00241762                0.00155074                0.48758375
              24.34453367               14.93242688               91.76808508                0.88819650               -0.00830782               -0.00418188                0.02489745                0.00544404               -0.00727892               -0.09290495
              25.34427422               14.37850216               91.34444762                0.00010000               -0.30893534               -0.04229861                0.14777336               -0.30339181                4.19659325               -0.61885572
              26.33835497               13.81842210               91.00489585                0.00010000               -1.91022117               -1.06840241                6.02179669               -0.55038795                6.03069917               -0.63467941
              27.30606980               13.26131841               90.55924652                0.00010000               -3.59519907               -1.40853910                7.63856096               -0.33434357               -2.53765747               -1.44000845
              28.26645099               12.71172060               90.00035086                0.00010000               -3.53991932               -0.71022809                5.31658201               -0.17437565              -11.35151065               -2.85580168
              29.23527141               12.17044760               89.33832419                0.00010000               -1.93991002                0.84502988               -0.52726541               -0.21029447              -18.80029602               -4.78802652
              30.22765279               11.63538298               88.59921872                0.00010000                1.06520937                3.08250056               -9.39812811               -0.39965043              -23.14897865               -7.26004712
              31.25657560               11.10445674               87.82456909                0.00010000                5.12989341                5.81981889              -20.59963877               -0.54801797              -22.45632567              -10.11776153
              32.33025065               10.57686880               87.07223128                0.00010000                9.55068067                8.83659772              -32.94974929               -0.45326692              -14.67813633              -12.94507851
              33.44758921               10.05313710               86.41423793                0.36549164               11.73385568               11.86178605              -44.53428001               -0.31260426               -6.88427199              -15.06719262
              23.89851374               16.48663794               92.05150876                1.00000000                0.01371713                0.03347495               -0.10778615               -0.00087824                0.03320274                0.37017185
              24.89865091               15.93238804               91.62539617                0.72800610               -0.00470626               -0.00300430                0.01473198                0.00142968                0.08168170               -0.10878071
              25.89841961               15.37809510               91.20028862                0.00010000               -0.38354210               -0.03926813                0.13915353               -0.84743468                5.25856059               -0.48367896
              26.89098007               14.80679799               90.87756852                0.00010000               -2.18569604               -1.50299349                6.63928277               -0.87291741                7.84044876               -0.42650364
              27.85470569               14.24596502               90.44038114                0.00010000               -4.25499026               -1.59802870                8.64687823               -0.32932943               -1.31635093               -1.17033034
              28.80588026               13.70473784               89.87892271                0.00010000               -4.53096391               -0.68417850                6.38382520                0.03590743              -11.16611030               -1.77585617
              29.76408641               13.18055685               89.20577685                0.00010000               -2.94996587                1.08569278                0.35387349                0.08214356              -19.54565006               -2.58669622
              30.74688094               12.66962285               88.44898838                0.00010000                0.22694864                3.55623907               -8.90524415               -0.02688733              -24.57301063               -3.66770119
              31.76862539               12.16793616               87.65335999                0.00010000                4.56239977                6.55138805              -20.63602101               -0.14974945              -24.09819783               -4.94189678
              32.83812894               11.67245287               86.88224906                0.00010000                9.24721967                9.83454903              -33.55612710               -0.15159546              -15.79013868               -6.11488655
              33.95356978               11.18151164               86.21639913                0.36504164               11.54408398               13.21132136              -45.57997174               -0.20941091               -7.54363557               -6.18156464
              24.45292260               17.48699331               91.90973174                1.00000000                0.01825082                0.03553768               -0.12251523               -0.02176543                0.18758959                0.27693712
              25.45310511               16.93236680               91.48236927                0.80445030               -0.00035094               -0.00212453               -0.00027221               -0.01840601                0.28206589               -0.12167414
              26.45291558               16.37771680               91.05692590                0.36099417               -0.00392021               -0.03783012                0.12662257               -1.75063157                7.37388904               -0.43072773
              27.45302670               15.78836223               90.77121700                0.36059514               -2.56861114               -1.84357589                8.00541016               -1.21328469               12.01162494               -1.57648325
              28.40154336               15.22935783               90.34734967                0.36061779               -6.02247015               -1.66071840               10.51179269                0.16750657                0.50610000               -1.87643696
              29.33257730               14.69803703               89.78849095                0.36099810               -6.47570393               -0.67008102                8.38702459                0.80988483              -11.12110883               -1.93123011
              30.27202928               14.19216145               89.10853562                0.36102046               -4.64207848                1.16046007                2.22254939                1.21782311              -20.90462274               -1.94665448
              31.23973573               13.70650777               88.33827356                0.36143514               -1.06393451                3.68849179               -7.34002593                1.45163078              -26.89486462               -1.99805400
              32.25075059               13.23548450               87.52519977                0.36227361                3.69537707                6.75483346              -19.47786054                1.56512074              -26.97304898               -2.02795668
              33.31364327               12.77355978               86.73561062                0.36377988                8.72664327               10.11069076              -32.85633951                1.64538473              -18.35422940               -1.89238466
              34.42528345               12.31736353               86.06284062                0.68271816               11.16401824               13.58518914              -45.12291983                1.55174279               -9.69145799               -0.37717908
              19.33252048                7.62637442               94.30432892                1.00000000               -0.02579758               -0.01113312                0.12413655               -0.02687594               -0.38605442                0.36905710
              20.33226250                7.07491450               93.90321520                1.00000000               -0.01154094               -0.03370813                0.12059782               -0.03373740               -0.51709696                0.05735698
              21.33228966                6.52368232               93.49947744                0.95238185                0.00097786               -0.06673451                0.15884284               -0.01802930               -0.57083358               -0.05092081
              22.33228206                5.97335735               93.09689824                0.71654918               -0.00844106               -0.04760074                0.15147206                0.04461049               -0.54231980               -0.19723426
              23.33212084                5.42437119               92.69301753                0.72754284               -0.04562314               -0.02839793                0.19000052                0.04070534               -0.40175910               -0.08750396
              24.33136959                4.87610670               92.29175657                0.74498860               -0.08231777               -0.01372729                0.16306036                0.03713493               -0.11362729               -0.05828857
              25.33047448                4.32829814               91.89240756                0.77529039               -0.08033573                0.00921894                0.09037325                0.03405597                0.09763132               -0.04676942
              26.32976288                3.78080575               91.49449711                0.83024880               -0.04584480                0.03267533               -0.01346025                0.02884330                0.20963340               -0.05154670
              27.32955758                3.23349067               91.09686213                0.97019454                0.00800877                0.04907445               -0.12077313                0.01245826                0.14895547               -0.04776805
              28.32992306                2.68615835               90.69755956                1.00000000                0.05300725                0.06733857               -0.20756016               -0.00220159                0.02791275               -0.02132123
              29.33061773                2.13880194               90.29767299                1.00000000                0.06946745                0.08721777               -0.28909277               -0.00414998               -0.02863317               -0.11560598
              19.88371164                8.62626309               94.16315352                1.00000000               -0.04404614                0.02382143                0.09876440               -0.03457794               -0.09087559                0.50855299
              20.88327118                8.07457742               93.76200038                1.00000000               -0.04118476               -0.01993043                0.09497223               -0.04511971               -0.13326921                0.08351636
              21.88288794                7.52301498               93.36014552                1.00000000               -0.04437227               -0.06221442                0.11475543               -0.00407397               -0.14162272               -0.13260088
              22.88238373                6.97288134               92.95872764                1.00000000               -0.08673659               -0.01178827                0.12940385                0.03057612               -0.07329835               -0.13814495
              23.88115321                6.42408721               92.55793640                1.00000000               -0.13031310               -0.00655588                0.15359296                0.03649216                0.05190314               -0.06015862
              24.87977747                5.87596943               92.15862380                1.00000000               -0.13438469                0.00315764                0.13310914                0.03490346                0.22171077               -0.03843276
              25.87846552                5.32839033               91.76074834                1.00000000               -0.11612106                0.01924828                0.07547995                0.03546235                0.36987225               -0.02989539
              26.87745505                4.78113251               91.36397087                1.00000000               -0.07298241                0.03779358               -0.01498793                0.03067259                0.45254740               -0.03601888
              27.87700587                4.23398141               90.96746393                1.00000000               -0.01048225                0.05391014               -0.12492944                0.01876124                0.39575342               -0.04999781
              28.87724540                3.68683174               90.56951097                1.00000000                0.04633850                0.07108843               -0.21859886                0.00759678                0.22296428               -0.03415703
              29.87793264                3.13967412               90.16978952                1.00000000                0.06872360                0.08830725               -0.29375887                0.00806459                0.10742177               -0.14047967
              20.43520026                9.62685085               94.02484720                1.00000000               -0.05920397                0.08437262                0.05573838               -0.01978324               -0.02549267                0.67176252
              21.43460822                9.07451589               93.62134745                1.00000000               -0.06479996               -0.00041095                0.05889289               -0.00467931                0.02954737                0.10069108
              22.43390426                8.52243803               93.21924463                0.00010000               -0.13934344               -0.09612759                0.07284878                0.17924395                0.31487484               -0.41875533
              23.43182135                7.97312158               92.82165262                0.00010000               -0.20708367                0.92590819                0.10165592                0.66679867                0.46736759                2.03783857
              24.42976259                7.42424007               92.42326967                0.00010000               -0.20284029                0.96451922                0.11491033               -0.08798456                0.44298603                1.93384047
              25.42776454                6.87616986               92.02564209                0.00010000               -0.18709663                0.44122300                0.10688838               -1.14994792                0.53230852               -0.56924052
              26.42602065                6.32868310               91.62917851                0.00010000               -0.14896495               -0.54478228                0.06329925               -2.04684288                0.64178531               -5.19835462
              27.42478525                5.78156163               91.23362838                0.00010000               -0.08935374               -1.93235811               -0.01606137               -2.35995511                0.70007524              -11.53040502
              28.42423358                5.23456887               90.83814967                0.00010000               -0.02014810               -3.71342811               -0.12250305               -1.58430869                0.65587361              -18.89495082
              29.42438228                4.68758012               90.44165624                0.00010000                0.04303376               -5.83368581               -0.23569180                1.00710745                0.44506375              -26.15853514
              30.42509425                4.14056809               90.04218539                0.36176788                0.07119708               -9.30950985               -0.30681971                6.55988173                0.26850954              -31.75624570
              20.98798589               10.62795054               93.88676802                1.00000000               -0.03954823                0.11252592                0.01556612                0.01748263                0.01206708                0.67521312
              21.98759041               10.07456920               93.48043304                0.92636439               -0.00593773               -0.00509194                0.02420223                0.03303558                0.00847958                0.03935530
              22.98786713                9.52109243               93.07423330                0.00010000                0.31636319               -0.13316124                0.01454482                1.25972822                2.94793278               -0.66997762
              23.99391767                8.99139950               92.72653472                0.00010000               -0.57609456                1.13655156                3.08038083                2.14274909                4.80976389                4.44802462
              24.97634524                8.44337759               92.32760469                0.00010000               -2.07910966                1.25527196                4.02534745               -0.08013841                0.39208495                4.10138400
              25.95233548                7.88479389               91.88143304                0.00010000               -2.21041751                0.42968916                3.38564221               -2.32289330               -3.83619577               -0.90576707
              26.93213689                7.31749468               91.39378137                0.00010000               -1.39826497               -1.12755537                1.42946232               -4.16397519               -7.51480270               -9.99656174
              27.92437018                6.74248534               90.87303484                0.00010000                0.35821535               -3.34761913               -1.75349027               -5.02802002              -10.23320177              -22.37249774
              28.93930120                6.15971285               90.33195563                0.00010000                3.35090789               -6.23754109               -6.10059152               -4.19253346              -11.08811611              -36.89512904
              29.99138833                5.57015802               89.79154135                0.00010000                8.19265688               -9.95635737              -11.23605194               -1.93672165               -8.43950700              -51.79252401
              31.10315434                4.95348392               89.28273883                0.36226148               11.17660021              -14.02749632              -16.06129613                2.84899497               -3.36651058              -65.65433361
              21.54231259               11.62910137               93.74828365                1.00000000               -0.01855477                0.10034765               -0.01505072                0.02187545               -0.00177316                0.63682244
              22.54212705               11.07441405               93.33847025                0.89580886               -0.00220361               -0.01172870                0.01567302                0.03860760               -0.00302653               -0.03180025
              23.54226852               10.51977481               92.92875580                0.00010000                0.51320595               -0.11658612                0.04689774                1.56316916                4.41778539               -0.70797322
              24.55239117                9.99585261               92.60729845                0.00010000               -0.37515472                0.00539814                4.88621981                2.49085519                7.10271303                3.10754932
              25.53476543                9.44934551               92.20212634                0.00010000               -2.26007886               -0.03804311                6.41161301                0.68863716                0.35494982                2.53597319
              26.50718959                8.88476364               91.71375024                0.00010000               -2.48578654               -0.45599340                5.19523382               -0.85542682               -6.40727281               -2.02337330
              27.48504970                8.30613200               91.15149923                0.00010000               -1.25914570               -1.17311770                1.68052708               -2.01493619              -12.25518688               -9.95705814
              28.48200667                7.71460924               90.53098695                0.00010000                1.38302675               -2.19034249               -3.93984998               -2.69265274              -16.31069100              -20.63152352
              29.51271023                7.10981805               89.87659563                0.00010000                5.49350512               -3.55833164              -11.48174013               -2.87698412              -17.03558204              -33.25255222
              30.59187678                6.48845297               89.22622136                0.00010000               10.13560574               -5.25242429              -20.28818991               -2.25336525              -11.84466226              -46.91751188
              31.71542235                5.86001816               88.63855643                0.36241753               12.35455699               -5.67208011              -28.56584223               -1.31645878               -5.31744069              -60.04717568
              22.09779803               12.62995750               93.60930634                1.00000000               -0.01089100                0.07151919               -0.03354520                0.02123040               -0.00514789                0.59623398
              23.09768912               12.07433463               93.19612192                0.89375646               -0.00530340               -0.00561617                0.01810200                0.03110926               -0.01135743               -0.05753835
              24.09769196               11.51876070               92.78291187                0.00010000                0.82374790               -0.08315203                0.07494744                1.43641458                5.35792425               -0.71400324
              25.11416407               10.99150747               92.47703706                0.00010000                0.17574989               -0.78523514                6.07575371                2.42954763                8.63091174                2.06430079
              26.10120696               10.44261673               92.06230153                0.00010000               -1.78618111               -1.17538416                7.86079033                1.00415858                0.33973248                1.25851850
              27.07844045                9.87567402               91.53799263                0.00010000               -1.96071946               -1.28589507                6.10412805               -0.05246952               -7.86868810               -2.72770836
              28.06199257                9.29403233               90.91566027                0.00010000               -0.58046922               -1.18894390                1.33780914               -0.84359748              -14.88188156               -9.42357931
              29.06683107                8.69867849               90.21646106                0.00010000                2.29626093               -0.94311190               -6.16511441               -1.54319999              -19.55662198              -18.37500986
              30.10791779                8.08854622               89.47326690                0.00010000                6.46449247               -0.57769754              -16.13928840               -2.14031471              -20.04178654              -29.12923008
              31.19612092                7.46510954               88.73626680                0.00010000               11.28884985                0.15325632              -27.77097217               -2.13054870              -13.73954499              -41.05575984
              32.33369478                6.84004232               88.07651492                0.36243403               13.75738653                1.19988258              -39.19364083               -1.08905205               -6.30492042              -53.19708226
              22.65398294               13.63053175               93.47003352                1.00000000               -0.00369159                0.04632648               -0.04575822                0.01592521               -0.00470376                0.56441278
              23.65394602               13.07430173               93.05359579                0.89231488               -0.00794823               -0.00265385                0.02199935                0.02437996               -0.00929659               -0.06901987
              24.65382398               12.51811177               92.63713437                0.00010000                1.15900340               -0.05294370                0.09521410                0.92800003                6.05127449               -0.69567721
              25.67712609               11.98014791               92.34182768                0.00010000                0.84290325               -1.41593753                6.86402437                1.64211666                9.81463110                1.05552758
              26.67068204               11.42583783               91.91829043                0.00010000               -1.12007460               -2.07073988                8.76273376                0.80047158                0.49604096                0.09895362
              27.65472460               10.85904574               91.36530790                0.00010000               -1.27543818               -1.93229694                6.55054974                0.27514922               -8.60984791               -3.20833351
              28.64517328               10.28235312               90.69625696                0.00010000                0.09520914               -1.08251142                0.82179253               -0.16647092              -16.30627028               -8.53590480
              29.65662878                9.69574700               89.93624270                0.00010000                2.91498098                0.34696774               -8.10773432               -0.73720040              -21.34295905              -15.62953068
              30.70347290                9.09826410               89.12426693                0.00010000                7.05704581                2.29033095              -19.92706221               -1.35102179              -21.77242049              -24.20986850
              31.79776970                8.49151810               88.31804974                0.00010000               12.01514180                4.67336815              -33.78660866               -1.41683634              -14.85368229              -33.86703244
              32.94377573                7.88401581               87.59732663                0.36295660               14.60060331                7.11559695              -47.76773735               -0.79879438               -6.90817251              -43.83091665
              23.21057657               14.63088403               93.33053483                1.00000000                0.00201240                0.02909628               -0.05650037                0.01010292               -0.00240869                0.53150846
              24.21059670               14.07428155               92.91097625                0.87902560               -0.00853974               -0.00207191                0.02337391                0.01672002               -0.00347625               -0.07491187
              25.21040578               13.51770183               92.49144448                0.00010000                1.43418264               -0.03527641                0.10904246                0.11722157                6.70841120               -0.68016095
              26.23928035               12.96318871               92.20603837                0.00010000                1.39563886               -1.92652556                7.41470531                0.30190951               10.99487339                0.11251585
              27.23831856               12.40120193               91.77769622                0.00010000               -0.59261040               -2.78818933                9.40940200                0.20787577                0.95430212               -0.91357471
              28.22742814               11.83702809               91.20467322                0.00010000               -0.81783367               -2.39248965                6.89561726                0.36570198               -8.81007314               -3.42048105
              29.22196188               11.27238210               90.50158141                0.00010000                0.43739674               -0.86853497                0.49202259                0.33093353              -17.05782687               -7.26463592
              30.23617608               10.70561785               89.69642013                0.00010000                3.15821852                1.52691794               -9.46603649               -0.02780434              -22.46117029              -12.35097822
              31.28512625               10.13435284               88.83280446                0.00010000                7.29281987                4.61973334              -22.63998472               -0.51824132              -22.94346022              -18.52216000
              32.38203248                9.55857690               87.97427441                0.00010000               12.37986060                8.21579868              -38.14767225               -0.69859758              -15.63983373              -25.40630394
              33.53272347                8.98235426               87.20709601                0.36318322               15.06909905               11.89583089              -54.00923198               -0.45368546               -7.34123096              -32.38166132
              23.76738995               15.63111368               93.19078358                1.00000000                0.00726710                0.02240445               -0.06930532                0.00373228                0.00538491                0.48487804
              24.76746262               15.07426029               92.76829817                0.88013476               -0.00643534               -0.00171722                0.01881157                0.00866690               -0.00041100               -0.08273234
              25.76726124               14.51740624               92.34573282                0.00010000                1.61007799               -0.02852064                0.11329012               -0.93673756                7.56194386               -0.59533792
              26.79966418               13.94161740               92.07438925                0.00010000                1.68694713               -2.45245414                7.90405655               -1.41723158               12.57804943               -0.60449394
              27.80100019               13.37007404               91.64816352                0.00010000               -0.44028535               -3.47753733               10.10043526               -0.41185788                1.89973763               -1.54718173
              28.79085847               12.81119595               91.06476745                0.00010000               -0.88990007               -2.67628781                7.49350527                0.41498649               -8.53420273               -3.19593382
              29.78320218               12.26498242               90.33921056                0.00010000                0.16217422               -0.60021878                0.68499575                0.69899277              -17.50322423               -5.49409599
              30.79410196               11.72628536               89.50223655                0.00010000                2.84734185                2.45822106               -9.95869483                0.49115449              -23.43656872               -8.57484489
              31.84014902               11.19065877               88.60155924                0.00010000                7.08471833                6.28738106              -24.06113844                0.09805835              -24.07029195              -12.33961212
              32.93579632               10.65583407               87.70652789                0.00010000               12.34991387               10.66136314              -40.67853116               -0.15316126              -16.40220373              -16.36584440
              34.08714730               10.12193243               86.90948498                0.36312188               15.13509736               15.25669259              -57.75439260               -0.21974509               -7.79184982              -19.89554029
              24.32435799               16.63133211               93.05055364                1.00000000                0.01194816                0.02462028               -0.08453561               -0.00091653                0.03432580                0.36735225
              25.32447747               16.07424721               92.62548896                0.71347820               -0.00220347               -0.00006259                0.00515833                0.00222589                0.08544194               -0.10624585
              26.32431392               15.51713142               92.20148184                0.00010000                1.68952242               -0.02701673                0.10362146               -2.28803166                8.96033503               -0.47280424
              27.35826792               14.91413963               91.95379264                0.00010000                1.80944640               -3.63726238                8.61225093               -2.26847470               15.06432005               -0.54215875
              28.36050285               14.33165119               91.54038631                0.00010000               -0.87242145               -3.96245405               11.28442097               -0.61357522                3.74449822               -1.53116980
              29.34081949               13.78350233               90.95514199                0.00010000               -1.98252641               -2.76321242                8.76173393                0.42751525               -7.98123081               -2.18337663
              30.32085232               13.26037772               90.21652114                0.00010000               -1.02483364               -0.36672636                1.75602256                0.66788850              -18.10345375               -3.09659595
              31.32032282               12.75478227               89.35770646                0.00010000                1.83431942                3.01241378               -9.32109397                0.52961964              -24.89179086               -4.41537909
              32.35753871               12.26010046               88.43029426                0.00010000                6.36863822                7.19774783              -24.03441081                0.25244726              -25.84821593               -6.08548183
              33.44769558               11.77180416               87.51013720                0.00010000               11.92965681               11.94594717              -41.34430236                0.04746575              -17.62969527               -7.77832372
              34.59613185               11.28748811               86.70003516                0.36354854               14.84362623               17.06032600              -59.02322944               -0.17838825               -8.52662071               -8.29891148
              24.88154144               17.63160608               92.90862960                1.00000000                0.01663992                0.02739692               -0.09861394               -0.01635990                0.18380766                0.27498980
              25.88170784               17.07425904               92.48229913                0.79762765                0.00333734                0.00118347               -0.01173173               -0.01397266                0.28320742               -0.12253861
              26.88160818               16.51686591               92.05799169                0.36063526                2.90335409               -0.02655107                0.09146811               -4.53991844               11.85838654               -0.42609602
              27.93977492               15.86887215               91.86298615                0.36077834                1.88789000               -4.52674814               10.36905311               -3.15134789               20.95968580               -2.39068576
              28.91936598               15.29082496               91.46844257                0.36076802               -3.45463384               -4.08262280               13.64105763                0.23929065                6.30550472               -2.72329413
              29.87068224               14.75593170               90.88729361                0.36086285               -4.70429855               -2.75706311               11.26830822                1.32742144               -7.80207878               -2.69234513
              30.82528001               14.25764789               90.14040046                0.36089684               -3.28553130               -0.27298318                4.10369319                1.97286602              -19.69825624               -2.63471048
              31.80497161               13.78653364               89.26488228                0.36033460                0.14480313                3.17513681               -7.30468834                2.31317100              -27.66060799               -2.67471951
              32.82817607               13.33461372               88.31570186                0.36121670                5.21931853                7.45132637              -22.45931981                2.47470529              -29.30340941               -2.73296925
              33.90935799               12.89475302               87.37214513                0.36216432               11.20177773               12.29488550              -40.28407358                2.59250151              -20.74146315               -2.62345822
              35.05221163               12.46313895               86.55238067                0.68166057               14.28536442               17.56508385              -58.26748757                2.44657177              -11.15047367               -0.84818399
              19.72997980                7.77125436               95.30570505                1.00000000               -0.02519480               -0.01292419                0.14270736               -0.03419864               -0.34906133                0.34496212
              20.72972785                7.21681427               94.90442557                1.00000000               -0.00229043               -0.03434053                0.11781031               -0.04258056               -0.45727639                0.05295956
              21.72993399                6.66269347               94.50093512                0.94810416                0.02796590               -0.06820023                0.12896323               -0.01843486               -0.51152411               -0.05552131
              22.73028717                6.10980477               94.09821546                0.74240770                0.04520328               -0.04505751                0.11560532                0.06681714               -0.48532828               -0.16882809
              23.73083805                5.55880382               93.69460724                0.74780280                0.02042266               -0.02470719                0.13684763                0.05499121               -0.36642672               -0.07748969
              24.73069562                5.00882973               93.29305126                0.75153071               -0.02900668               -0.00594889                0.10719064                0.04555323               -0.13417517               -0.05402371
              25.73025792                4.45959135               92.89303768                0.76050068               -0.04427798                0.01683099                0.04743154                0.04435158                0.04308253               -0.04311245
              26.72981006                3.91086577               92.49422597                0.78551213               -0.02828518                0.03577808               -0.03163301                0.04389637                0.14237423               -0.04459135
              27.72969222                3.36244589               92.09575910                0.87589055                0.01012307                0.04418729               -0.11122462                0.02757266                0.09393130               -0.05176614
              28.73001252                2.81405490               91.69584761                1.00000000                0.03935419                0.04857423               -0.15303275                0.00619764               -0.00741084               -0.02565879
              29.73047930                2.26562271               91.29540474                1.00000000                0.04667783                0.05447871               -0.18404939                0.00248517               -0.04571803               -0.10128620
              20.28407790                8.77112512               95.16428994                1.00000000               -0.04954119                0.02746890                0.12094499               -0.03967077               -0.07214867                0.47943244
              21.28358249                8.21647087               94.76296534                1.00000000               -0.04117563               -0.01908472                0.09468555               -0.05324255               -0.09855414                0.07611705
              22.28325439                7.66201147               94.36118650                1.00000000               -0.03411634               -0.06403215                0.09318824               -0.00298092               -0.09485667               -0.13352891
              23.28290016                7.10935420               93.95983046                1.00000000               -0.06894516               -0.00012280                0.09476272                0.04414752               -0.02559527               -0.11533253
              24.28187549                6.55855675               93.55918019                1.00000000               -0.10713870                0.00549337                0.10148216                0.04828325                0.08106994               -0.05520522
              25.28075739                6.00877025               93.15962807                1.00000000               -0.10960335                0.01711509                0.07521449                0.04312604                0.21436661               -0.03870074
              26.27968342                5.45975966               92.76122237                1.00000000               -0.09678164                0.03100010                0.02741347                0.04341828                0.33336774               -0.03155696
              27.27882176                4.91122355               92.36367747                1.00000000               -0.06550212                0.04296187               -0.03479853                0.04065517                0.39417118               -0.03356272
              28.27837338                4.36288776               91.96628841                1.00000000               -0.01678355                0.04849850               -0.10806250                0.02740541                0.33686129               -0.04635927
              29.27848609                3.81454065               91.56767600                1.00000000                0.02814823                0.05203116               -0.15826304                0.00958307                0.17909648               -0.03293855
              30.27893634                3.26616750               91.16745691                1.00000000                0.04502560                0.05586685               -0.19010362                0.00690629                0.07842969               -0.11699359
              20.83849489                9.77180374               95.02555579                1.00000000               -0.07182393                0.09475758                0.07929280               -0.02060847               -0.01475393                0.63568977
              21.83777665                9.21643258               94.62195893                1.00000000               -0.07519258                0.00277190                0.06149114               -0.00223634                0.05008067                0.08893039
              22.83699104                8.66141283               94.21987315                0.00010000               -0.15759075               -0.10881929                0.05481661                0.21922386                0.35163943               -0.42733625
              23.83462484                8.10980232               93.82245326                0.00010000               -0.23016830                1.85619068                0.06179853                1.71161962                0.51375424                3.78557904
              24.83238767                7.55891369               93.42412662                0.00010000               -0.21348020                2.00924153                0.06035694                1.38756370                0.48065682                4.20878862
              25.83035523                7.00917204               93.02638259                0.00010000               -0.18573454                1.31601236                0.04491849                0.58769125                0.54816352                1.37561217
              26.82867298                6.46021135               92.62952532                0.00010000               -0.14300839               -0.03728750                0.01026156               -0.17240053                0.62548793               -4.27352219
              27.82749506                5.91172501               92.23332083                0.00010000               -0.08748761               -1.98443946               -0.03829901               -0.46621176                0.65096316              -12.28718333
              28.82692323                5.36341586               91.83700190                0.00010000               -0.02853110               -4.59908319               -0.09764918                0.35674432                0.58064578              -22.01625993
              29.82692444                4.81509553               91.43963253                0.00010000                0.02202424               -7.95086384               -0.16534511                3.47153521                0.37952023              -32.19283280
              30.82736372                4.26674005               91.03971711                0.36061543                0.04392721              -14.11892110               -0.19626818               11.01370538                0.22459004              -40.64224107
              21.39440806               10.77302027               94.88706833                1.00000000               -0.04793826                0.12123313                0.03899717                0.02441385                0.01165543                0.64360278
              22.39392868               10.21652631               94.48069665                0.97344197               -0.00694661               -0.00283638                0.02797239                0.03860779                0.00327807                0.03991825
              23.39426913                9.65983508               94.07428865                0.00010000                1.28515086               -0.14270390                0.00278492                2.24310966                4.69823766               -0.64310088
              24.41963169                9.14647801               93.76171029                0.00010000                0.79939575                2.30474319                3.97986864                4.90281948                8.20985619                8.00770884
              25.41025704                8.59874158               93.37359598                0.00010000               -1.42090708                2.67862895                5.13555914                2.76065257                2.59363597                8.61121701
              26.39121355                8.03509049               92.92085633                0.00010000               -1.82873017                1.58613423                4.44518633                0.93143808               -2.33730367                2.90420755
              27.37368244                7.45901391               92.41255766                0.00010000               -1.24602681               -0.55344030                2.36178485               -0.64812912               -6.70084186               -8.17275649
              28.36629302                6.87153476               91.85758571                0.00010000                0.42276523               -3.67569225               -1.15544760               -1.54417274              -10.49788583              -23.77386004
              29.38213774                6.27090610               91.26826086                0.00010000                3.91497896               -7.92881455               -6.41489128               -0.93622313              -12.71867356              -42.88039476
              30.44459260                5.65552337               90.66863720                0.00010000               10.68918280              -13.84548355              -13.35301295                0.45898697              -10.69490406              -63.69144365
              31.59592140                4.98378908               90.10188488                0.36019049               15.13288038              -21.29860493              -20.64337872                5.66628587               -4.57789480              -85.22690910
              21.95197110               11.77422840               94.74826723                1.00000000               -0.02371061                0.10271327                0.00775621                0.02907029               -0.00061546                0.61466725
              22.95173400               11.21637585               94.33863611                0.93300722               -0.00347892               -0.01076616                0.01699591                0.04730098                0.00066026               -0.01400445
              23.95190153               10.65855875               93.92911261                0.00010000                2.10203652               -0.11083137                0.02577794                2.79183453                7.18429563               -0.64140515
              24.99377473               10.15589718               93.66309193                0.00010000                2.35433594                0.10152776                6.27104716                5.21985141               12.56501828                5.79785601
              25.99898824                9.61248627               93.27539033                0.00010000               -0.25315314                0.14105308                8.11992959                3.40580647                4.28268034                5.91804729
              26.98871167                9.04089472               92.77438190                0.00010000               -0.98610562               -0.42630834                6.77134306                2.37333135               -3.39519229                0.68050958
              27.97926613                8.44914255               92.17481773                0.00010000               -0.19961210               -1.44378593                2.95631864                1.73227126              -10.13498974               -8.95707008
              28.98471942                7.83821116               91.49361534                0.00010000                2.24720136               -2.93291043               -3.34123728                1.21836008              -15.62471743              -22.32360166
              30.02421016                7.20483957               90.75538961                0.00010000                6.92508875               -5.04661157              -12.49689300                0.53882315              -18.11896620              -38.77550112
              31.12322120                6.53818586               90.00355081                0.00010000               12.99739256               -7.88813990              -24.32797334               -0.21869078              -13.54306618              -57.76513694
              32.28415801                5.84076795               89.31636371                0.36105134               16.09368119               -8.91536404              -36.78566434               -0.49726830               -6.27545290              -78.15883241
              22.51069457               12.77507454               94.60909689                1.00000000               -0.01502220                0.06845227               -0.01176108                0.02805269               -0.00232258                0.58399684
              23.51054435               12.21631098               94.19630262                0.91646033               -0.00550430               -0.00453454                0.01797216                0.04020873               -0.00457455               -0.03543145
              24.51058449               11.65761846               93.78352793                0.00010000                2.97784266               -0.07557176                0.05167041                2.51039162                8.77209294               -0.65758076
              25.57010120               11.14850857               93.54618530                0.00010000                4.13955731               -1.38080158                7.70632171                4.79713418               15.46380387                4.00502525
              26.59337563               10.60156264               93.15180243                0.00010000                1.59613493               -2.05556662                9.82182440                3.32150959                5.47162174                3.61014018
              27.60202390               10.02656433               92.60903567                0.00010000                0.88178954               -2.28309640                7.82932811                2.76851229               -3.62504127               -0.98273874
              28.61101142                9.43013819               91.93591767                0.00010000                1.64696477               -2.23082228                2.59027871                2.51090456              -11.49007350               -9.07171685
              29.63496320                8.81287655               91.15558526                0.00010000                4.09640445               -2.00960962               -5.87491114                1.91722539              -17.64360858              -20.20692089
              30.69293951                8.16997387               90.30161153                0.00010000                8.46635976               -1.67578767              -17.96657572                0.68698907              -20.03245491              -34.15076862
              31.80429039                7.49776057               89.43091702                0.00010000               14.39361630               -0.78954747              -33.45760904               -0.72145334              -14.72277378              -50.63163163
              32.98081184                6.80548180               88.63414994                0.36093139               17.65214453                0.91695939              -50.45120842               -0.48088038               -6.89400896              -69.13129372
              23.07005927               13.77559745               94.46969750                1.00000000               -0.00650154                0.03960954               -0.02448673                0.02106761               -0.00105878                0.55758830
              24.06999426               13.21628516               94.05380806                0.90150943               -0.00737493               -0.00199598                0.02070773                0.03233538               -0.00172307               -0.04978668
              25.06991177               12.65704732               93.63794676                0.00010000                3.78894846               -0.04395305                0.07073380                1.55001362                9.87941434               -0.65095258
              26.14577323               12.12828115               93.41959691                0.00010000                5.87254527               -2.53268921                8.59249734                3.13381090               17.54866528                2.25880309
              27.18736268               11.57137494               93.01756838                0.00010000                3.48665692               -3.77857171               10.78926233                2.43591330                6.45336305                1.47698133
              28.21550636               10.99523279               92.44116921                0.00010000                2.79046597               -3.77455444                8.25107627                2.47687877               -3.46342849               -2.32547244
              29.24317200               10.40452610               91.71096100                0.00010000                3.38609472               -2.73641314                1.91361717                2.54129949              -11.92245580               -8.70299678
              30.28322826                9.79801897               90.85434415                0.00010000                5.49469624               -0.89585662               -8.19711218                2.01355741              -18.42924847              -17.47013946
              31.35306592                9.17132381               89.91124972                0.00010000                9.50279699                1.69152051              -22.49480284                0.78922480              -20.91094261              -28.54595672
              32.47328420                8.52239491               88.94613136                0.00010000               15.30160124                5.06780570              -40.80473243               -0.38603215              -15.33094692              -41.80039351
              33.65909795                7.85910714               88.05841844                0.36134312               18.58137493                8.95012727              -61.28918155               -0.37483534               -7.26614944              -56.64816855
              23.62974050               14.77586673               94.33008741                1.00000000                0.00006885                0.02025568               -0.03578677                0.01341381                0.00226195                0.52603326
              24.62974119               14.21627106               93.91119574                0.87113720               -0.00758679               -0.00128189                0.02109039                0.02273084                0.00535387               -0.06206838
              25.62958877               13.65673940               93.49239450                0.00010000                4.43543037               -0.02446356                0.08535081                0.05469843               10.81463586               -0.64832590
              26.71844980               13.09785478               93.28961197                0.00010000                7.27767437               -3.48515996                9.15793594                0.54819240               19.35064535                0.61861878
              27.77514226               12.52599121               92.88369622                0.00010000                4.99802569               -5.18451285               11.41992065                0.97710630                7.52080051               -0.43353492
              28.81841031               11.95107324               92.28398908                0.00010000                4.19544907               -4.89498199                8.52993909                1.93161231               -2.99249523               -3.28645291
              29.85905124               11.37540993               91.51251395                0.00010000                4.50131600               -2.94500753                1.43528344                2.42260057              -11.96472223               -7.81595694
              30.90843663               10.79495942               90.59965359                0.00010000                6.26484170                0.22903929               -9.84858306                2.08694109              -18.88122401              -14.04037604
              31.98434807               10.20380428               89.59007416                0.00010000               10.01748942                4.44254396              -25.74447172                1.09848801              -21.56417614              -21.96412417
              33.10878642                9.59911669               88.55417541                0.00010000               15.77712957                9.56471042              -46.08850848                0.08383577              -15.85032889              -31.36443896
              34.29989066                8.98448434               87.59835478                0.36125576               19.11042403               15.15899998              -69.01553367               -0.12622940               -7.58810006              -41.66812200
              24.18951888               15.77600256               94.19020329                1.00000000                0.00573264                0.01361156               -0.04923244                0.00515067                0.01034213                0.47896992
              25.18957621               15.21625952               93.76846131                0.85698832               -0.00484305               -0.00044472                0.01457125                0.01229165                0.00888712               -0.07910510
              26.18942202               14.65655804               93.34671342                0.00010000                4.89545256               -0.01796216                0.08803613               -1.89738527               11.91355858               -0.57898008
              27.28748526               14.05857795               93.16297698                0.00010000                8.21321650               -4.52484346                9.63237734               -2.69805856               21.48989705               -0.68835381
              28.35368635               13.46768468               92.76125522                0.00010000                5.86173155               -6.54643173               12.09485971               -0.40703744                9.03612535               -1.77908061
              29.40471989               12.89733315               92.15022097                0.00010000                4.70257379               -5.62645433                9.11193300                1.48258883               -2.14185596               -3.60968052
              30.44773783               12.34562595               91.35202411                0.00010000                4.59264215               -2.89874443                1.58370053                2.28341182              -11.91235011               -6.22415270
              31.49657273               11.80259976               90.40004483                0.00010000                6.15702955                1.18550587              -10.45868616                2.06920545              -19.47061967               -9.93078548
              32.57087842               11.26017469               89.34334632                0.00010000                9.88540554                6.41398188              -27.41889208                1.29858064              -22.43974475              -14.72941141
              33.69428084               10.71368911               88.25866065                0.00010000               15.74798114               12.60762364              -49.09085305                0.45600803              -16.50147611              -20.22966391
              34.88583804               10.16228714               87.25915008                0.36147253               19.15571962               19.40766850              -73.55098429                0.02734150               -8.00048962              -25.63137038
              24.74932960               16.77613896               94.04981805                1.00000000                0.01019453                0.01693128               -0.06436371               -0.00063923                0.03508940                0.36297162
              25.74943155               16.21626217               93.62549934                0.68796665               -0.00034829                0.00180837               -0.00207280                0.00360740                0.09259943               -0.10929880
              26.74932263               15.65638015               93.20236105                0.00010000                5.19652240               -0.01914310                0.07728515               -4.44649924               13.68646979               -0.46692957
              27.85336199               15.00735791               93.04981354                0.00010000                8.94618354               -6.82082276               10.37401243               -4.35166502               24.74743429               -0.80840552
              28.92824631               14.39506257               92.66606956                0.00010000                5.83794136               -7.44526204               13.38294288               -0.95770605               11.65227853               -2.08461146
              29.97012082               13.83854415               92.05415738                0.00010000                3.56032836               -5.87231291               10.51178340                1.11152045               -1.09349999               -2.71065288
              30.99945287               13.31743504               91.24089730                0.00010000                3.25755902               -2.69586740                2.79237646                1.64315229              -12.24826412               -3.66547360
              32.03527200               12.81866954               90.26256650                0.00010000                4.98887262                1.80309900               -9.69967603                1.46491555              -20.84418817               -5.21083779
              33.09923032               12.33208391               89.17267178                0.00010000                9.02610669                7.49176163              -27.31482664                0.95703765              -24.25825555               -7.32356789
              34.21579413               11.85126916               88.05536302                0.00010000               15.20055584               14.16928210              -49.76738582                0.42040751              -17.78523661               -9.64525239
              35.40324144               11.37263771               87.03593454                0.36149862               18.74473067               21.67108436              -74.98130255               -0.06490189               -8.77739670              -10.80487163
              25.30925968               17.77634119               93.90775946                1.00000000                0.01474832                0.02022278               -0.07634378               -0.01154173                0.17864590                0.27266867
              26.30940717               17.21629569               93.48213463                0.78487804                0.00683037                0.00335213               -0.01944297               -0.01073837                0.28897915               -0.12766726
              27.30939629               16.65617518               93.05875526                0.36012308                7.61811853               -0.02049696                0.06667838               -8.69934419               17.57243416               -0.42595788
              28.46176954               15.92216150               92.97859806                0.36063475                9.69748519               -8.51964186               12.52767893               -6.02903291               32.77199984               -3.55987110
              29.50334599               15.31877944               92.62017082                0.36106184                2.14041488               -7.62831353               16.20089464                0.39623878               15.04727813               -3.88108754
              30.50457783               14.77988690               92.01385712                0.36066371               -0.14352540               -5.86572556               13.46100498                2.09215945               -0.78331841               -3.68467628
              31.50047549               14.29170860               91.19060948                0.36056019                0.33221687               -2.57264377                5.56173090                3.04100330              -14.07163423               -3.50897800
              32.51122217               13.83866174               90.19217980                0.36015459                2.84720321                1.99921978               -7.25002156                3.51008311              -24.01948210               -3.53782377
              33.55741955               13.41000992               89.07601337                0.35981799                7.54565106                7.79260119              -25.28448582                3.73957357              -28.26178551               -3.64924811
              34.66213519               12.99707476               87.92992915                0.36074885               14.21916696               14.58055989              -48.26527401                3.91905088              -21.45135065               -3.58581100
              35.84180289               12.59570883               86.89749086                0.68084181               17.96676967               22.30711130              -73.83486510                3.71955181              -11.91205363               -1.54255527
              20.12809819                7.91610387               96.30718306                1.00000000               -0.02112922               -0.01028762                0.14371242               -0.03900463               -0.30863424                0.31859948
              21.12788690                7.35889416               95.90557140                1.00000000                0.00855475               -0.03277542                0.10652126               -0.05007382               -0.39673585                0.04647995
              22.12826929                6.80206913               95.50205670                0.97853287                0.05082353               -0.06627667                0.09741090               -0.02152905               -0.43802522               -0.04891211
              23.12890337                6.24675078               95.09921034                0.78183386                0.08436039               -0.04138899                0.08380754                0.07779295               -0.41080823               -0.13586778
              24.12995650                5.69367547               94.69575448                0.76745868                0.06761373               -0.02117568                0.10086423                0.05814277               -0.32784361               -0.06724830
              25.13025565                5.14187262               94.29390038                0.74888930                0.01024637               -0.00085359                0.07404315                0.04624954               -0.14916997               -0.05406061
              26.13016142                4.59106651               93.89335619                0.73095661               -0.01833529                0.02050398                0.02926842                0.04912006               -0.00566294               -0.04716688
              27.12988894                4.04101093               93.49386445                0.72529508               -0.01734246                0.03554588               -0.03227601                0.05486071                0.07187598               -0.04232749
              28.12981458                3.49139674               93.09463763                0.77234518                0.01201300                0.04146925               -0.10802152                0.04187178                0.03533989               -0.04469865
              29.13012920                2.94198839               92.69449890                0.85301207                0.03872640                0.03996552               -0.15435137                0.01672045               -0.03334281               -0.04373106
              30.13058910                2.39267189               92.29399200                0.98822122                0.04599019                0.03499973               -0.17774845                0.00338107               -0.04035759               -0.12896494
              20.68491786                8.91600100               96.16557242                1.00000000               -0.05143290                0.03411939                0.12761777               -0.04342446               -0.05347008                0.44709576
              21.68440353                8.35856640               95.76389409                1.00000000               -0.03960881               -0.01654822                0.08799496               -0.05945332               -0.06385482                0.06685211
              22.68412569                7.80140636               95.36200928                1.00000000               -0.02627025               -0.06399835                0.07254976               -0.00280411               -0.04433043               -0.12842165
              23.68387813                7.24633689               94.96062290                1.00000000               -0.05743424                0.01012760                0.06630187                0.04984742                0.02511067               -0.09019948
              24.68297700                6.69346372               94.55996604                1.00000000               -0.09277520                0.01622911                0.06220931                0.05085436                0.10965693               -0.04699540
              25.68202263                6.14186409               94.16012809                1.00000000               -0.09467660                0.02906097                0.03207387                0.04406497                0.20913315               -0.03930976
              26.68108347                5.59127155               93.76129660                1.00000000               -0.08750961                0.04054298               -0.00190841                0.04665261                0.29859605               -0.03575090
              27.68027243                5.04136639               93.36327490                1.00000000               -0.06694538                0.04493913               -0.03492190                0.04894342                0.32585692               -0.03319828
              28.67974456                4.49181143               92.96530268                1.00000000               -0.03068009                0.04372419               -0.08000981                0.03709406                0.26415746               -0.03556942
              29.67965883                3.94238805               92.56634571                1.00000000                0.00974275                0.03869348               -0.11669692                0.01693667                0.13522048               -0.03664387
              30.67993942                3.39302188               92.16598745                0.97115804                0.02805862                0.03117020               -0.13663796                0.00477355                0.05928253               -0.11408597
              21.24209889                9.91678626               96.02643305                1.00000000               -0.08064246                0.10550806                0.08981381               -0.02008255               -0.00421384                0.59510171
              22.24129247                9.35856319               95.62257728                1.00000000               -0.08280860                0.00619919                0.06037562                0.00175078                0.06968134                0.07563235
              23.24044272                8.80078916               95.22034096                0.00010000               -0.17247509               -0.12077074                0.04081425                0.25413466                0.38345213               -0.43078140
              24.23784297                8.24695333               94.82288859                0.00010000               -0.24981673                3.22890592                0.03133133                3.40701116                0.55268855                6.01550396
              25.23544639                7.69400006               94.42447681                0.00010000               -0.22569252                3.54372524                0.01643182                4.07977174                0.51278794                7.05143357
              26.23332912                7.14245384               94.02654046                0.00010000               -0.19271065                2.65073277               -0.00845985                4.12412031                0.56199752                3.86020739
              27.23159217                6.59187737               93.62938374                0.00010000               -0.15005944                0.87377983               -0.03012220                3.98815349                0.61191396               -2.83193286
              28.23032793                6.04190971               93.23286240                0.00010000               -0.10286865               -1.73263756               -0.04126165                3.94153417                0.59818458              -12.64073067
              29.22953480                5.49227122               92.83619668                0.00010000               -0.05352226               -5.40470914               -0.05936185                4.74921104                0.49986995              -25.20097679
              30.22925748                4.94276226               92.43834934                0.00010000               -0.00589509              -10.49885918               -0.09219104                8.26157318                0.30697051              -39.33664401
              31.22941690                4.39329529               92.03826003                0.35903406                0.01594164              -21.03613745               -0.10738613               18.31138621                0.17676988              -52.15029936
              21.80096235               10.91811116               95.88754796                1.00000000               -0.05267020                0.12899447                0.05183396                0.03110421                0.01187171                0.60794968
              22.80043565               10.35869039               95.48099248                1.00000000               -0.00720535               -0.00175986                0.03093438                0.04410961                0.00071198                0.03507083
              23.80081824                9.79899095               95.07428900                0.00010000                2.91859058               -0.15408714                0.00281412                3.66402576                6.92498021               -0.61934902
              24.85880746                9.31091501               94.80613209                0.00010000                3.41268419                4.01906986                4.84174516                9.24590607               12.76020545               12.56207073
              25.86907193                8.76433822               94.43031587                0.00010000                0.39101307                4.77499729                5.92962212                7.88232093                6.11804822               14.22157249
              26.86662772                8.19487874               93.97033676                0.00010000               -0.38406288                3.38703242                5.09116426                7.54690765                1.23435132                7.73836389
              27.86139067                7.60874715               93.44101706                0.00010000               -0.39592288                0.58766063                3.16141386                7.16795917               -3.12101479               -5.36109363
              28.85870926                7.00671364               92.84992589                0.00010000                0.62427841               -3.58860276               -0.17601717                6.67913096               -7.96897394              -24.34578198
              29.87387624                6.38371725               92.20365780                0.00010000                4.25784821               -9.56569329               -6.02769958                6.82789283              -12.55206118              -48.81032733
              30.94386623                5.73241086               91.52448110                0.00010000               13.56124223              -18.59459226              -15.25264928                5.96828764              -12.66203129              -77.46787792
              32.14510108                4.97229913               90.86987126                0.35897211               20.12348544              -31.43594153              -26.48260639               10.73235683               -5.95290434             -110.75672299
              22.36156252               11.91936615               95.74843878                1.00000000               -0.02676508                0.10480035                0.02250648                0.03507277               -0.00005519                0.58857747
              23.36129487               11.35852799               95.33881017                0.96822933               -0.00319524               -0.01181681                0.01747291                0.05361032                0.00279550               -0.00443448
              24.36149862               10.79770742               94.92927136                0.00010000                4.80594722               -0.11080028                0.00883158                4.56198144               10.66051426               -0.59077593
              25.45741381               10.32733473               94.73271939                0.00010000                7.38152273                0.20939941                7.46872531                9.40753880               19.85110433                9.13068257
              26.50912907                9.78950000               94.36452493                0.00010000                4.12222666                0.41516323                9.15168707                8.07884270               10.53577054               10.01200448
              27.53985835                9.21019449               93.84917711                0.00010000                2.69936950               -0.28234013                7.49584431                8.46636199                3.23516916                4.02448809
              28.56311646                8.60363058               93.21062561                0.00010000                2.45410482               -1.61462141                3.79254342                9.20970012               -3.21173504               -7.34761540
              29.58894044                7.97013766               92.46416221                0.00010000                3.86394865               -3.64511886               -2.40685495                9.34412771               -9.96319690              -23.51389025
              30.64039543                7.30095736               91.62665777                0.00010000                8.55504524               -6.70232551              -12.68401242                7.93967239              -15.49794266              -44.30565970
              31.76004135                6.57087042               90.73966189                0.00010000               16.19460284              -11.12572539              -28.20083206                4.44399543              -13.55831427              -70.10797927
              32.96428749                5.76457646               89.90284314                0.35954654               20.42461417              -12.84687052              -47.04141176                1.58298913               -6.60822284             -101.14087372
              22.92334012               12.92020716               95.60907112                1.00000000               -0.01735319                0.06634228                0.00315473                0.03359448                0.00105946                0.56720179
              23.92316658               12.35845405               95.19648136                0.93588425               -0.00444883               -0.00575573                0.01708483                0.04676059                0.00232930               -0.02066228
              24.92325114               11.79677494               94.78394528                0.00010000                6.59995348               -0.07406341                0.03318807                4.03868729               12.99765019               -0.61039275
              26.05516565               11.31510300               94.63116349                0.00010000               11.22689396               -2.27187159                8.97583380                8.34652553               24.47262064                6.30705584
              27.14778902               10.77264149               94.25873801                0.00010000                8.33293648               -3.30081688               10.78216401                7.15884380               13.50179398                6.36486874
              28.22182438               10.18923194               93.69457919                0.00010000                6.89262424               -3.63058020                8.33543839                7.80091450                5.16904964                1.15911351
              29.28564150                9.57645472               92.96746585                0.00010000                6.32203294               -3.59668378                3.10683017                8.75060377               -2.06163960               -8.30103316
              30.34826504                8.93381126               92.09896284                0.00010000                7.31477127               -3.39308827               -5.42798118                8.60153370               -9.37789123              -21.65691154
              31.43193693                8.24967074               91.11393538                0.00010000               11.04309957               -3.10375139              -19.05401845                6.45782481              -14.99007507              -39.12825616
              32.56912703                7.50989635               90.06711462                0.00010000               17.87059233               -1.93092856              -39.06925888                2.48158395              -13.10538884              -61.20683290
              33.78934877                6.71536172               89.06749075                0.35974481               22.02217419                1.11355715              -64.12359420                1.02609227               -6.36041035              -88.41803099
              23.48574064               13.92069300               95.46954379                1.00000000               -0.00783364                0.03458683               -0.00963637                0.02524108                0.00332211                0.54623961
              24.48566230               13.35841288               95.05400995                0.90657692               -0.00586116               -0.00335591                0.01936689                0.03816327                0.00649062               -0.03690820
              25.48562342               12.79622615               94.63854904                0.00010000                8.14077386               -0.04031481                0.05242406                2.42577683               14.54434277               -0.61290195
              26.64847778               12.28189730               94.51367763                0.00010000               14.62767930               -4.14609911                9.80091799                5.35416994               27.59417731                3.59442264
              27.77817700               11.72348367               94.13407567                0.00010000               12.17928137               -6.18985503               11.56661444                5.11270186               15.58215121                3.02694340
              28.89206341               11.13758289               93.53032943                0.00010000               10.76861057               -6.34923370                8.48260017                6.25746807                6.70107674               -1.20997422
              29.99354921               10.53169691               92.73452930                0.00010000                9.78458445               -5.07274337                2.07226896                7.30272162               -0.88134027               -8.54966644
              31.08775510                9.90227589               91.77230045                0.00010000                9.99588114               -2.73508027               -8.25572065                6.99558834               -8.47441585              -18.96180782
              32.19346684                9.23888233               90.67437088                0.00010000               12.81134722                0.66515075              -24.38344481                4.86799659              -14.38542968              -32.72695012
              33.34398204                8.53225184               89.50195509                0.00010000               19.02058795                5.44312372              -47.76014522                1.77917632              -12.81907483              -50.24091344
              34.57387859                7.78684760               88.37154300                0.35985292               22.98965543               11.64492273              -77.21466545                0.62227356               -6.31850468              -71.34017223
              24.04840517               14.92089890               95.32981909                1.00000000               -0.00084754                0.01347217               -0.02103101                0.01580831                0.00795500                0.51627338
              25.04839669               14.35838693               94.91139806                0.85615917               -0.00614538               -0.00191456                0.01941092                0.02688352                0.01638999               -0.05552979
              26.04828226               13.79596865               94.49315150                0.00010000                9.32974233               -0.01830316                0.06890760               -0.04062969               15.74382171               -0.62241804
              27.23499154               13.23218101               94.38919709                0.00010000               17.30376025               -5.71242681               10.25790537                0.96591406               30.04475482                1.08485836
              28.39435746               12.64884439               94.00609463                0.00010000               15.18844827               -8.56822915               12.01380218                2.31839793               17.38221302                0.03441882
              29.53876050               12.06224727               93.37527200                0.00010000               13.63227316               -8.43744295                8.54393847                4.56722613                8.06704820               -3.05217430
              30.66700293               11.47499985               92.53028708                0.00010000               12.11154403               -5.97904458                1.33980843                5.92222502                0.06911944               -8.13637492
              31.78099138               10.87910966               91.49944847                0.00010000               11.61589905               -1.87595760              -10.24832254                5.67930814               -7.96862118              -15.42745546
              32.89932091               10.26297375               90.31791503                0.00010000               13.78769503                3.72952988              -28.15506481                3.94603179              -14.28324959              -25.19239062
              34.05674529                9.61875883               89.05250424                0.00010000               19.66409095               10.89006722              -53.88300128                1.56337129              -12.95973621              -37.47997332
              35.29260273                8.94826018               87.82678533                0.35988176               23.58574427               19.24388274              -86.24131195                0.56413798               -6.48990970              -51.85654664
              24.61108074               15.92096244               95.18979893                1.00000000                0.00494833                0.00682370               -0.03448023                0.00581702                0.01586147                0.46988681
              25.61113023               15.35837459               94.76858960                0.82204094               -0.00320015                0.00004893                0.01143917                0.01437123                0.02116262               -0.08257424
              26.61101674               14.79586009               94.34749355                0.00010000               10.18950468               -0.01088307                0.07221372               -3.26394846               17.06305094               -0.56990968
              27.81492032               14.16764876               94.26703680                0.00010000               19.17309835               -7.49152831               10.62606980               -4.46122256               32.73917806               -0.96216684
              28.99447871               13.55211908               93.89006072                0.00010000               17.11660731              -10.89005152               12.55899235               -0.19838127               19.55615606               -2.17247268
              30.15725247               12.96883403               93.24700611                0.00010000               15.03263075               -9.82970706                9.01527133                3.26790895                9.63674370               -4.04525794
              31.29513132               12.41211601               92.37088458                0.00010000               12.80574442               -6.32584853                1.38412757                4.81988559                0.77301106               -6.82699524
              32.41336736               11.86475674               91.29306283                0.00010000               11.88034879               -1.03395553              -10.99111030                4.60150556               -8.02579836              -11.07958600
              33.53273830               11.31347293               90.05318140                0.00010000               13.82978424                5.89941459              -30.04286117                3.27763109              -14.78890873              -16.93892964
              34.68996304               10.75005319               88.72471083                0.00010000               19.67101775               14.44358943              -57.25145362                1.51175655              -13.44039442              -24.09267252
              35.92615865               10.17172526               87.43846529                0.35988013               23.61956133               24.23948581              -91.37949491                0.50911337               -6.83418231              -31.76101240
              25.17369721               16.92103538               95.04926636                1.00000000                0.00892589                0.01071014               -0.04800464               -0.00058312                0.03461335                0.35753356
              26.17378647               16.35838791               94.62544751                0.64971230                0.00159565                0.00302600               -0.00742504                0.00384989                0.10336931               -0.11834241
              27.17372912               15.79575099               94.20302754                0.00010000               10.78608140               -0.01508859                0.06051402               -7.52303832               19.21203740               -0.46714472
              28.38950809               15.08235045               94.16127289                0.00010000               20.77377258              -11.37715388               11.31353613               -7.29142976               36.80524114               -1.29258172
              29.58920457               14.43104336               93.80804517                0.00010000               17.73068288              -12.35591997               13.84675850               -1.30617709               23.06846846               -2.85850043
              30.74412175               13.86565312               93.16537766                0.00010000               13.91366768              -10.29976582               10.45024422                2.23821343               11.29047047               -3.31139386
              31.86747793               13.34848288               92.27236867                0.00010000               11.37714156               -6.20360204                2.65768567                3.15853728                0.81764364               -4.19079637
              32.97166458               12.85843055               91.16371294                0.00010000               10.60495788               -0.41030860              -10.13665879                2.91449451               -9.18729338               -5.91190906
              34.07957708               12.38096205               89.88399773                0.00010000               12.85317510                7.07363191              -29.82436299                2.08263919              -16.51408973               -8.47412221
              35.22872808               11.90763062               88.51478948                0.00010000               18.99318864               16.19256696              -57.82605874                1.04891458              -14.67758210              -11.48294629
              36.45944086               11.43304990               87.20040911                0.35995109               23.07127714               26.87249734              -92.81815115                0.17635148               -7.58430607              -13.44626881
              25.73636401               17.92117664               94.90710272                1.00000000                0.01276035                0.01412665               -0.05595855               -0.00747285                0.17187107                0.27061548
              26.73649161               17.35843511               94.48191027                0.76611485                0.01147135                0.00471988               -0.02332155               -0.01040134                0.30004226               -0.13746628
              27.73659344               16.79555832               94.05932526                0.35995680               14.86538699               -0.01926679                0.05369058              -14.63003957               24.28525361               -0.43308779
              29.03379935               15.94010568               94.11353973                0.36097482               22.42295252              -14.22447648               13.81671759              -10.09875567               47.29851394               -5.18208924
              30.18505249               15.30500068               93.79246046                0.36055257               12.53889293              -12.60426734               16.99934736                0.72144310               27.29474026               -5.37445616
              31.28457721               14.76283871               93.15651371                0.36042649                9.02360793              -10.28144137               13.67057630                3.19771064               11.67897957               -4.88379740
              32.36552465               14.28804397               92.25163508                0.36004898                7.73004334               -6.04389061                5.69370484                4.49026509               -1.18086464               -4.52746774
              33.43917808               13.85655057               91.11988185                0.35955914                7.98331817               -0.18799764               -7.33227249                5.09642928              -12.60976337               -4.56903689
              34.52519101               13.45494556               89.81001214                0.35935896               10.98377009                7.39835196              -27.29613519                5.42909066              -20.89785799               -4.78343336
              35.65885348               13.07390453               88.40683965                0.35889495               17.68280583               16.62739101              -55.72958260                5.72402168              -18.82165715               -4.79546792
              36.87884713               12.70917520               87.07568337                0.67989571               21.99936456               27.61253092              -91.09944954                5.46769481              -11.23797578               -2.43996254
              20.52703043                8.06084764               97.30857929                1.00000000               -0.01109359               -0.00305954                0.12614470               -0.04144020               -0.26651107                0.29064090
              21.52691949                7.50109851               96.90655600                1.00000000                0.02520581               -0.02964684                0.08523420               -0.05697496               -0.33709863                0.04000595
              22.52753454                6.94181007               96.50288333                1.00000000                0.07268657               -0.06512905                0.07364130               -0.03136716               -0.36406344               -0.03485786
              23.52837322                6.38426231               96.09989161                0.83082144                0.10283014               -0.03903491                0.05877162                0.06852310               -0.32489952               -0.09600599
              24.52959115                5.82903574               95.69662452                0.77929093                0.08686468               -0.01412259                0.07693397                0.04876849               -0.27293810               -0.05465349
              25.53011052                5.27529311               95.29453213                0.73053822                0.02947208                0.00508675                0.06143005                0.03646875               -0.13811858               -0.05502898
              26.53018059                4.72276718               94.89362305                0.68787078               -0.00721914                0.02499123                0.03554737                0.02805448               -0.02186131               -0.04821326
              27.52996613                4.17119832               94.49358045                0.65774734               -0.02080105                0.03633197               -0.00878092                0.00940134                0.02405822               -0.02616836
              28.52976457                3.62022183               94.09359867                0.67434186                0.00125825                0.03954938               -0.08930779               -0.00346808               -0.03311477               -0.01947434
              29.52999130                3.06948666               93.69276058                0.72106694                0.04606913                0.04706661               -0.20086802               -0.00702328               -0.09418475               -0.04675691
              30.53068595                2.51905252               93.29184977                0.90300030                0.06946510                0.05652363               -0.30483032               -0.02815821               -0.07286252               -0.18704581
              21.08636516                9.06081705               97.16684230                1.00000000               -0.04966327                0.04412953                0.11883198               -0.04691392               -0.03565840                0.41258639
              22.08586853                8.50080204               96.76472524                1.00000000               -0.03630958               -0.01258392                0.07566336               -0.06576945               -0.03103861                0.05787287
              23.08563897                7.94115878               96.36263749                1.00000000               -0.02114550               -0.06462927                0.05565322               -0.00579268                0.00548476               -0.11948715
              24.08544562                7.38387196               95.96115650                1.00000000               -0.05377676                0.01704468                0.04445553                0.04526345                0.07689021               -0.06155909
              25.08456344                6.82889452               95.56042438                1.00000000               -0.09180658                0.02783953                0.03330324                0.04362151                0.14580747               -0.03462781
              26.08360949                6.27534397               95.16026955                0.96980588               -0.10274544                0.04372006                0.00057246                0.03501538                0.22630843               -0.03975021
              27.08250853                5.72301709               94.76118420                0.89784886               -0.11383324                0.05425300               -0.01037520                0.03131996                0.29906102               -0.03682688
              28.08133282                5.17156164               94.36297903                0.84783878               -0.09614045                0.05305412               -0.02502385                0.01399546                0.30476508               -0.02143278
              29.08058572                4.62061732               93.96468821                0.83194980               -0.04135504                0.04096841               -0.05577563                0.00324011                0.23122828               -0.01918840
              30.08050572                4.06995733               93.56534206                0.77464994                0.01263984                0.03703002               -0.10149309                0.00048197                0.12236755               -0.03988816
              31.08083851                3.51961775               93.16472415                0.82685977                0.03327921                0.03988711               -0.16483428               -0.01436835                0.07627577               -0.15015465
              21.64612217               10.06173023               97.02735206                1.00000000               -0.08597958                0.11782473                0.08770582               -0.01877623                0.00553995                0.55183343
              22.64526237                9.50084683               96.62316644                1.00000000               -0.08867002                0.00963943                0.05606272                0.00603001                0.08701801                0.06155160
              23.64434877                8.94051749               96.22068944                0.00010000               -0.18598070               -0.13205370                0.03211673                0.28732662                0.40974175               -0.42799942
              24.64154276                8.38460321               95.82307989                0.00010000               -0.26786000                5.20083320                0.01224965                6.12191796                0.58297718                8.65773536
              25.63899157                7.82959253               95.42445526                0.00010000               -0.24272525                5.71151981               -0.01460436                8.77070990                0.54050755               10.17551559
              26.63668825                7.27616751               95.02621340                0.00010000               -0.22011227                4.59385732               -0.05542356               10.79248004                0.59730003                6.51900565
              27.63458932                6.72385224               94.62892287                0.00010000               -0.20212202                2.37665410               -0.04830357               12.26281926                0.63603171               -1.04805164
              28.63264581                6.17225940               94.23249560                0.00010000               -0.15778187               -0.91211654               -0.03964076               13.00644666                0.60900433              -12.39698605
              29.63143368                5.62104119               93.83581466                0.00010000               -0.08226525               -5.81894269               -0.03476262               13.69617281                0.49833525              -27.97951928
              30.63100051                5.07022726               93.43778871                0.00010000               -0.01779747              -13.25520338               -0.05198655               17.17209295                0.31844892              -47.38394699
              31.63107773                4.51985026               93.03756938                0.35814966                0.00772276              -30.77731233               -0.10337896               30.22452345                0.22937219              -67.05741384
              22.20775645               11.06317354               96.88810501                1.00000000               -0.05545681                0.13732813                0.05431337                0.03738091                0.01398396                0.57065726
              23.20720188               10.50099483               96.48131534                1.00000000               -0.00636604               -0.00242739                0.03293650                0.05195603                0.00312345                0.02488127
              24.20762913                9.93851771               96.07434493                0.00010000                5.58035265               -0.17152693                0.00928366                5.68738116                9.55731156               -0.60588034
              25.31880893                9.48788863               95.85854520                0.00010000                8.03921028                6.44381131                5.38832369               15.93038455               18.47817310               17.97810715
              26.36841333                8.94312491               95.49218842                0.00010000                4.31952265                7.73558406                5.64306479               16.67934332               11.59234489               20.37217367
              27.40519938                8.36722112               95.02267961                0.00010000                3.16298422                6.04872741                4.39004878               19.90256884                8.44651741               12.89255272
              28.43167302                7.77055017               94.47578594                0.00010000                1.95367064                2.59446098                3.10175103               22.57775992                5.90026707               -1.89343052
              29.44427280                7.15331931               93.85406537                0.00010000                1.24341500               -2.66814982                1.09392722               23.52329043                0.62594350              -23.71894359
              30.45654132                6.50423847               93.14770687                0.00010000                4.04328600              -10.62962000               -4.26360789               22.94259433               -7.69752942              -53.65156769
              31.52513852                5.80485326               92.36358422                0.00010000               16.47708376              -23.84172572              -16.10203475               17.23510342              -13.02701978              -92.23926933
              32.78608299                4.90407151               91.57223276                0.35828278               26.09444735              -44.97596362              -34.25806917               19.64949021               -7.20251370             -143.53617485
              22.77122721               12.06447680               96.74871736                1.00000000               -0.02698857                0.10700116                0.02847129                0.03908965                0.00036603                0.56121738
              23.77095733               11.50079828               96.33898557                1.00000000               -0.00123120               -0.01484344                0.01779664                0.05625209                0.00306193               -0.00331430
              24.77120259               10.93708695               95.92928924                0.00010000                9.22929569               -0.11923958                0.00350934                7.04536943               14.65197668               -0.55870429
              25.95554324               10.51347943               95.81246644                0.00010000               16.10216747                0.29014110                7.91842263               15.65846102               28.97915341               12.88043301
              27.09324594                9.98430421               95.45842407                0.00010000               12.58855641                0.80921810                8.20118857               15.76225520               20.11064653               14.29910763
              28.20731437                9.39714206               94.92429878                0.00010000               10.34001952                0.06865760                5.81254820               19.14574607               15.97567364                7.47730872
              29.30004633                8.77574146               94.25066859                0.00010000                8.10544770               -1.51681671                2.97822549               22.77381587               12.53910704               -5.37362863
              30.36942332                8.11889641               93.44547824                0.00010000                6.93526455               -4.08596187               -1.50314101               24.46851896                5.53200944              -23.93447742
              31.43875162                7.40844879               92.50170936                0.00010000               10.32231058               -8.22714163              -11.38646022               22.14706286               -4.72427473              -49.01363252
              32.57586954                6.59339275               91.43953417                0.00010000               19.34397133              -14.67612743              -30.86159346               13.76854613               -9.26135526              -82.86844236
              33.82563105                5.62033099               90.37553548                0.35838129               24.97615114              -16.78250919              -59.81513914                6.03224273               -5.18943330             -128.77113520
              23.33589527               13.06531357               96.60915998                1.00000000               -0.01784992                0.06487360                0.01107731                0.03674815                0.00445212                0.54754829
              24.33571677               12.50069796               96.19664432                0.96079175               -0.00199531               -0.00839896                0.01456979                0.04904157                0.00841840               -0.01217469
              25.33585536               11.93613291               95.78419169                0.00010000               12.45220573               -0.07519423                0.01623359                6.14609252               17.71533068               -0.57194541
              26.58476089               11.49369145               95.72570197                0.00010000               23.20702241               -3.56717142                9.08927076               13.48816291               35.52046132                8.67878220
              27.79999581               10.95930927               95.36744571                0.00010000               20.59580892               -4.98735137                9.09949629               13.20053909               25.49658306                9.11463747
              28.99667706               10.36859427               94.77574444                0.00010000               18.26995851               -5.34007793                5.79430983               16.13322320               21.24586268                3.37672693
              30.16539498                9.74021384               93.99805428                0.00010000               15.21293872               -5.25149579                1.48502384               19.32668181               17.74278292               -7.14660084
              31.30093584                9.07160007               93.04702564                0.00010000               12.97956256               -5.02996105               -5.30371948               20.19784182               10.41059897              -22.31599792
              32.42498623                8.33969563               91.92053116                0.00010000               14.38457054               -4.78218144              -18.79545991               16.83408534               -0.14157498              -43.12729905
              33.58862725                7.51133071               90.64953185                0.00010000               21.39325680               -3.06028654              -43.43726075                8.62933631               -5.99807034              -71.39340645
              34.85285137                6.56842132               89.35167805                0.35873634               26.42241204                2.63390633              -80.08183389                4.10511043               -3.41094985             -109.50448319
              23.90119339               14.06577427               96.46950477                1.00000000               -0.00745789                0.03117447               -0.00123118                0.02792349                0.00789323                0.53126345
              24.90111881               13.50063030               96.05419540                0.91117044               -0.00312201               -0.00585718                0.01696999                0.04143041                0.01443502               -0.02892876
              25.90113095               12.93558306               95.63899524                0.00010000               15.05056649               -0.03931925                0.03733006                3.61582543               19.61721140               -0.58089930
              27.20213014               12.44213600               95.61561527                0.00010000               29.06114741               -6.37493357                9.53244120                8.53074997               39.63566357                4.83058754
              28.48235390               11.88455719               95.24890066                0.00010000               27.34720655               -9.43073663                9.30092927                9.24601428               28.84305202                4.48861844
              29.74907427               11.29034050               94.61082121                0.00010000               25.06101339               -9.76206015                5.32958217               12.25180619               24.52475338                0.02666830
              30.98357417               10.67071154               93.75240638                0.00010000               21.24120457               -8.19433415               -0.11560182               14.94094341               21.01484150               -7.91857354
              32.17389836               10.01829719               92.68922974                0.00010000               17.60642619               -5.29760675               -8.69933926               15.12970250               13.48746711              -19.56316899
              33.33570269                9.31280517               91.42358082                0.00010000               17.29161054               -0.92748488              -24.83387407               11.72654519                2.33862053              -35.73596553
              34.51973057                8.53218702               89.99092846                0.00010000               22.89246728                5.77153845              -53.19658557                5.61490445               -4.65515683              -57.66996899
              35.79355204                7.67300911               88.51412513                0.35846559               27.38214611               15.60048989              -94.78309884                2.51615509               -2.91818581              -85.88985224
              24.46674167               15.06593706               96.32966679                1.00000000               -0.00050864                0.00893788               -0.01235618                0.01744500                0.01372005                0.50288204
              25.46673659               14.50058082               95.91158395                0.83406040               -0.00377508               -0.00358584                0.01754927                0.02977521                0.02855341               -0.05466489
              26.46666617               13.93534653               95.49377265                0.00010000               16.98325875               -0.01496283                0.05688057               -0.16415737               20.98857002               -0.60167275
              27.80640176               13.36619278               95.49477008                0.00010000               33.50227167               -8.74385961                9.68837007                1.64597607               42.60830695                1.35915962
              29.13671160               12.77069454               95.12397226                0.00010000               32.45785364              -13.11362487                9.34249472                4.48232764               31.37593766                0.38345357
              30.45555883               12.17335307               94.45486784                0.00010000               29.97727787              -13.20090814                5.01399276                8.65946226               26.85940093               -2.67584450
              31.73625716               11.57632715               93.53931012                0.00010000               25.29387144              -10.18535419               -1.16875514               11.29310164               23.04719609               -7.97087233
              32.96143626               10.96564794               92.39468714                0.00010000               20.46850729               -5.07768117              -10.99046516               11.23401790               15.02235855              -15.97353711
              34.14562731               10.32114594               91.02697287                0.00010000               18.96425646                2.12541145              -28.94280800                8.44315452                3.22074444              -27.30869707
              35.34072139                9.62676148               89.47651538                0.00010000               23.79514865               11.86817009              -59.77014895                3.98718361               -4.46254577              -42.45877484
              36.62153028                8.88043112               87.87352854                0.35849816               28.08088885               24.02170008             -104.40768859                1.77163555               -2.98769723              -61.24864558
              25.03225477               16.06595303               96.18951368                1.00000000                0.00500720                0.00243916               -0.02493708                0.00645122                0.02101936                0.45804901
              26.03230484               15.50055859               95.76869009                0.76989482               -0.00094647               -0.00030847                0.00866463                0.01659730                0.03608332               -0.09322925
              27.03223584               14.93528381               95.34815770                0.00010000               18.36984046               -0.00704900                0.06333754               -5.11139722               22.45104508               -0.56845912
              28.39970165               14.26725881               95.37549838                0.00010000               36.63021597              -11.55947159                9.83800426               -6.74758451               45.77142955               -1.49543677
              29.76484016               13.62228469               95.01243507                0.00010000               35.84646273              -16.76008608                9.64398851                0.39314117               34.23493480               -2.71504569
              31.11663091               13.02632234               94.33052639                0.00010000               32.61505856              -15.52721981                5.30747757                6.03838342               29.19697741               -4.35314437
              32.41714133               12.46700446               93.37970666                0.00010000               26.85645168              -11.17292717               -1.25134579                8.58172675               24.42674043               -7.02735842
              33.65375994               11.91674356               92.18022262                0.00010000               21.31554538               -4.60178012              -11.82724629                8.33848731               15.50864906              -11.59487100
              34.84345224               11.35531339               90.74248909                0.00010000               19.32145622                4.23123962              -30.90878078                6.25257657                3.09219112              -18.35552226
              36.04018906               10.76955042               89.11363158                0.00010000               23.90966150               15.63599673              -63.23847637                3.16197197               -4.77499557              -27.13658178
              37.32164547               10.15344311               87.43156018                0.35881185               28.14564050               29.30315703             -109.72011774                1.32855883               -3.25575624              -37.30521683
              25.59765958               17.06598584               96.04885796                1.00000000                0.00781748                0.00638770               -0.03539515                0.00024243                0.03182429                0.35135725
              26.59773775               16.50057465               95.62535084                0.59295044                0.00392109                0.00311243               -0.01096926                0.00501739                0.11727882               -0.13320749
              27.59773800               15.93520555               95.20357133                0.00010000               19.33557174               -0.01829020                0.05062085              -11.71676183               24.92799302               -0.47433364
              28.98444919               15.13500335               95.27608426                0.00010000               39.38864524              -17.66363912               10.37666403              -11.24048866               50.61400784               -2.05628787
              30.38551090               14.43549282               94.94300473                0.00010000               37.35787733              -18.99124775               10.84412870               -1.53840061               38.72803720               -3.79730951
              31.73160673               13.86280867               94.26316227                0.00010000               31.59797818              -16.31917432                6.69418678                3.98638474               31.51590539               -3.83327100
              33.01747047               13.35286861               93.29405102                0.00010000               25.41451679              -11.21890147                0.02407080                5.35761937               24.91248303               -4.47186914
              34.23989707               12.87361234               92.05983332                0.00010000               20.02007577               -4.09001923              -10.90973730                4.98960094               14.67257775               -6.26959365
              35.41787198               12.40577073               90.57618452                0.00010000               18.29670210                5.34995202              -30.53039526                3.74607147                1.62700860               -9.24786933
              36.60583111               11.93948142               88.89884184                0.00010000               23.12220412               17.37573262              -63.58851539                2.02826437               -5.80567232              -12.94640754
              37.88031607               11.46649426               87.17957152                0.35891254               27.44849539               32.14589711             -110.98507501                0.58680739               -3.83482244              -15.84824091
              26.16308200               18.06608078               95.90664029                1.00000000                0.01034760                0.00949420               -0.03768229               -0.00375217                0.16303268                0.26889673
              27.16318548               17.50062083               95.48166820                0.73652000                0.01949505                0.00461880               -0.02134697               -0.01336639                0.31713061               -0.15169867
              28.16347190               16.93491800               95.05982907                0.35932114               25.57095646               -0.02875481                0.05510431              -22.75834988               31.35615974               -0.45509636
              29.67460461               15.91398603               95.25493241                0.36042774               42.13974584              -22.10173168               13.11394119              -15.60737141               63.77741714               -7.34256386
              31.00626682               15.24245973               94.96015777                0.36120234               30.21891013              -19.30330863               14.08714466                1.37323250               43.58739658               -7.14824470
              32.27898281               14.69993885               94.28726864                0.36089184               25.36116178              -16.28698251                9.88632701                4.74594225               31.88426143               -6.14125286
              33.51349006               14.24262643               93.30448358                0.36029705               21.08335145              -11.02421832                3.06176056                6.35217526               22.86978519               -5.57842991
              34.70064984               13.83494318               92.04553435                0.35927004               16.95072665               -3.86691573               -7.91625995                7.05957733               11.37309293               -5.68084495
              35.85250459               13.46231244               90.53009067                0.35838869               15.96904900                5.65417066              -27.48733857                7.56935513               -2.67458217               -6.14800903
              37.02003082               13.11706507               88.81533750                0.35827036               21.34256685               17.75836558              -60.61741901                8.12240176              -10.12174047               -6.31086512
              38.27935593               12.79636106               87.07550187                0.67917620               25.93251067               32.98667958             -108.36027288                7.83358450               -7.90838577               -3.64667009
              20.92681456                8.20539069               98.30970596                1.00000000                0.00263253                0.00892683                0.09082336               -0.04106487               -0.22375411                0.25942733
              21.92684089                7.64335579               97.90727609                1.00000000                0.04189224               -0.02423780                0.05479143               -0.06168408               -0.27595973                0.03585717
              22.92765241                7.08186365               97.50352953                1.00000000                0.09116536               -0.06531349                0.05543733               -0.03757411               -0.29583046               -0.02179098
              23.92866420                6.52230088               97.10038578                0.87464680                0.11024047               -0.03834483                0.04437508                0.05243668               -0.24890595               -0.05901847
              24.92985722                5.96498268               96.69729316                0.76633446                0.09152758               -0.00422584                0.05822098                0.04210511               -0.20144445               -0.03875791
              25.93049475                5.40929721               96.29512898                0.68680878                0.04093282                0.00906058                0.05970195                0.02928528               -0.08253390               -0.05420113
              26.93067587                4.85497994               95.89406713                0.62925102               -0.00501332                0.02552471                0.06189141               -0.01240692                0.02924151               -0.02114825
              27.93039448                4.30169040               95.49368883                0.58675199               -0.03518615                0.03321804                0.04451400               -0.06066362                0.04917197                0.01827638
              28.92997215                3.74882818               95.09285148                0.58534415               -0.02000368                0.03834970               -0.04064223               -0.08661103               -0.06665442                0.02161277
              29.92999441                3.19589029               94.69048154                0.61308566                0.04906594                0.06718660               -0.23796948               -0.07471407               -0.18625386               -0.05048754
              30.93095347                2.64318222               94.28789539                0.83412260                0.09590622                0.11169608               -0.49410599               -0.09607804               -0.17990783               -0.34682194
              21.48843881                9.20547995               98.16794906                1.00000000               -0.04512438                0.05847675                0.09627553               -0.04833553               -0.01959017                0.37424116
              22.48798756                8.64311341               97.76540735                1.00000000               -0.03173425               -0.00758323                0.05900430               -0.07074345               -0.00175963                0.05058505
              23.48780412                8.08121052               97.36312235                1.00000000               -0.01792585               -0.06709555                0.04365422               -0.00621383                0.04987918               -0.10856165
              24.48762905                7.52191743               96.96151201                1.00000000               -0.05120087                0.02092306                0.03112708                0.04012007                0.12286497               -0.03327841
              25.48678011                6.96494042               96.56063210                0.99513548               -0.09200368                0.03818224                0.00687124                0.03680935                0.18410820               -0.02075010
              26.48578897                6.40938781               96.16013954                0.80822970               -0.12124501                0.05633408               -0.02228887                0.03037549                0.27975364               -0.04015354
              27.48435521                5.85523518               95.76108910                0.68616458               -0.14626240                0.06673310               -0.01520602               -0.00052482                0.37809925               -0.01469993
              28.48286373                5.30202258               95.36277442                0.60049567               -0.11745537                0.05966244               -0.03364607               -0.04008837                0.41379470                0.01284652
              29.48200610                4.74921167               94.96418716                0.55359621               -0.03967400                0.04170028               -0.06934427               -0.06120909                0.38486567                0.00548853
              30.48207025                4.19656216               94.56431585                0.49739504                0.03473313                0.04754370               -0.11221650               -0.05175808                0.29301851               -0.08758503
              31.48270076                3.64429918               94.16269076                0.68355885                0.06305151                0.07280938               -0.28539961               -0.05182169                0.26444576               -0.39393867
              22.05058093               10.20656022               98.02818717                1.00000000               -0.08854766                0.13395276                0.07151747               -0.01648147                0.01451026                0.50591889
              23.04969546                9.64320413               97.62369853                1.00000000               -0.09284089                0.01277360                0.04942428                0.01160753                0.10178094                0.04678602
              24.04872411                9.08052174               97.22098329                0.00010000               -0.19793828               -0.14684910                0.03139798                0.32228523                0.42819153               -0.42112060
              25.04573669                8.52271934               96.82313358                0.00010000               -0.28005449                7.95865833                0.00489186               10.40614833                0.60243120               11.45243546
              26.04312302                7.96574633               96.42418472                0.00010000               -0.24645958                8.64362284               -0.04137992               16.88544238                0.55994028               12.77108997
              27.04080750                7.41042389               96.02543198                0.00010000               -0.25462101                7.26283001               -0.09006992               22.83699245                0.66856770                8.35482017
              28.03803060                6.85631460               95.62841767                0.00010000               -0.25956365                4.69488159               -0.06164268               27.80574064                0.75061970                0.38332262
              29.03561623                6.30288365               95.23206958                0.00010000               -0.19111030                0.86647716               -0.05907783               30.48955306                0.77448894              -11.45541689
              30.03420840                5.74966218               94.83550143                0.00010000               -0.08722428               -5.22102374               -0.05907367               31.11791060                0.73700669              -29.43588997
              31.03387174                5.19684116               94.43730961                0.00010000                0.01172954              -15.53410727               -0.10521551               33.58529601                0.60905936              -55.53966812
              32.03444299                4.64463841               94.03619245                0.35734925                0.05712494              -44.03448178               -0.49982188               49.83237283                0.75235963              -86.79648492
              22.61482137               11.20815901               97.88863423                1.00000000               -0.05631713                0.14876491                0.04434428                0.04361202                0.01875643                0.53336544
              23.61425819               10.64336889               97.48165121                1.00000000               -0.00433754               -0.00356987                0.03244559                0.06016471                0.00947863                0.01096834
              24.61473461               10.07827354               97.07447467                0.00010000                9.81346168               -0.19175859                0.02001371                8.50274394               12.33420201               -0.59888589
              25.81052743                9.68109060               96.91389856                0.00010000               16.10248963                9.75336347                5.05725560               26.08323550               25.88151325               23.81577833
              26.93678441                9.13781288               96.54317716                0.00010000               12.07165624               11.72392691                2.63906685               31.49702221               20.21319039               25.50930315
              28.05196055                8.55464441               96.05813774                0.00010000               10.56129228                9.81259759                0.44781762               41.88198662               22.79819281               16.65681559
              29.14801025                7.94913282               95.50305208                0.00010000                7.36733263                5.87875349                0.84678925               50.96981273               25.07408219                1.07708335
              30.19930721                7.31935213               94.87180444                0.00010000                3.11982737               -0.21979069                1.74525873               55.42910111               21.51668439              -21.66284969
              31.21040680                6.64479120               94.11838565                0.00010000                2.97463685              -10.09008842               -0.55861296               54.20867443                8.85684890              -55.61373980
              32.25879994                5.88588001               93.20244040                0.00010000               18.66734664              -28.46436112              -13.88358695               39.29673647               -7.30060686             -105.42464204
              33.58375373                4.76360954               92.18470987                0.35744053               32.49537912              -61.74649736              -45.79642864               35.47561446               -6.22211620             -184.58804680
              23.18103342               12.20953552               97.74900820                1.00000000               -0.02491953                0.11058554                0.02432375                0.04167759                0.00269842                0.53566564
              24.18078422               11.64313273               97.33916610                1.00000000                0.00119314               -0.01840789                0.01754802                0.05980501                0.00631641               -0.00884972
              25.18105728               11.07668657               96.92934154                0.00010000               16.35389154               -0.13217479                0.01023648               10.42096802               18.58835198               -0.54362390
              26.50786205               10.71778661               96.89108784                0.00010000               30.92261870                0.22196062                6.39473465               24.76658654               40.24392266               16.29034491
              27.79950966               10.20022487               96.52854870                0.00010000               27.96326215                1.33223808                2.57249589               27.98915180               35.07745989               17.62422590
              29.06712730                9.60667584               95.96542807                0.00010000               24.66047440                0.77998194               -0.91339477               36.89186595               39.70498269                9.90279838
              30.29271914                8.97388967               95.27019012                0.00010000               19.07062845               -0.86739499               -1.45541167               45.65088530               43.37294167               -3.67664805
              31.44853987                8.29848784               94.43409939                0.00010000               12.95674310               -3.78061631               -2.16833993               50.43318387               38.71621579              -23.29891670
              32.55185401                7.54786041               93.39892856                0.00010000               12.62241290               -8.97689505               -8.55817599               47.26292622               22.98251875              -51.32663733
              33.70098812                6.62755394               92.12243002                0.00010000               21.83211036              -17.76230349              -30.49470993               31.05334178                5.68147894              -93.35667011
              34.98849621                5.40970846               90.70654036                0.35766917               28.75080883              -18.84635660              -75.06199577               14.86963319                1.47477870             -157.70349558
              23.74846049               13.21037072               97.60929266                1.00000000               -0.01572515                0.06379690                0.01176860                0.03719232                0.00718064                0.52847151
              24.74830324               12.64300073               97.19677276                1.00000000                0.00198001               -0.01190314                0.01104061                0.04678157                0.01095527               -0.00778926
              25.74850009               12.07563004               96.78426995                0.00010000               21.70088093               -0.08296794                0.00701722                8.90097881               22.07574542               -0.54158417
              27.18232086               11.68552981               96.81294890                0.00010000               42.95890600               -5.41728352                6.29368814               20.61255874               48.64988058               10.50215329
              28.60767821               11.16445764               96.44072794                0.00010000               41.69061038               -7.17476909                1.77110519               22.25183418               43.45088153               11.08838712
              30.01613307               10.57024405               95.81046539                0.00010000               38.07688721               -7.38414968               -2.52321999               28.96263684               49.37402232                5.16708245
              31.36921596                9.93178492               94.99716632                0.00010000               30.89335347               -7.09100382               -4.18230721               35.81070596               53.69137936               -5.64471831
              32.63400014                9.24373980               93.99288845                0.00010000               22.86916324               -6.75684104               -6.86286309               38.56292552               48.65469446              -21.44481273
              33.82659922                8.46525330               92.73802618                0.00010000               19.20092969               -6.50695515              -16.85299159               33.67903314               32.02090875              -44.26090951
              35.01801873                7.53063394               91.19836940                0.00010000               24.51190693               -3.78425070              -44.39588250               19.03877932               11.56366071              -77.94281955
              36.31683736                6.38668241               89.46585407                0.35787371               29.88186297                6.87458076              -97.11200759                9.63611341                4.51399088             -127.46302836
              24.31651725               14.21081146               97.46951916                1.00000000               -0.00567134                0.02884550                0.00227434                0.02755860                0.01191247                0.51393341
              25.31646053               13.64289467               97.05434935                0.93120638                0.00152639               -0.01008952                0.01247152                0.03872078                0.02054828               -0.02170403
              26.31654778               13.07502721               96.63929564                0.00010000               25.74125455               -0.04286532                0.02119380                5.14568561               24.03895031               -0.54665100
              27.83128563               12.60944094               96.70432645                0.00010000               52.16421617               -9.30243593                5.90364545               12.81697392               53.24403433                5.46840648
              29.35983210               12.05672948               96.32009426                0.00010000               52.38835681              -13.57392952                0.91036077               15.18260723               47.76264056                5.39369423
              30.87905276               11.45899285               95.63692107                0.00010000               48.78027064              -14.06094301               -3.86939031               20.99088506               54.15747259                1.18295303
              32.33543751               10.83206959               94.73221726                0.00010000               40.36386173              -12.17513978               -6.38501549               26.16348867               58.75124866               -6.58283060
              33.68633000               10.16335102               93.59831367                0.00010000               30.15515089               -8.75468837              -10.63560252               27.27136928               53.52905570              -18.37065066
              34.93854053                9.41772131               92.17769339                0.00010000               23.70023001               -3.36808793              -23.12473403               22.19131173               35.93611113              -35.63907072
              36.16033460                8.55186893               90.43802338                0.00010000               26.52905046                5.81231345              -54.29850324               11.61993657               13.56473722              -60.88721271
              37.46912154                7.54720007               88.47588103                0.35812732               30.87869425               20.95849018             -111.71506685                5.63237021                5.21689410              -95.73569150
              24.88484525               15.21094763               97.32957197                1.00000000                0.00166591                0.00603988               -0.00739912                0.01668382                0.01799155                0.48625811
              25.88486190               14.64279894               96.91174904                0.81229924                0.00111445               -0.00757724                0.01445929                0.02862246                0.03889309               -0.05572395
              26.88486753               14.07477273               96.49428911                0.00010000               28.60480810               -0.01674912                0.04621079               -0.33181323               25.37480723               -0.58671579
              28.45695807               13.49948109               96.58296449                0.00010000               58.84554598              -12.65075465                5.46735558                2.64961167               56.38877303                1.22162850
              30.06177845               12.89297905               96.19294453                0.00010000               60.18262984              -18.89718931                0.27683056                7.69306944               50.80656433                0.45883788
              31.66061066               12.28902519               95.47555186                0.00010000               56.31745527              -19.27580651               -4.69746916               14.50853650               57.23082717               -2.09975123
              33.18812756               11.68828212               94.50691198                0.00010000               46.65825720              -15.76208213               -7.74191384               18.90766190               61.56254397               -6.98980086
              34.59377581               11.06864603               93.27963916                0.00010000               34.68899955               -9.78189426              -13.02508368               19.20186622               55.76061160              -14.90270147
              35.88190755               10.39789154               91.73905887                0.00010000               26.35814466               -1.02852381              -27.10158175               15.04334030               37.29173060              -26.82616497
              37.12093870                9.64688021               89.85710126                0.00010000               27.84574614               11.65630843              -60.42674815                7.65090614               13.86768283              -43.93154739
              38.43882247                8.80585221               87.73863156                0.35774940               31.78837728               28.61889327             -120.46796235                3.70044006                5.13689664              -66.62334305
              25.45314831               16.21093225               97.18930019                1.00000000                0.00595717               -0.00058573               -0.01735653                0.00622139                0.02384014                0.44304651
              26.45320788               15.64274312               96.76876289                0.70150964                0.00405245               -0.00266411                0.00544622                0.01583717                0.05236215               -0.10876094
              27.45322936               15.07469223               96.34876030                0.00010000               30.64318299               -0.00898992                0.05232659               -7.48146253               26.84683902               -0.58271993
              29.06607154               14.35642585               96.46379688                0.00010000               63.54600162              -16.88452164                5.26718809               -9.52548742               59.83397108               -2.34199427
              30.72414939               13.67878570               96.08294049                0.00010000               65.39244425              -24.28022934                0.29503921                1.59798599               54.28351056               -3.26455314
              32.37392042               13.07347672               95.35315566                0.00010000               60.49102584              -22.83898666               -4.57673530               10.04125813               60.20837011               -4.26481157
              33.93396991               12.51682795               94.34585766                0.00010000               49.34187394              -17.70067710               -7.92296140               13.75826956               63.40973889               -6.44293335
              35.36075790               11.96771313               93.05651790                0.00010000               36.36016274              -10.04595437              -13.86545138               13.47648569               56.59658258              -10.92128615
              36.66117316               11.39715083               91.43500579                0.00010000               27.23170697                0.52557723              -28.91564376               10.42415749               37.39392978              -18.07623299
              37.90539204               10.78499510               89.45994130                0.00010000               28.20065842               15.00581703              -63.53965404                5.53580198               13.59699188              -28.07063353
              39.22518633               10.11957794               87.24406294                0.35789445               31.97942867               33.31455849             -125.19372001                2.58141307                4.86169769              -40.64540083
              26.02134794               17.21093591               97.04855846                1.00000000                0.00707368                0.00288315               -0.02604706                0.00200077                0.02558977                0.34146594
              27.02141867               16.64274566               96.62522812                0.51128834                0.01038113                0.00116439               -0.01132513                0.00472907                0.13325790               -0.15116525
              28.02155556               16.07459293               96.20403996                0.00010000               32.04680873               -0.03756659                0.03192302              -17.18659658               29.57098072               -0.50006499
              29.66235485               15.16179066               96.36880617                0.00010000               67.75658729              -26.04338733                5.63885970              -16.21355029               65.42090202               -3.04914155
              31.37668730               14.40737447               96.02492775                0.00010000               68.05193633              -27.55279937                1.44161417               -1.46152010               59.84961376               -4.66652277
              33.02339357               13.83224546               95.29926140                0.00010000               59.61846137              -24.08379036               -3.16437280                6.54551604               63.06899371               -3.96266573
              34.56905653               13.33426858               94.27285008                0.00010000               47.97945314              -18.06088502               -6.68462385                8.30831152               64.24711520               -4.18379033
              35.98298264               12.86772695               92.94551819                0.00010000               35.20261028               -9.80907547              -12.95541093                7.72047238               56.10597155               -5.97081799
              37.27310874               12.40840308               91.27338983                0.00010000               26.31224985                1.35111216              -28.40017759                5.99963289               36.30276645               -9.23846331
              38.50922763               11.94699655               89.24301918                0.00010000               27.40881546               16.48504076              -63.63203028                3.46778640               12.95706682              -13.60224440
              39.82128505               11.47214338               86.98070761                0.35791251               31.20574129               36.24015789             -126.40663028                1.27290001                4.68233766              -17.84127223
              26.58956884               18.21098992               96.90634908                1.00000000                0.00765987                0.00540020               -0.02135781               -0.00026015                0.14903918                0.26293238
              27.58964544               17.64276641               96.48148333                0.68963210                0.04417900                0.00207546               -0.01191368               -0.02977429                0.33885332               -0.16628950
              28.59045242               17.07394090               96.06042734                0.35904401               40.96867808               -0.06520386                0.06735289              -33.47072923               37.49289069               -0.53349602
              30.40901900               15.83555810               96.37581856                0.36010987               71.70058835              -32.62325587                8.42036589              -22.64414384               81.03475721              -10.12851480
              32.02446419               15.12772971               96.07420336                0.36085693               58.44588154              -27.96447554                4.46407921                2.58982879               65.03982202               -8.80591980
              33.57793663               14.59180091               95.35424025                0.36071622               52.00952289              -24.04445491               -0.30835403                6.84833277               63.21705231               -7.22559489
              35.06465465               14.15561025               94.31287029                0.36009660               43.15481068              -17.86583292               -3.99435564                8.54634723               62.36656188               -6.38396742
              36.44103285               13.77153162               92.96155665                0.35893032               31.86207845               -9.61953229              -10.04171534                9.23316231               53.53611930               -6.73849803
              37.70189622               13.42417308               91.26026537                0.35796014               23.49873110                1.57699940              -24.98518085               10.03696209               33.01303322               -7.70644495
              38.91100747               13.11469591               89.19449127                0.35754985               24.92272221               16.76993607              -59.60138708               11.18838444                9.34462685               -8.50794317
              40.20035066               12.84438110               86.90847791                0.67871388               28.93431913               37.22377121             -122.44969107               10.87507989                0.85556399               -5.56555460
              21.32741508                8.34954999               99.31039576                1.00000000                0.01616437                0.02706707                0.04471776               -0.03551857               -0.17199661                0.21271092
              22.32757673                7.78555312               98.90765183                1.00000000                0.05465824               -0.01618209                0.01881427               -0.05973650               -0.20959730                0.03016893
              23.32850825                7.22218862               98.50399208                1.00000000                0.10273733               -0.06548330                0.03229997               -0.03381662               -0.22807962               -0.00759876
              24.32963147                6.66082948               98.10077911                0.87744092                0.11554040               -0.03708922                0.02929565                0.04587298               -0.19097790               -0.02575289
              25.33081906                6.10158270               97.69778894                0.71157487                0.10271975                0.00052555                0.04002112                0.04782616               -0.12686332               -0.02384199
              26.33168587                5.54418797               97.29572617                0.60981489                0.06932554                0.00499274                0.05715775                0.04204874                0.03143316               -0.03376317
              27.33220557                4.98830028               96.89486088                0.55146136                0.02396819                0.00722775                0.10059638               -0.01675941                0.19445933                0.06019676
              28.33216523                4.43339267               96.49447073                0.51491794               -0.02833956                0.00451568                0.11528330               -0.08133626                0.20939694                0.12573569
              29.33163877                3.87798271               96.09278583                0.50807750               -0.04714624                0.00944285                0.03386752               -0.11893557               -0.01107965                0.09460838
              30.33122231                3.32080829               95.68800119                0.52087086                0.03106565                0.05692643               -0.20542336               -0.10885000               -0.27195394               -0.01552327
              31.33226009                2.76252534               95.28196765                0.77496291                0.10377812                0.09165859               -0.60008005               -0.11654458               -0.34799092               -0.60106174
              21.89105676                9.34982066               99.16876781                1.00000000               -0.03967173                0.08067267                0.06078407               -0.04420762               -0.00518175                0.31887713
              22.89066005                8.78539130               98.76590533                1.00000000               -0.02624323               -0.00072147                0.03963173               -0.06808690                0.02161722                0.04159723
              23.89053190                8.22153378               98.36351058                1.00000000               -0.01334433               -0.07229330                0.03704164                0.00182933                0.08103524               -0.08933267
              24.89039316                7.66045859               97.96177904                1.00000000               -0.04569146                0.02179401                0.02347073                0.04063257                0.14724911               -0.00087689
              25.88961807                7.10158795               97.56056181                0.84364700               -0.08227981                0.04432869               -0.01755324                0.04261137                0.21349468               -0.01207711
              26.88874756                6.54423790               97.15982377                0.58968532               -0.10912237                0.05388681               -0.03860657                0.04626976                0.34343909               -0.03573082
              27.88743562                5.98837256               96.76088008                0.45027519               -0.11184556                0.06277136               -0.06096721               -0.00207605                0.51424791                0.05610725
              28.88651065                5.43343783               96.36230611                0.36170629               -0.03470083                0.03641934               -0.11534731               -0.07044113                0.69043369                0.14177231
              29.88674161                4.87807714               95.96330132                0.30161661                0.06759194                0.00711028               -0.14935903               -0.13826270                0.85398526                0.10935677
              30.88786249                4.32137756               95.56309773                0.24253875                0.13179962                0.02505278               -0.13910559               -0.16834228                0.76998015               -0.16461878
              31.88937760                3.76344192               95.15901615                0.55021064                0.15151068               -0.03119420               -0.37516932                0.01139432                0.68681030               -1.13325409
              22.45538965               10.35116344               99.02878241                1.00000000               -0.08877848                0.15995788                0.03557959               -0.01043319                0.02278204                0.44873687
              23.45450186                9.78553869               98.62415493                1.00000000               -0.09560530                0.01776614                0.03982551                0.02351335                0.11247743                0.02987329
              24.45347754                9.22074275               98.22131740                0.00010000               -0.20559560               -0.16760216                0.04442075                0.36302938                0.43194790               -0.40868185
              25.45038995                8.66126536               97.82317772                0.00010000               -0.27927860               11.78956729                0.01118473               17.95350319                0.59515962               13.77013703
              26.44789197                8.10246927               97.42362766                0.00010000               -0.22816463               12.36795221               -0.07291349               31.14101193                0.58553478               12.90977403
              27.44582666                7.54526571               97.02441200                0.00010000               -0.24639262               10.80617239               -0.09923882               44.98135954                0.74211408                7.11289763
              28.44296412                6.98955570               96.62769002                0.00010000               -0.23874164                8.09734172               -0.09710153               56.04538435                1.02721721               -0.04728386
              29.44105183                6.43412106               96.23131404                0.00010000               -0.10151651                4.22973428               -0.16224054               63.06657392                1.59968062              -10.48843331
              30.44093379                5.87812491               95.83463319                0.00010000                0.07194239               -2.47702985               -0.43863770               65.17445075                2.77912692              -28.43789039
              31.44249068                5.32130935               95.43568440                0.00010000                0.37127283              -15.50687751               -1.01267865               65.43580998                4.38110818              -61.69406249
              32.44835925                4.76190145               95.02757295                0.35700743                0.58685703              -61.07396313               -6.60410952               84.44541646               10.49328199             -119.84783092
              23.02209760               11.35301982               98.88899189                1.00000000               -0.05465956                0.16841157                0.01760382                0.05146722                0.02505933                0.49342119
              24.02155101               10.78574662               98.48196425                1.00000000               -0.00158930               -0.00194745                0.02700717                0.07051869                0.01794189               -0.00404029
              25.02206582               10.21818174               98.07474520                0.00010000               17.30928476               -0.21617823                0.04146406               12.40368295               14.61864520               -0.59454578
              26.36773670                9.89624994               97.95969031                0.00010000               30.31860726               13.94853135                1.38055437               42.07949220               34.54251252               28.18885494
              27.62843796                9.34894700               97.54496976                0.00010000               26.67758096               16.83843422               -8.18595484               56.83371760               40.23328409               26.36246980
              28.90128832                8.76036135               97.03163597                0.00010000               24.55250008               14.88023338               -8.53198981               80.76591703               52.75452537               15.23078459
              30.11948796                8.15031939               96.49272172                0.00010000               17.89923008               10.92692755               -5.91316342              100.67704456               63.25723307                0.86410881
              31.25927292                7.51803251               95.88897054                0.00010000                9.17771827                4.88565016               -2.18164156              112.60872579               66.67382938              -19.12719159
              32.30304233                6.82853654               95.13653461                0.00010000                2.67646151               -5.79247014                0.93972673              113.11725334               56.49510925              -51.76717580
              33.31280215                6.01124001               94.08591248                0.00010000               19.70296966              -29.54895028               -7.19749287               82.64113805               26.43222624             -110.66491247
              34.69710172                4.54196266               92.65630418                0.35689878               38.42995687              -78.83922879              -59.58517010               64.99960006                9.75443406             -228.42288318
              23.59096538               12.35453167               98.74920383                1.00000000               -0.02150667                0.11761097                0.00923892                0.04586127                0.00763822                0.50938725
              24.59075032               11.78549974               98.33933653                1.00000000                0.00412531               -0.01938465                0.01425016                0.06475440                0.01389241               -0.01544519
              25.59104789               11.21641918               97.92949397                0.00010000               28.52321110               -0.14173044                0.01615969               14.69322778               21.05296934               -0.53243190
              27.16121454               10.94023599               97.94036113                0.00010000               56.47035107               -0.28770130               -2.21066143               37.81912899               55.20405050               18.02234834
              28.72045491               10.43923796               97.50987399                0.00010000               54.92790348                2.02922308              -13.33108740               47.28466930               66.46091734               18.16748284
              30.25977261                9.84287038               96.90603089                0.00010000               48.91894679                2.00407857              -14.21358732               64.76435530               84.77392624               10.01050056
              31.69883385                9.20809426               96.22156036                0.00010000               37.76182928                0.74864674              -11.42849981               81.31376122               97.65097526               -2.80937059
              33.01500919                8.53183406               95.40211144                0.00010000               25.56187568               -1.97714879               -7.74679426               91.40390990               98.04216915              -21.03634567
              34.21007136                7.76227551               94.33054584                0.00010000               18.34390613               -7.64119632               -7.49836790               87.76887054               79.71547259              -48.27497202
              35.38188732                6.73033034               92.82963997                0.00010000               23.84172914              -18.71795230              -24.73427127               60.10558934               43.21185032              -94.25232855
              36.68690594                5.18511688               90.87429556                0.35721225               30.50186266              -14.60712839              -88.57641040               31.03165968               18.87946348             -174.89648637
              24.16107869               13.35537204               98.60939536                1.00000000               -0.01201072                0.06209800                0.00611858                0.03898363                0.00984940                0.50547640
              25.16095858               12.78535893               98.19686513                1.00000000                0.00577171               -0.01399016                0.00760137                0.04890362                0.01547704               -0.00593457
              26.16119413               12.21534713               97.78433204                0.00010000               37.01709635               -0.08941483                0.00541895               12.30109723               24.00751889               -0.51304842
              27.90130051               11.89049591               97.85157574                0.00010000               75.51514172               -7.93737201               -4.52701113               29.95910019               63.20660025               10.26349515
              29.67149696               11.38953146               97.40286781                0.00010000               76.32093081               -9.95117364              -16.49954209               34.72520928               75.93937753               11.09885531
              31.42771913               10.80044292               96.72528004                0.00010000               69.26512728               -9.69786439              -17.34840826               46.80444887               96.35733840                5.84808256
              33.05679951               10.16529232               95.91440813                0.00010000               55.27253697               -8.93924902              -14.97836696               58.82096560              110.16278715               -3.64747925
              34.53316987                9.47848954               94.90976838                0.00010000               40.15619751               -8.38502990              -12.63786036               64.72072200              109.85892438              -17.68189262
              35.85992346                8.67571261               93.58347133                0.00010000               27.94513542               -8.16422210              -15.45126743               58.15176325               89.93860684              -38.83186754
              37.09207258                7.63688096               91.76161420                0.00010000               27.41191972               -3.73097185              -38.27556439               34.25289248               49.34400271              -73.21001372
              38.40816185                6.24982009               89.40943790                0.35738996               31.60892751               15.02004583             -109.51209830               18.05734738               22.37573390             -131.03545131
              24.73177127               14.35577363               98.46955026                1.00000000               -0.00179746                0.02545783                0.00294741                0.02806357                0.01223018                0.48798215
              25.73175330               13.78521994               98.05444483                1.00000000                0.00807922               -0.01530686                0.00736487                0.03479877                0.02097613               -0.01499645
              26.73193285               13.21463089               97.63941911                0.00010000               42.72294592               -0.05997852                0.00977834                6.90106755               25.49510309               -0.48372205
              28.58621221               12.78148855               97.73368818                0.00010000               88.65396161              -12.96704974               -6.57698977               17.99024429               67.21509330                4.82780107
              30.50501209               12.24021448               97.26710788                0.00010000               91.69442530              -18.62531942              -18.95655920               22.80915520               80.28951572                5.13449256
              32.42010072               11.64891309               96.53343340                0.00010000               84.60972279              -19.26597316              -19.71822977               32.37917972              101.41623329                1.96540268
              34.19720654               11.02930928               95.62470607                0.00010000               68.94513129              -17.12007927              -17.64011837               41.09208004              115.48607507               -4.33308932
              35.79900335               10.36413346               94.47651769                0.00010000               50.87543289              -13.45499293              -16.25666595               44.05067647              114.92612731              -14.32110372
              37.21471520                9.59899107               92.96108614                0.00010000               34.69171710               -7.42011840              -20.93105921               37.28269057               93.90988976              -29.67078987
              38.49283769                8.65571091               90.90495839                0.00010000               30.37297153                4.46658250              -46.39350982               20.64782508               51.13375814              -54.27898968
              39.82217463                7.48551779               88.27982379                0.35701584               32.93369430               26.49811269             -120.69494520               10.63297660               22.88172108              -92.92498693
              25.30274735               15.35588119               98.32951881                1.00000000                0.00499527                0.00269146               -0.00068747                0.01890454                0.01929674                0.46104501
              26.30279731               14.78505279               97.91187314                0.82804743                0.00997572               -0.01578265                0.00977578                0.02025222                0.04299317               -0.05793262
              27.30294687               14.21414756               97.49469686                0.00010000               46.63622485               -0.03761660                0.02685765               -0.58460517               26.40532407               -0.51058978
              29.23552180               13.63115491               97.60411719                0.00010000               97.86543286              -17.34556517               -7.91254941                3.94330903               69.80836783                0.41786755
              31.26025552               13.01702507               97.12950887                0.00010000              102.53430637              -25.76020373              -20.45113036               12.00540238               83.36789000                0.18268119
              33.28620793               12.41512346               96.36091846                0.00010000               95.15826052              -26.57982626              -21.08450369               22.18230419              104.60950199               -1.32377269
              35.16342073               11.82289074               95.38447184                0.00010000               77.91468370              -22.85507971              -19.21031783               28.95167738              118.35956887               -4.98509025
              36.84450160               11.20938968               94.13418546                0.00010000               57.52895440              -16.58473249              -18.45003779               30.09798117              117.20993406              -11.51261080
              38.31399982               10.52731024               92.48494123                0.00010000               38.70003749               -6.97666464              -24.14582254               24.50075825               95.31894514              -21.95442505
              39.61850235                9.72621261               90.26798042                0.00010000               32.36038935                8.32544624              -50.92613240               13.13530803               51.37325835              -38.29914195
              40.96120761                8.77978234               87.46416929                0.35714493               34.27052565               30.64706275             -126.67519645                6.78004943               22.71274979              -62.93272146
              25.87380616               16.35582746               98.18916655                1.00000000                0.00858108               -0.00574628               -0.00394578                0.01191709                0.02434740                0.42078277
              26.87389197               15.78490429               97.76879902                0.64136909                0.01662332               -0.01109464                0.00035346                0.00875998                0.06284201               -0.12918284
              27.87413863               15.21387856               97.34920423                0.00010000               49.41544552               -0.03051764                0.02784478              -10.38471710               27.68561032               -0.55033255
              29.86220088               14.43457725               97.48084214                0.00010000              104.35064818              -23.45780355               -8.43532385              -12.62052538               73.22524995               -3.39351560
              31.96115159               13.72501041               97.01833585                0.00010000              109.78401256              -33.30627874              -20.62110020                3.72658743               87.20875405               -3.53925624
              34.05788113               13.11731656               96.23899169                0.00010000              101.04111383              -31.63263429              -21.09055742               15.30268068              107.76070549               -3.38557937
              35.98197387               12.57220768               95.22124743                0.00010000               81.93311643              -26.03552825              -19.47355824               20.39287451              120.19764277               -4.80943703
              37.69654346               12.03243881               93.90291359                0.00010000               60.29667812              -18.01162239              -19.21259271               20.21126247              118.03224231               -8.62141541
              39.18790743               11.45945778               92.16417622                0.00010000               40.32641424               -6.57841832              -25.55659937               16.11037622               95.43835038              -15.08694646
              40.50307175               10.82221983               89.84283850                0.00010000               33.13643601               10.33369760              -53.14356845                8.90767905               51.06685224              -24.89493390
              41.85063615               10.09845905               86.92768578                0.35697134               34.75644032               33.27357478             -129.84285206                4.49283866               22.42602771              -39.22273390
              26.44483205               17.35576627               98.04833702                0.97742251                0.00893634               -0.00346337               -0.01747451                0.00586868                0.02261155                0.32196401
              27.44492141               16.78483090               97.62512433                0.40293817                0.03737587               -0.00598316               -0.00769930               -0.01183766                0.13973018               -0.16802823
              28.44557957               16.21353721               97.20420979                0.00010000               51.35290153               -0.12026190               -0.02020012              -23.89880948               30.64598745               -0.52958374
              30.47197944               15.16199884               97.38886145                0.00010000              110.32341945              -36.85931398               -8.23737737              -22.16574290               79.99171328               -4.40225928
              32.65204795               14.35089950               96.97183701                0.00010000              113.65424141              -37.86101458              -18.90017478               -0.60190498               93.63796741               -4.98979628
              34.74506427               13.78247077               96.19987481                0.00010000              100.20540112              -33.59236602              -19.47155620                9.90282335              110.74607683               -3.06473871
              36.65615598               13.30218017               95.16035854                0.00010000               80.82062442              -26.86505069              -18.33548592               11.91087429              120.95995984               -3.05383180
              38.36147676               12.84915723               93.80072510                0.00010000               59.51351753              -18.21712527              -18.45763378               11.04976920              117.71403640               -4.81742931
              39.84642633               12.39574188               92.00818096                0.00010000               39.80889520               -6.25126646              -25.11500467                8.78262677               94.68799562               -8.05693699
              41.15765466               11.93288656               89.62620124                0.00010000               32.60798111               11.08710972              -53.04614186                5.25755131               50.45978337              -12.62473061
              42.49858595               11.44525384               86.65143892                0.35654998               34.09312873               36.55251554             -130.91417585                2.12961583               22.19080998              -18.81955387
              27.01579427               18.35575820               97.90621313                0.94767287                0.00900084               -0.00080719                0.00059906               -0.00113488                0.12899613                0.23962781
              28.01588428               17.78478462               97.48142993                0.61742153                0.16001116               -0.00462766               -0.00840148               -0.11795699                0.36037525               -0.16865376
              29.01899450               17.21147332               97.06117613                0.35886576               63.28197284               -0.20638889                0.01765286              -47.02818989               40.61458493               -1.08815835
              31.28152374               15.69739097               97.42333973                0.36008634              115.48235353              -46.46078777               -5.68775968              -31.22973056               99.07966180              -12.87515489
              33.32864157               14.96779012               97.04943935                0.36076405              101.15665930              -38.31093787              -15.52784330                5.06327499               98.23455783              -10.29319256
              35.30465692               14.44546924               96.28110156                0.36056305               91.24316650              -33.70015272              -17.06018099                9.31509282              110.14503690               -7.18728084
              37.15350490               14.03490667               95.22459647                0.35998184               75.96601100              -26.72735066              -16.31377883               10.86624500              119.43941880               -6.57057796
              38.82397714               13.66809631               93.84470004                0.35895408               56.31628688              -18.10609237              -16.00353457               11.22632739              116.57998942               -7.63913707
              40.27983063               13.33443245               92.03038705                0.35765795               36.73668346               -6.13094320              -21.72541937               12.13371652               93.48132153               -9.41940463
              41.55871081               13.04396202               89.62330976                0.35680454               29.43316398               11.10754620              -48.69256410               14.85946055               49.08027815              -11.20179707
              42.86849391               12.82950936               86.62650805                0.67846096               30.97831005               38.42555174             -126.41030146               15.54552959               21.01531680              -11.84639240
              21.72886250                8.49290081              100.31060031                1.00000000                0.01901238                0.05700320                0.00527745               -0.02510038               -0.09618162                0.12789035
              22.72905262                7.92745217               99.90765237                1.00000000                0.05505159               -0.00099161               -0.00963732               -0.04885510               -0.12170529                0.01671001
              23.72996353                7.36267468               99.50417553                1.00000000                0.09975780               -0.05761329                0.00272612               -0.02455223               -0.13982905                0.00329441
              24.73104778                6.79978596               99.10097169                0.81416970                0.12046828               -0.02846806                0.00388407                0.06177389               -0.11631238                0.00299846
              25.73237290                6.23896011               98.69809358                0.61179845                0.15018475               -0.00999477                0.00578780                0.09527627               -0.02071728               -0.00534496
              26.73405147                5.68042674               98.29627214                0.50256609                0.17237994               -0.04393762                0.02510067                0.08806817                0.22158113                0.03621831
              27.73582050                5.12414546               97.89607906                0.45964569                0.13029972               -0.06172789                0.09863441                0.03911390                0.46933995                0.16933398
              28.73665747                4.56853436               97.49599450                0.44500815                0.01998018               -0.05196435                0.12596697                0.03656296                0.45100833                0.19046049
              29.73622010                4.00968935               97.09352883                0.44186223               -0.06419816               -0.01379023                0.05667635                0.05002724                0.15680165                0.10584161
              30.73537351                3.44538674               96.68637307                0.43888725               -0.00796853                0.01998314               -0.10621108                0.00688268               -0.17382211                0.07995561
              31.73606073                2.87706397               96.27589379                0.72090366                0.06872234               -0.10351727               -0.44136877                0.02166238               -0.33779108               -0.51776402
              22.29406014                9.49347084              100.16916474                1.00000000               -0.03829977                0.12050312                0.01570946               -0.03140665                0.01310979                0.20652478
              23.29367714                8.92744226               99.76619999                1.00000000               -0.02545108                0.01452492                0.01908023               -0.05074484                0.03722791                0.02216601
              24.29355111                8.36209855               99.36386318                1.00000000               -0.00771672               -0.07805999                0.03112018                0.02178874                0.07196971               -0.05873105
              25.29352280                7.79950128               98.96198142                1.00000000               -0.02729205                0.02124256                0.01373216                0.05217286                0.11056157                0.02445059
              26.29300527                7.23886016               98.56028104                0.56838014               -0.05916613                0.02868722               -0.02671042                0.08563127                0.19978952               -0.00531776
              27.29233948                6.67998736               98.15936741                0.28581119               -0.04237247                0.02214524               -0.07441375                0.11019814                0.42117008                0.05333393
              28.29215782                6.12352818               97.75986976                0.17796328                0.09558375               -0.03090917               -0.20300017                0.19398825                0.74665277                0.31076459
              29.29425116                5.56801472               97.36046748                0.13698896                0.30681795               -0.10419050               -0.27901081                0.50162317                1.13391424                0.39857304
              30.29829418                5.00955145               96.96119998                0.10100764                0.37519317               -0.10091285               -0.25946588                1.33861698                1.49872176               -0.02570192
              31.30175502                4.44558657               96.56153374                0.04249100                0.31529685               -0.26207881               -0.19998458                2.98289992                1.43933742               -0.94487634
              32.30460012                3.87602880               96.15518738                0.44019592                0.28451000               -6.33351079               -0.38512895                9.26776309                1.27991133               -7.14909865
              22.86029154               10.49531087              100.02889876                1.00000000               -0.08815199                0.20675848               -0.01344629                0.00906469                0.03275149                0.31765720
              23.85941002                9.92774267               99.62449504                1.00000000               -0.09756310                0.03321119                0.02790328                0.04945953                0.10568283                0.01868352
              24.85834028                9.36111348               99.22187171                0.00010000               -0.20402004               -0.19462522                0.07692558                0.41492447                0.35812616               -0.33882462
              25.85532962                8.80021081               98.82335728                0.00010000               -0.23704181               16.40915032                0.02871336               30.80253466                0.45576299               12.86231779
              26.85359944                8.23953386               98.42272645                0.00010000               -0.18711018               16.99778917               -0.08077773               62.85789937                0.52880513                4.68258113
              27.85158742                7.68086964               98.02344721                0.00010000               -0.09632695               14.88269273               -0.26340165               87.54765189                1.20512163               -0.00023503
              28.85167290                7.12352728               97.62647564                0.00010000                0.45396263               12.45082345               -2.18011536              107.46217105                7.79161765               -5.37958581
              29.86066667                6.56645055               97.22882477                0.00010000                1.68738399                9.89980904               -6.79228886              123.94317825               33.76436574              -11.57664365
              30.88542058                6.00767109               96.82672868                0.00010000                3.39437388                5.19917925              -12.85091981              135.93837411               72.95867956              -23.12020563
              31.92855415                5.44014516               96.41705604                0.00010000                8.75554736               -8.34801948              -16.45848385              135.43212698              115.50355789              -51.34008987
              33.06053153                4.75039376               95.90411026                0.35655609               13.19773838              -76.37997701              -63.01409763              147.69780386              160.89618299             -191.47834572
              23.42937784               11.49760601               99.88898630                1.00000000               -0.05141153                0.20044619               -0.02215687                0.08150907                0.03022993                0.37630534
              24.42886372               10.92810648               99.48219136                1.00000000                0.00018115                0.00901380                0.01357342                0.09809705                0.02862621               -0.00597710
              25.42938146               10.35820604               99.07530395                0.00010000               30.11447004               -0.23311925                0.05649586               17.11647988               13.68313434               -0.48438046
              27.03115312               10.12768429               98.94150965                0.00010000               62.00614864               19.30686672              -28.23451107               69.84216654               95.27609824               29.15079069
              28.66950443                9.57881595               98.37945807                0.00010000               56.40729868               23.30713056              -26.60845517              107.97078645              114.06170017               16.38193988
              30.15929910                8.97764122               97.88749794                0.00010000               44.31579517               21.61860673              -23.30709115              149.65303692              135.08124351                7.54142896
              31.55582034                8.37254465               97.38478882                0.00010000               36.48359068               18.62442834              -19.75875876              184.31774362              147.30019731               -3.29188464
              32.88897091                7.76601090               96.82817160                0.00010000               29.37733578               14.52562701              -16.07163074              209.03607388              154.35219376              -17.18747710
              34.14336705                7.11353503               96.13718018                0.00010000               18.93519910                6.38765798              -11.09475223              217.29148120              150.40598320              -38.19118814
              35.26767489                6.27862618               95.05849054                0.00010000               24.73459784              -18.66697558               -7.67312195              166.39077455              110.34722071              -87.71794254
              36.63805901                4.34842926               92.99300647                0.35668230               37.03841167              -79.58743736              -46.24460192              117.79244655               59.13009080             -215.20293132
              24.00092079               12.49931980               99.74919298                1.00000000               -0.01488578                0.12639058               -0.01461530                0.07732002                0.01274402                0.39662302
              25.00077193               11.92792295               99.33945111                1.00000000                0.00856391               -0.01663704                0.00855481                0.09718405                0.01939282               -0.01379740
              26.00109207               11.35645110               98.92966474                0.00010000               51.53955581               -0.13810568                0.01792373               20.14918036               16.37943642               -0.42473948
              28.03156305               11.18634815               98.84687461                0.00010000              108.09830889               -1.51058102              -37.20195889               57.29946694              106.31708340               13.02671954
              30.16305825               10.70567647               98.26192695                0.00010000              100.96782010                2.51924558              -34.86568003               75.50753298              134.99680200               12.85379397
              32.05091945               10.11324178               97.68115632                0.00010000               79.32999244                4.10809845              -30.00596645              103.13899009              160.96195455                6.68650230
              33.74965809                9.49601585               97.04162012                0.00010000               62.47391597                4.15724853              -24.77650277              128.79421702              174.49040519               -1.96481499
              35.30039777                8.85696309               96.27916350                0.00010000               48.44884148                2.48424004              -19.90212775              145.62764637              178.94345094              -13.67395871
              36.71863492                8.13542425               95.24896121                0.00010000               36.05388190               -2.77296925              -16.22700873              142.00005272              166.37014321              -32.40662887
              38.02147541                7.06680565               93.62774460                0.00010000               27.90696901              -14.37554684              -19.99650164               96.72390415              118.15347157              -65.66336059
              39.27677430                5.15864501               90.93501215                0.35674245               25.52988967                0.60079472              -77.62820022               50.71621690               78.29932670             -139.42180747
              24.57371794               13.50013382               99.60941503                1.00000000               -0.00418359                0.05639240               -0.00440998                0.06658732                0.01228493                0.39092120
              25.57367610               12.92777374               99.19692479                1.00000000                0.01109625               -0.01681102                0.00465967                0.07746861                0.01945338               -0.00495922
              26.57393986               12.35544393               98.78437833                0.00010000               62.71204932               -0.07315769                0.00112064               15.79066760               17.55956131               -0.39270585
              28.82791709               12.09747267               98.72240868                0.00010000              133.94107996              -11.64463215              -44.04014704               39.50463032              111.76962316                6.98640767
              31.25276146               11.62920086               98.11073710                0.00010000              130.19112143              -13.64490942              -40.63244375               48.25747278              141.29990028                7.62938698
              33.43173952               11.05980318               97.46349722                0.00010000              106.76109490              -12.52896505              -34.76417418               66.26742764              169.08378357                4.82819619
              35.38798336               10.45568962               96.69759898                0.00010000               86.51879567              -11.03358750              -28.78900622               85.41545727              182.82241063               -1.00561062
              37.16211543                9.81569570               95.74013124                0.00010000               69.27710911              -10.22256152              -23.98359710               97.52303616              186.40594345               -9.72705255
              38.77352554                9.05807565               94.42900083                0.00010000               50.84083907              -10.62943221              -21.74803417               92.25411224              172.01765629              -23.06342695
              40.17893221                7.99111525               92.43285811                0.00010000               34.75895424               -5.34413724              -29.48242403               57.25831052              122.08241345              -46.34754418
              41.46870463                6.36044516               89.27561211                0.35643045               28.97724154               23.76619665              -91.13831872               31.94553405               79.94110680              -97.07032813
              25.14697271               14.50044765               99.46957811                1.00000000                0.00384910                0.02092049               -0.00108267                0.05413709                0.01027931                0.37718057
              26.14701120               13.92758673               99.05449664                0.87633783                0.01168912               -0.02438220                0.00657549                0.07039534                0.01721706               -0.01830612
              27.14720649               13.35498794               98.63949121                0.00010000               70.04437636               -0.03340531                0.00390085                8.63294397               17.44916335               -0.36088576
              29.54789873               12.95345551               98.57278665                0.00010000              150.93353474              -16.83940962              -48.49770238               23.40933314              113.65648071                2.68123013
              32.16587718               12.43277828               97.94096307                0.00010000              150.09402564              -24.18980779              -44.60520761               31.43902454              144.29200957                3.21953988
              34.54977924               11.86266248               97.24255648                0.00010000              126.80987704              -25.14058670              -38.05606967               45.43320152              172.45310962                1.88445583
              36.70207473               11.27534410               96.37941489                0.00010000              104.93466159              -23.18253362              -31.74230239               59.19589800              186.25378616               -1.56438425
              38.64847247               10.65251186               95.27318035                0.00010000               84.31114482              -20.18488917              -27.07201656               66.14405881              189.63302851               -7.31649313
              40.38829762                9.92283561               93.75907221                0.00010000               60.78998185              -15.11813441              -25.67848703               59.41884993              174.85136724              -16.56139006
              41.86427211                8.95992291               91.51015319                0.00010000               39.43637714               -2.40489915              -34.66383065               35.06884672              123.33106648              -32.42595292
              43.17702516                7.63396894               88.06198212                0.35645586               31.27530573               26.94453195              -96.89268277               19.00435853               80.33397948              -64.44061838
              25.72052252               15.50055223               99.32955822                1.00000000                0.00211931                0.00410286                0.00141533                0.04326677                0.01804806                0.36647394
              26.72054371               14.92728609               98.91194456                0.68341744                0.01037218               -0.03392270                0.00796500                0.08197167                0.04184309               -0.07400795
              27.72072996               14.35477582               98.49482626                0.00010000               74.88848514               -0.04076441               -0.00819256               -0.94548345               17.44807416               -0.39711812
              30.21831342               13.76068448               98.42471350                0.00010000              162.58025101              -22.48221155              -50.90548095                5.20875331              114.88883806               -0.46620935
              32.97233498               13.14540470               97.78392192                0.00010000              163.97621575              -33.35529237              -46.70540985               17.03023565              146.42675565               -0.11087168
              35.49783773               12.55699145               97.05386178                0.00010000              140.48584761              -34.79268499              -39.85691257               31.15389821              174.72414144               -0.38231587
              37.78205194               11.99203895               96.12270562                0.00010000              116.98336832              -31.52957913              -33.49858292               41.34662981              188.20136377               -2.22994800
              39.83750510               11.41199792               94.91063841                0.00010000               93.62197792              -26.18833392              -29.00885580               44.68377492              191.24634402               -5.94676427
              41.65449149               10.75571296               93.25614242                0.00010000               66.58353557              -17.53317168              -27.99557866               38.63684930              175.96175357              -12.17704625
              43.16917581                9.94301726               90.83857861                0.00010000               42.31041157               -1.55236531              -37.34119430               22.12851277              123.62397957              -22.61207296
              44.50069973                8.89933580               87.20512763                0.35663948               33.15239170               25.69423460              -99.33245705               11.98121107               79.99604267              -42.77938913
              26.29437032               16.50052970               99.18922127                1.00000000                0.00567205               -0.01118095                0.00497959                0.02300759                0.01963941                0.33666461
              27.29442704               15.92690827               98.76876996                0.47795293                0.02640589               -0.02659555               -0.00436234                0.07198720                0.07140690               -0.14391992
              28.29489844               15.35417265               98.34931719                0.00010000               78.35089351               -0.13732335               -0.04445596              -13.65443855               18.50225810               -0.48987587
              30.86144491               14.50381127               98.29509041                0.00010000              170.76382415              -31.47182947              -51.25538343              -15.61258759              117.17411383               -3.93022844
              33.71017492               13.76567243               97.67051848                0.00010000              173.23890211              -43.44648312              -46.62954079                6.45479045              149.49796187               -2.36691034
              36.32622296               13.16680878               96.93134451                0.00010000              148.19129671              -41.40753202              -40.00187950               21.55179687              177.07730233               -1.62120286
              38.67400086               12.64475251               95.95638649                0.00010000              122.61255037              -36.10980208              -33.89005834               28.36449538              189.40901601               -2.34525238
              40.77847396               12.12874518               94.67226605                0.00010000               97.80072018              -29.12030009              -29.70485432               28.96777504              191.76955948               -4.72346288
              42.63001526               11.57217217               92.92387380                0.00010000               69.23727814              -18.73297245              -28.94045479               24.35157224              176.07337928               -8.83147330
              44.16321953               10.92887560               90.39706993                0.00010000               43.69985305               -1.44932908              -38.49630670               14.08355029              123.44637384              -15.23075148
              45.50401232               10.14785364               86.64720590                0.35628252               34.07927965               24.87971201             -100.55184098                7.59411149               79.81555725              -27.51855688
              26.86822553               17.50032862               99.04820897                0.76487434                0.01149723               -0.02497295               -0.01253707                0.00979954                0.03085222                0.27352741
              27.86834051               16.92675418               98.62507414                0.22115487                0.12563281               -0.00630604               -0.00802034               -0.04181781                0.12935310               -0.18026775
              28.87073819               16.35202936               98.20363596                0.00010000               81.31106907               -0.79638066               -0.39727509              -31.47852095               22.24077279               -0.68119712
              31.49456189               15.13124789               98.20405862                0.00010000              178.38475509              -49.73564125              -48.78113532              -26.73251064              124.15699922               -6.39398156
              34.43843329               14.27647504               97.64692425                0.00010000              177.76158495              -49.95056257              -44.29795391                0.94057566              155.64616179               -2.92073317
              37.04979359               13.72884081               96.90983027                0.00010000              147.44860730              -44.06034905              -38.24176940               13.64125863              179.03994555               -1.24923006
              39.38740544               13.26984291               95.90614036                0.00010000              121.98236764              -37.45148389              -33.01513912               15.82973953              189.67919477               -1.41937042
              41.48944094               12.82959191               94.57636552                0.00010000               97.69935411              -29.89730851              -29.19323155               14.97893419              191.23905964               -2.80266445
              43.34139252               12.38105351               92.77108973                0.00010000               69.28622059              -19.03996832              -28.54802992               12.36682179              175.50646099               -5.14006118
              44.87516535               11.91403068               90.18209634                0.00010000               43.66166834               -1.62163379              -38.17438589                7.45745169              122.95941501               -8.26114943
              46.21462589               11.39693004               86.36242409                0.35651887               33.94605356               25.47306685             -100.83126987                3.80233948               79.58547719              -14.48778469
              27.44171518               18.50003024               98.90636106                0.82325383                0.01747688               -0.02983714                0.02213658                0.02415498                0.13041536                0.23185798
              28.44188994               17.92678215               98.48131530                0.49977840                0.95595708                0.00279675               -0.02941301               -0.73431623                0.39213879               -0.19275155
              29.46083432               17.33824504               98.06078040                0.35869195               98.02295356               -1.37843158               -3.95512262              -61.87457228               45.97829050               -6.74059944
              32.40234902               15.50909845               98.26206336                0.35922617              183.52795973              -62.21494370              -43.24129043              -37.80048015              143.05126813              -18.87275566
              35.13139351               14.76666118               97.76364649                0.35963202              160.16656213              -50.98138608              -39.12756478                8.12118935              158.45576689               -8.24060272
              37.60568026               14.28560180               97.01303663                0.35971174              137.92255159              -44.32390153              -36.01176728               12.04175007              177.44063514               -6.07528007
              39.88984454               13.89572284               95.98659471                0.35923057              118.05808942              -37.41200735              -31.69854518               12.50377152              188.67679585               -6.24345155
              41.96684205               13.53079901               94.64148596                0.35905226               95.15341925              -29.87929016              -27.55549088               12.52260936              191.63826936               -8.26521097
              43.79291293               13.19137281               92.82575698                0.35794346               66.48249925              -18.96807020              -25.73933271               13.43423666              176.13109538              -12.05498140
              45.29649203               12.89644293               90.22063999                0.35680928               41.06737372               -1.75877550              -34.94156875               15.42977650              123.34709276              -13.85614362
              46.61426040               12.65731497               86.38027189                0.67842866               31.77683714               26.03849384              -97.76857436               16.05065644               80.76420625              -17.89655277
              22.13138732                8.63497894              101.31050131                1.00000000                0.01800785                0.06737646               -0.00990016               -0.03257158               -0.05174044                0.06588171
              23.13156740                8.06879209              100.90745908                1.00000000                0.05025125                0.01998631               -0.01932935               -0.09111090               -0.07125738                0.01677693
              24.13239235                7.50287920              100.50404660                1.00000000                0.09098829               -0.02162199               -0.01289253               -0.11635422               -0.08723256                0.02908993
              25.13338717                6.93886999              100.10085679                1.00000000                0.13559569               -0.03079721               -0.01148972               -0.00897940               -0.07315642                0.02809136
              26.13510426                6.37710089               99.69790470                1.00000000                0.23724217               -0.02521573               -0.01888884                0.10495228                0.04170595                0.02636767
              27.13813201                5.81872180               99.29622818                1.00000000                0.33828682               -0.05922937               -0.00439567                0.29525778                0.35449723                0.04023767
              28.14187000                5.26410557               98.89683356                1.00000000                0.28018097                0.00857030                0.07545027                0.41656669                0.64304495               -0.00533818
              29.14373563                4.70825592               98.49699007                1.00000000                0.12631177                0.03230944                0.09955694                0.44489094                0.56210582               -0.05426157
              30.14439624                4.14475723               98.09391935                1.00000000                0.08226335               -0.03939805                0.03905271                0.31686251                0.26195847               -0.07394677
              31.14538090                3.57208608               97.68587697                1.00000000                0.10332957               -0.02890103               -0.04961049                0.16937758               -0.03821460               -0.00795931
              32.14646283                2.99358288               97.27314028                1.00000000                0.10819279               -0.13394039               -0.27535169                0.27025255               -0.23345946               -0.53077901
              22.69724846                9.63565271              101.16908200                1.00000000               -0.05422953                0.13580397               -0.00827422                0.00716449                0.03932592                0.11879524
              23.69670616                9.06899195              100.76628693                1.00000000               -0.05292999                0.05644514                0.00869420               -0.04572780                0.05545201                0.01766557
              24.69618986                8.50266298              100.36413298                1.00000000               -0.02598163               -0.01768582                0.02698028               -0.05222311                0.05221233               -0.00309144
              25.69618653                7.93856201               99.96205368                1.00000000                0.00190093                0.00567526                0.00722612               -0.02754759                0.06110364                0.05083293
              26.69622788                7.37684873               99.56002760                1.00000000                0.06978588               -0.00785105               -0.02534427                0.14206869                0.13635108                0.00422697
              27.69758225                6.81812951               99.15833549                1.00000000                0.25203634               -0.07956649               -0.10319122                0.76952181                0.36390092               -0.03999612
              28.70126861                6.26419127               98.75682008                1.00000000                0.51382308               -0.35303190               -0.30496791                7.09992104                0.83059824               -1.57098381
              29.70785871                5.70857902               98.35672589                1.00000000                0.71905890                1.33140672               -0.37415859               32.62612235                1.42535206               -6.01966024
              30.71564978                5.14436325               97.95811201                1.00000000                0.74015675                4.74916881               -0.30879762               71.53489635                1.85416747              -12.33404794
              31.72266185                4.57179707               97.55909804                1.00000000                0.60093805               11.27323345               -0.24356980              118.88397924                1.75076116              -16.34706304
              32.72766854                3.99224348               97.15131358                1.00000000                0.50066983              -44.95337199               -0.38738020              169.33022299                1.52839622              -63.67099629
              23.26485212               10.63769502              101.02851349                1.00000000               -0.12095468                0.22994981               -0.03852720                0.17477902                0.07600854                0.21175262
              24.26364257               10.06992099              100.62471300                1.00000000               -0.15371457                0.08395303                0.02179555                0.19650908                0.14037612                0.01527168
              25.26177783                9.50252548              100.22285591                1.00000000               -0.24960520               -0.09809397                0.09841997                0.46414236                0.29570458               -0.27169284
              26.25865047                8.93898349               99.82375199                1.00000000               -0.16998421               25.85932000                0.03947115              107.36682002                0.28989457              -14.47541221
              27.25837814                8.37694387               99.42201210                1.00000000                0.37647193               23.02682829               -0.07143487              157.28013865                0.24746888              -13.62034613
              28.26617991                7.81713047               99.01914397                1.00000000                6.75203831               21.76756528               -0.43032420              189.00506294               -0.43697048              -16.01598472
              29.39341891                7.25704493               98.58408771                1.00000000               32.49530975               20.25729720               -4.23879239              217.06516151                7.99081557              -19.61191144
              30.91608610                6.73488406               98.09546827                1.00000000               65.92286015               20.76826105              -13.33565037              243.43811983               55.21829720              -22.61604755
              32.71187611                6.23974060               97.57761479                1.00000000               87.95470739               24.90585010              -24.91138847              271.39299798              133.19787554              -28.96667100
              34.67518025                5.79755075               97.10651472                1.00000000               99.01491726               23.71977649              -31.05413176              239.80166362              184.14642026              -45.59184187
              36.69217446                4.09451544               95.76729099                1.00000000              101.69942080              -39.26206706             -113.68192676              193.84662682              229.24192004             -236.58290302
              23.83629210               11.64025170              100.88854875                1.00000000               -0.04862123                0.21701908               -0.04375498                0.33452590                0.06012233                0.28447097
              24.83580588               11.07067101              100.48223572                1.00000000                0.00590575                0.02846854                0.00443609                0.37366216                0.06053452               -0.00381494
              25.83641021               10.50070110              100.07587512                1.00000000              106.66493341               -0.18377355                0.05711671               26.72563399              -13.65890638               -0.40066725
              28.96910455               10.45574841               99.39500009                1.00000000              156.36367308               24.04439283              -54.65095630              151.66638580              140.64141977                1.43491058
              30.96368367                9.83738529               99.01280065                1.00000000               81.42389466               29.40454696              -36.66574132              206.27317483              187.94262681               -4.61565098
              32.59758244                9.25348081               98.56549414                1.00000000               58.05672884               29.17353369              -32.20038009              263.25452715              198.06562958               -8.07766079
              34.12481825                8.66933721               98.09754655                1.00000000               49.81714946               29.94714292              -28.72422679              303.38396442              207.00198075              -13.22361426
              35.59392543                8.12394424               97.56753793                1.00000000               47.80124029               30.57555944              -26.06336745              322.17970298              211.35010324              -18.77663504
              37.08084306                7.64248025               96.91463956                1.00000000               53.49974219               29.12908376              -22.25406183              319.96326867              211.99320593              -25.68593457
              38.66392028                7.04619260               95.93245004                1.00000000               46.49143140               12.25724066              -12.60405025              247.41237196              180.46316781              -57.08359757
              40.01067168                5.20700214               93.73141214                1.00000000               34.67514050                0.97798235              -26.15943262              163.39009958              117.15747794             -136.42068399
              24.41070401               12.64203540              100.74891153                1.00000000               -0.00375970                0.12768140               -0.02814535                0.34613579                0.03793233                0.30948071
              25.41066642               12.07049036              100.33950763                1.00000000                0.02545476               -0.02284042                0.00565206                0.36965401                0.03649453               -0.00712796
              26.41121311               11.49885001               99.92985245                1.00000000              127.23137870               -0.15172813                0.01877107               24.99361140              -16.14717954               -0.33614173
              29.95529399               11.41987135               99.19632195                1.00000000              208.74480663               -7.57181952              -65.05526616               65.37072250              136.50849135                2.14095531
              32.58610924               10.96503480               98.81256039                1.00000000              137.20122699                1.28488907              -44.93665637               88.67262756              197.78457990                4.80674799
              34.69931853               10.40060114               98.30591156                1.00000000              100.22627653                4.10629387              -37.52447654              125.79517262              210.51340390                1.96105736
              36.59063477                9.85598779               97.72603030                1.00000000               84.36092984                6.90240616              -31.55898153              162.87947750              219.00553421               -1.94873272
              38.38653713                9.34639525               97.00406889                1.00000000               79.91291782                8.29936988              -27.50946154              195.11479709              222.61270382               -7.92885917
              40.18889313                8.82232228               96.00600567                1.00000000               83.61843358                3.09264101              -24.29555400              211.15034839              218.30787324              -19.61664304
              42.05890580                8.04269556               94.42970994                1.00000000               72.47321176              -10.93355535              -19.80346559              165.74710544              169.52933384              -40.43522569
              43.63835736                6.11407509               91.32173156                1.00000000               57.94515646               -1.27792891              -61.32805954              122.67816945              125.36046769             -111.69402287
              24.98630489               13.64280533              100.60930716                1.00000000                0.00794651                0.05693298               -0.01078776                0.31267621                0.02381135                0.29800441
              25.98638435               13.07021421              100.19695832                1.00000000                0.02982840               -0.03281599                0.00335358                0.31896637                0.02318963               -0.00251768
              26.98690146               12.49766654               99.78435445                1.00000000              141.19749286               -0.09423843               -0.00238837               19.27554098              -20.01311712               -0.29550491
              30.81033421               12.30431202               98.97077280                1.00000000              238.47524853              -14.35315079              -75.16358864               48.39962555              138.53493652               -0.94545579
              33.75640643               11.86308308               98.59021894                1.00000000              170.60993519              -16.68071733              -52.05181590               58.31339398              203.32568429                1.51038872
              36.22253291               11.33560669               98.02999656                1.00000000              134.01036354              -15.21817499              -43.35006667               83.78474110              216.49979306                0.90037307
              38.43661370               10.80738534               97.33862801                1.00000000              115.36769856              -14.15364163              -35.89709745              112.76742829              224.86802769               -1.63894278
              40.52988689               10.28993164               96.43009644                1.00000000              108.54680064              -14.95494059              -31.00348062              136.12086021              227.27127712               -6.02598266
              42.60754971                9.70433307               95.14851064                1.00000000              107.86113445              -19.08502962              -28.04901900              141.17332172              220.49588056              -13.29872096
              44.68710957                8.82752149               93.17196571                1.00000000               85.69631481              -22.06121039              -26.08924000              103.73768993              172.72578025              -27.26078372
              46.32147601                7.18144356               89.58667153                1.00000000               63.43664323                7.65574031              -68.89405779               69.73415643              126.74771903              -66.88823063
              25.56213979               14.64317406              100.46952860                1.00000000                0.00447485                0.03810901               -0.00495076                0.26753551                0.02148152                0.28463969
              26.56218454               14.06983404              100.05457634                1.00000000                0.02431621               -0.04574445                0.00796932                0.28864759                0.01576019               -0.02156219
              27.56262611               13.49696524               99.63949713                1.00000000              149.78427142               -0.06436624                0.00059206               10.76061183              -23.00014830               -0.29334161
              31.55786996               13.13280833               98.76373413                1.00000000              257.92281714              -20.23925240              -80.90525263               28.41619540              137.77245370               -1.30297856
              34.72108246               12.63142046               98.37500373                1.00000000              193.64205634              -28.89154242              -56.59593464               38.33326215              205.94942114                0.12330470
              37.43071109               12.09623764               97.77231201                1.00000000              158.52879685              -30.84587936              -47.02444669               58.04343220              218.83599993                0.04669963
              39.89165839               11.57291496               96.98986002                1.00000000              139.06477545              -30.30325792              -38.95548742               79.25582391              227.09663412               -1.44930529
              42.21200660               11.04729643               95.93507736                1.00000000              129.15556588              -29.92814703              -33.81029909               93.69057668              229.23623195               -4.32594720
              44.47476971               10.44062169               94.44751640                1.00000000              122.22712528              -29.26826692              -31.15558108               92.59599482              222.47742982               -9.39544120
              46.65654911                9.60147135               92.21168178                1.00000000               92.52133195              -22.02335433              -29.84714051               64.07276825              173.95038669              -18.38561477
              48.32519635                8.26718990               88.34197014                1.00000000               66.86472427                7.87636122              -72.00119853               41.89957546              127.84595395              -42.13547354
              26.13833563               15.64356751              100.32954712                1.00000000                0.00304891                0.03679695               -0.00111000                0.22126977                0.02984362                0.28840470
              27.13836612               15.06929932               99.91203244                1.00000000                0.04018863               -0.04688685                0.00878828                0.29256777                0.03153573               -0.09190610
              28.13913941               14.49637921               99.49453301                1.00000000              155.29183911               -0.08469507               -0.02932485               -0.72675544              -24.46029916               -0.39876207
              32.24420290               13.89952697               98.58600757                1.00000000              271.02514753              -27.80903885              -83.87059289                5.77424601              137.63233192               -1.51573284
              35.55964236               13.28525223               98.19540067                1.00000000              209.88520780              -40.83752927              -58.85212463               20.64681976              207.61936912               -0.47818198
              38.44190706               12.71868910               97.56378021                1.00000000              175.55145146              -43.36568140              -49.00815724               39.94580147              220.36190845               -0.49813042
              41.07067139               12.20132018               96.71450018                1.00000000              154.70423134              -41.55235340              -40.82054341               55.51269279              228.37335171               -1.39256489
              43.53599169               11.69136869               95.55400835                1.00000000              141.73116521              -38.75269949              -35.66300612               63.50441497              230.37513277               -3.37596471
              45.90529469               11.11896773               93.92502966                1.00000000              130.30025202              -33.63703469              -33.11127550               60.27435635              223.43772893               -6.78198645
              48.14199673               10.38705440               91.52115653                1.00000000               96.13678661              -21.36921391              -31.74220773               40.60605375              174.90661640              -12.53475675
              49.82803042                9.33897079               87.47752015                1.00000000               68.60336941                6.18007747              -72.76074815               26.26558936              128.36943124              -27.30255969
              26.71510157               16.64391000              100.18926614                1.00000000                0.01226173                0.02647588                0.00448722                0.16778693                0.01768774                0.26498780
              27.71522419               16.06889631               99.76871177                1.00000000                0.13808870               -0.03095580               -0.00581894                0.25383532                0.03216291               -0.15462207
              28.71786335               15.49527134               99.34831511                1.00000000              158.46288412               -0.39645772               -0.10020845              -15.99988125              -23.35237436               -0.80356746
              32.88448187               14.57662755               98.45573447                1.00000000              279.84966887              -41.61903592              -83.93559333              -20.64866205              139.17519228               -1.35681341
              36.31485672               13.81466987               98.08574504                1.00000000              221.45386492              -54.29477013              -58.47734448                7.59268237              209.62916128               -0.57639279
              39.31355917               13.22892402               97.43895410                1.00000000              185.71879661              -52.14475253              -49.23904145               27.59690102              221.61868286               -0.22551522
              42.02923266               12.74186789               96.54344627                1.00000000              162.54440894              -47.88678155              -41.29402287               37.79258356              229.01630020               -1.01068401
              44.56444735               12.27224244               95.30881651                1.00000000              147.76692371              -43.37423321              -36.34495406               40.56650010              230.69338149               -2.50766741
              46.98457113               11.76788099               93.58536712                1.00000000              134.21098889              -36.39551299              -33.85066756               37.36873314              223.66037985               -4.81958270
              49.24866713               11.17408707               91.07291237                1.00000000               98.10521204              -22.14804398              -32.41575685               25.32111636              175.10885202               -8.40100375
              50.94667537               10.39079145               86.91664896                1.00000000               69.80082439                4.17306870              -73.05569364               16.75091553              128.63996437              -17.84155059
              27.29171876               17.64409703              100.04808628                1.00000000                0.03627277                0.00905889               -0.01226948                0.12794300                0.03708770                0.24632732
              28.29208149               17.06868020               99.62496393                1.00000000                0.98458875               -0.02245253               -0.01102102               -0.07817207               -0.21700137               -0.20090358
              29.31141053               16.48845006               99.19626429                1.00000000              160.98748236               -6.64494484               -0.73716712              -28.07925214              -16.51902463               -4.67000117
              33.51183113               15.06714626               98.41323875                1.00000000              287.38945038              -68.63505890              -79.08198787              -36.69460486              146.20760718               -1.27119070
              37.05919954               14.19935683               98.08587794                1.00000000              227.74079661              -62.25681451              -56.10463139                2.02873537              213.16665900                1.34532949
              40.06664707               13.67579405               97.43503943                1.00000000              186.20025435              -55.56865454              -47.47908475               18.05949783              222.39423904                0.79092996
              42.78320463               13.24358455               96.50005576                1.00000000              162.73307590              -49.63694726              -40.60846086               20.87244054              228.67097153               -0.26687128
              45.32130858               12.82388403               95.21686047                1.00000000              148.38100478              -44.98456195              -35.95050428               20.03029166              230.04499502               -1.33210253
              47.75082472               12.39105747               93.43722037                1.00000000              135.21000083              -39.19413381              -33.38693660               17.94684370              223.23587266               -2.48793997
              50.02550860               11.94409352               90.86271352                1.00000000               98.94076300              -24.21676068              -31.93828222               12.69226638              174.91398259               -4.41541508
              51.72963998               11.42243216               86.63481352                1.00000000               70.41313835                2.25456369              -72.76105764                8.72580713              128.71140984               -9.72540739
              27.86849409               18.64409118               99.90665586                1.00000000                0.08136291               -0.00058493                0.02948050                0.11314058                0.09647130                0.26305231
              28.86930772               18.06844726               99.48084167                1.00000000               14.46590801               -0.02329435               -0.04736389               -6.36331372               -3.48733206               -0.24571553
              30.15781225               17.36237245               98.98207368                1.00000000              178.51876463              -12.60776133               -7.87067188              -58.58587276               23.58140565              -19.00632008
              34.43968301               15.20392638               98.55851392                1.00000000              279.44856939              -86.32198800              -70.35494426              -46.85675574              167.97411818              -15.98968992
              37.74678364               14.56953358               98.26688806                1.00000000              209.54191974              -62.98232427              -49.67584312               14.43963678              211.65662706               -1.61174746
              40.63052140               14.11755093               97.56086622                1.00000000              177.59039259              -55.82431260              -45.21704151               15.36720170              218.67098964               -4.22240790
              43.29859149               13.74912894               96.59062556                1.00000000              159.35294279              -49.44556061              -39.59691499               14.28869980              227.51089456               -5.60240876
              45.81758026               13.37255121               95.29359022                1.00000000              146.23535124              -45.13328253              -34.78957348               11.37063622              231.32256306               -8.15180583
              48.22329851               12.98399832               93.51560040                1.00000000              132.67787531              -40.70591543              -31.01565839               13.10741139              224.58296619              -12.89944569
              50.47113777               12.68975186               90.92447838                1.00000000               97.06078643              -25.43416637              -29.61616048               17.15713668              175.24138164              -14.49262031
              52.16451424               12.43588272               86.67113657                1.00000000               69.33764745                1.34505614              -70.91353199               18.10051172              129.69120204              -18.51092054
         1          2         13         12        122        123        134        133  
         2          3         14         13        123        124        135        134  
         3          4         15         14        124        125        136        135  
         4          5         16         15        125        126        137        136  
         5          6         17         16        126        127        138        137  
         6          7         18         17        127        128        139        138  
         7          8         19         18        128        129        140        139  
         8          9         20         19        129        130        141        140  
         9         10         21         20        130        131        142        141  
        10         11         22         21        131        132        143        142  
        12         13         24         23        133        134        145        144  
        13         14         25         24        134        135        146        145  
        14         15         26         25        135        136        147        146  
        15         16         27         26        136        137        148        147  
        16         17         28         27        137        138        149        148  
        17         18         29         28        138        139        150        149  
        18         19         30         29        139        140        151        150  
        19         20         31         30        140        141        152        151  
        20         21         32         31        141        142        153        152  
        21         22         33         32        142        143        154        153  
        23         24         35         34        144        145        156        155  
        24         25         36         35        145        146        157        156  
        25         26         37         36        146        147        158        157  
        26         27         38         37        147        148        159        158  
        27         28         39         38        148        149        160        159  
        28         29         40         39        149        150        161        160  
        29         30         41         40        150        151        162        161  
        30         31         42         41        151        152        163        162  
        31         32         43         42        152        153        164        163  
        32         33         44         43        153        154        165        164  
        34         35         46         45        155        156        167        166  
        35         36         47         46        156        157        168        167  
        36         37         48         47        157        158        169        168  
        37         38         49         48        158        159        170        169  
        38         39         50         49        159        160        171        170  
        39         40         51         50        160        161        172        171  
        40         41         52         51        161        162        173        172  
        41         42         53         52        162        163        174        173  
        42         43         54         53        163        164        175        174  
        43         44         55         54        164        165        176        175  
        45         46         57         56        166        167        178        177  
        46         47         58         57        167        168        179        178  
        47         48         59         58        168        169        180        179  
        48         49         60         59        169        170        181        180  
        49         50         61         60        170        171        182        181  
        50         51         62         61        171        172        183        182  
        51         52         63         62        172        173        184        183  
        52         53         64         63        173        174        185        184  
        53         54         65         64        174        175        186        185  
        54         55         66         65        175        176        187        186  
        56         57         68         67        177        178        189        188  
        57         58         69         68        178        179        190        189  
        58         59         70         69        179        180        191        190  
        59         60         71         70        180        181        192        191  
        60         61         72         71        181        182        193        192  
        61         62         73         72        182        183        194        193  
        62         63         74         73        183        184        195        194  
        63         64         75         74        184        185        196        195  
        64         65         76         75        185        186        197        196  
        65         66         77         76        186        187        198        197  
        67         68         79         78        188        189        200        199  
        68         69         80         79        189        190        201        200  
        69         70         81         80        190        191        202        201  
        70         71         82         81        191        192        203        202  
        71         72         83         82        192        193        204        203  
        72         73         84         83        193        194        205        204  
        73         74         85         84        194        195        206        205  
        74         75         86         85        195        196        207        206  
        75         76         87         86        196        197        208        207  
        76         77         88         87        197        198        209        208  
        78         79         90         89        199        200        211        210  
        79         80         91         90        200        201        212        211  
        80         81         92         91        201        202        213        212  
        81         82         93         92        202        203        214        213  
        82         83         94         93        203        204        215        214  
        83         84         95         94        204        205        216        215  
        84         85         96         95        205        206        217        216  
        85         86         97         96        206        207        218        217  
        86         87         98         97        207        208        219        218  
        87         88         99         98        208        209        220        219  
        89         90        101        100        210        211        222        221  
        90         91        102        101        211        212        223        222  
        91         92        103        102        212        213        224        223  
        92         93        104        103        213        214        225        224  
        93         94        105        104        214        215        226        225  
        94         95        106        105        215        216        227        226  
        95         96        107        106        216        217        228        227  
        96         97        108        107        217        218        229        228  
        97         98        109        108        218        219        230        229  
        98         99        110        109        219        220        231        230  
       100        101        112        111        221        222        233        232  
       101        102        113        112        222        223        234        233  
       102        103        114        113        223        224        235        234  
       103        104        115        114        224        225        236        235  
       104        105        116        115        225        226        237        236  
       105        106        117        116        226        227        238        237  
       106        107        118        117        227        228        239        238  
       107        108        119        118        228        229        240        239  
       108        109        120        119        229        230        241        240  
       109        110        121        120        230        231        242        241  
       122        123        134        133        243        244        255        254  
       123        124        135        134        244        245        256        255  
       124        125        136        135        245        246        257        256  
       125        126        137        136        246        247        258        257  
       126        127        138        137        247        248        259        258  
       127        128        139        138        248        249        260        259  
       128        129        140        139        249        250        261        260  
       129        130        141        140        250        251        262        261  
       130        131        142        141        251        252        263        262  
       131        132        143        142        252        253        264        263  
       133        134        145        144        254        255        266        265  
       134        135        146        145        255        256        267        266  
       135        136        147        146        256        257        268        267  
       136        137        148        147        257        258        269        268  
       137        138        149        148        258        259        270        269  
       138        139        150        149        259        260        271        270  
       139        140        151        150        260        261        272        271  
       140        141        152        151        261        262        273        272  
       141        142        153        152        262        263        274        273  
       142        143        154        153        263        264        275        274  
       144        145        156        155        265        266        277        276  
       145        146        157        156        266        267        278        277  
       146        147        158        157        267        268        279        278  
       147        148        159        158        268        269        280        279  
       148        149        160        159        269        270        281        280  
       149        150        161        160        270        271        282        281  
       150        151        162        161        271        272        283        282  
       151        152        163        162        272        273        284        283  
       152        153        164        163        273        274        285        284  
       153        154        165        164        274        275        286        285  
       155        156        167        166        276        277        288        287  
       156        157        168        167        277        278        289        288  
       157        158        169        168        278        279        290        289  
       158        159        170        169        279        280        291        290  
       159        160        171        170        280        281        292        291  
       160        161        172        171        281        282        293        292  
       161        162        173        172        282        283        294        293  
       162        163        174        173        283        284        295        294  
       163        164        175        174        284        285        296        295  
       164        165        176        175        285        286        297        296  
       166        167        178        177        287        288        299        298  
       167        168        179        178        288        289        300        299  
       168        169        180        179        289        290        301        300  
       169        170        181        180        290        291        302        301  
       170        171        182        181        291        292        303        302  
       171        172        183        182        292        293        304        303  
       172        173        184        183        293        294        305        304  
       173        174        185        184        294        295        306        305  
       174        175        186        185        295        296        307        306  
       175        176        187        186        296        297        308        307  
       177        178        189        188        298        299        310        309  
       178        179        190        189        299        300        311        310  
       179        180        191        190        300        301        312        311  
       180        181        192        191        301        302        313        312  
       181        182        193        192        302        303        314        313  
       182        183        194        193        303        304        315        314  
       183        184        195        194        304        305        316        315  
       184        185        196        195        305        306        317        316  
       185        186        197        196        306        307        318        317  
       186        187        198        197        307        308        319        318  
       188        189        200        199        309        310        321        320  
       189        190        201        200        310        311        322        321  
       190        191        202        201        311        312        323        322  
       191        192        203        202        312        313        324        323  
       192        193        204        203        313        314        325        324  
       193        194        205        204        314        315        326        325  
       194        195        206        205        315        316        327        326  
       195        196        207        206        316        317        328        327  
       196        197        208        207        317        318        329        328  
       197        198        209        208        318        319        330        329  
       199        200        211        210        320        321        332        331  
       200        201        212        211        321        322        333        332  
       201        202        213        212        322        323        334        333  
       202        203        214        213        323        324        335        334  
       203        204        215        214        324        325        336        335  
       204        205        216        215        325        326        337        336  
       205        206        217        216        326        327        338        337  
       206        207        218        217        327        328        339        338  
       207        208        219        218        328        329        340        339  
       208        209        220        219        329        330        341        340  
       210        211        222        221        331        332        343        342  
       211        212        223        222        332        333        344        343  
       212        213        224        223        333        334        345        344  
       213        214        225        224        334        335        346        345  
       214        215        226        225        335        336        347        346  
       215        216        227        226        336        337        348        347  
       216        217        228        227        337        338        349        348  
       217        218        229        228        338        339        350        349  
       218        219        230        229        339        340        351        350  
       219        220        231        230        340        341        352        351  
       221        222        233        232        342        343        354        353  
       222        223        234        233        343        344        355        354  
       223        224        235        234        344        345        356        355  
       224        225        236        235        345        346        357        356  
       225        226        237        236        346        347        358        357  
       226        227        238        237        347        348        359        358  
       227        228        239        238        348        349        360        359  
       228        229        240        239        349        350        361        360  
       229        230        241        240        350        351        362        361  
       230        231        242        241        351        352        363        362  
       243        244        255        254        364        365        376        375  
       244        245        256        255        365        366        377        376  
       245        246        257        256        366        367        378        377  
       246        247        258        257        367        368        379        378  
       247        248        259        258        368        369        380        379  
       248        249        260        259        369        370        381        380  
       249        250        261        260        370        371        382        381  
       250        251        262        261        371        372        383        382  
       251        252        263        262        372        373        384        383  
       252        253        264        263        373        374        385        384  
       254        255        266        265        375        376        387        386  
       255        256        267        266        376        377        388        387  
       256        257        268        267        377        378        389        388  
       257        258        269        268        378        379        390        389  
       258        259        270        269        379        380        391        390  
       259        260        271        270        380        381        392        391  
       260        261        272        271        381        382        393        392  
       261        262        273        272        382        383        394        393  
       262        263        274        273        383        384        395        394  
       263        264        275        274        384        385        396        395  
       265        266        277        276        386        387        398        397  
       266        267        278        277        387        388        399        398  
       267        268        279        278        388        389        400        399  
       268        269        280        279        389        390        401        400  
       269        270        281        280        390        391        402        401  
       270        271        282        281        391        392        403        402  
       271        272        283        282        392        393        404        403  
       272        273        284        283        393        394        405        404  
       273        274        285        284        394        395        406        405  
       274        275        286        285        395        396        407        406  
       276        277        288        287        397        398        409        408  
       277        278        289        288        398        399        410        409  
       278        279        290        289        399        400        411        410  
       279        280        291        290        400        401        412        411  
       280        281        292        291        401        402        413        412  
       281        282        293        292        402        403        414        413  
       282        283        294        293        403        404        415        414  
       283        284        295        294        404        405        416        415  
       284        285        296        295        405        406        417        416  
       285        286        297        296        406        407        418        417  
       287        288        299        298        408        409        420        419  
       288        289        300        299        409        410        421        420  
       289        290        301        300        410        411        422        421  
       290        291        302        301        411        412        423        422  
       291        292        303        302        412        413        424        423  
       292        293        304        303        413        414        425        424  
       293        294        305        304        414        415        426        425  
       294        295        306        305        415        416        427        426  
       295        296        307        306        416        417        428        427  
       296        297        308        307        417        418        429        428  
       298        299        310        309        419        420        431        430  
       299        300        311        310        420        421        432        431  
       300        301        312        311        421        422        433        432  
       301        302        313        312        422        423        434        433  
       302        303        314        313        423        424        435        434  
       303        304        315        314        424        425        436        435  
       304        305        316        315        425        426        437        436  
       305        306        317        316        426        427        438        437  
       306        307        318        317        427        428        439        438  
       307        308        319        318        428        429        440        439  
       309        310        321        320        430        431        442        441  
       310        311        322        321        431        432        443        442  
       311        312        323        322        432        433        444        443  
       312        313        324        323        433        434        445        444  
       313        314        325        324        434        435        446        445  
       314        315        326        325        435        436        447        446  
       315        316        327        326        436        437        448        447  
       316        317        328        327        437        438        449        448  
       317        318        329        328        438        439        450        449  
       318        319        330        329        439        440        451        450  
       320        321        332        331        441        442        453        452  
       321        322        333        332        442        443        454        453  
       322        323        334        333        443        444        455        454  
       323        324        335        334        444        445        456        455  
       324        325        336        335        445        446        457        456  
       325        326        337        336        446        447        458        457  
       326        327        338        337        447        448        459        458  
       327        328        339        338        448        449        460        459  
       328        329        340        339        449        450        461        460  
       329        330        341        340        450        451        462        461  
       331        332        343        342        452        453        464        463  
       332        333        344        343        453        454        465        464  
       333        334        345        344        454        455        466        465  
       334        335        346        345        455        456        467        466  
       335        336        347        346        456        457        468        467  
       336        337        348        347        457        458        469        468  
       337        338        349        348        458        459        470        469  
       338        339        350        349        459        460        471        470  
       339        340        351        350        460        461        472        471  
       340        341        352        351        461        462        473        472  
       342        343        354        353        463        464        475        474  
       343        344        355        354        464        465        476        475  
       344        345        356        355        465        466        477        476  
       345        346        357        356        466        467        478        477  
       346        347        358        357        467        468        479        478  
       347        348        359        358        468        469        480        479  
       348        349        360        359        469        470        481        480  
       349        350        361        360        470        471        482        481  
       350        351        362        361        471        472        483        482  
       351        352        363        362        472        473        484        483  
       364        365        376        375        485        486        497        496  
       365        366        377        376        486        487        498        497  
       366        367        378        377        487        488        499        498  
       367        368        379        378        488        489        500        499  
       368        369        380        379        489        490        501        500  
       369        370        381        380        490        491        502        501  
       370        371        382        381        491        492        503        502  
       371        372        383        382        492        493        504        503  
       372        373        384        383        493        494        505        504  
       373        374        385        384        494        495        506        505  
       375        376        387        386        496        497        508        507  
       376        377        388        387        497        498        509        508  
       377        378        389        388        498        499        510        509  
       378        379        390        389        499        500        511        510  
       379        380        391        390        500        501        512        511  
       380        381        392        391        501        502        513        512  
       381        382        393        392        502        503        514        513  
       382        383        394        393        503        504        515        514  
       383        384        395        394        504        505        516        515  
       384        385        396        395        505        506        517        516  
       386        387        398        397        507        508        519        518  
       387        388        399        398        508        509        520        519  
       388        389        400        399        509        510        521        520  
       389        390        401        400        510        511        522        521  
       390        391        402        401        511        512        523        522  
       391        392        403        402        512        513        524        523  
       392        393        404        403        513        514        525        524  
       393        394        405        404        514        515        526        525  
       394        395        406        405        515        516        527        526  
       395        396        407        406        516        517        528        527  
       397        398        409        408        518        519        530        529  
       398        399        410        409        519        520        531        530  
       399        400        411        410        520        521        532        531  
       400        401        412        411        521        522        533        532  
       401        402        413        412        522        523        534        533  
       402        403        414        413        523        524        535        534  
       403        404        415        414        524        525        536        535  
       404        405        416        415        525        526        537        536  
       405        406        417        416        526        527        538        537  
       406        407        418        417        527        528        539        538  
       408        409        420        419        529        530        541        540  
       409        410        421        420        530        531        542        541  
       410        411        422        421        531        532        543        542  
       411        412        423        422        532        533        544        543  
       412        413        424        423        533        534        545        544  
       413        414        425        424        534        535        546        545  
       414        415        426        425        535        536        547        546  
       415        416        427        426        536        537        548        547  
       416        417        428        427        537        538        549        548  
       417        418        429        428        538        539        550        549  
       419        420        431        430        540        541        552        551  
       420        421        432        431        541        542        553        552  
       421        422        433        432        542        543        554        553  
       422        423        434        433        543        544        555        554  
       423        424        435        434        544        545        556        555  
       424        425        436        435        545        546        557        556  
       425        426        437        436        546        547        558        557  
       426        427        438        437        547        548        559        558  
       427        428        439        438        548        549        560        559  
       428        429        440        439        549        550        561        560  
       430        431        442        441        551        552        563        562  
       431        432        443        442        552        553        564        563  
       432        433        444        443        553        554        565        564  
       433        434        445        444        554        555        566        565  
       434        435        446        445        555        556        567        566  
       435        436        447        446        556        557        568        567  
       436        437        448        447        557        558        569        568  
       437        438        449        448        558        559        570        569  
       438        439        450        449        559        560        571        570  
       439        440        451        450        560        561        572        571  
       441        442        453        452        562        563        574        573  
       442        443        454        453        563        564        575        574  
       443        444        455        454        564        565        576        575  
       444        445        456        455        565        566        577        576  
       445        446        457        456        566        567        578        577  
       446        447        458        457        567        568        579        578  
       447        448        459        458        568        569        580        579  
       448        449        460        459        569        570        581        580  
       449        450        461        460        570        571        582        581  
       450        451        462        461        571        572        583        582  
       452        453        464        463        573        574        585        584  
       453        454        465        464        574        575        586        585  
       454        455        466        465        575        576        587        586  
       455        456        467        466        576        577        588        587  
       456        457        468        467        577        578        589        588  
       457        458        469        468        578        579        590        589  
       458        459        470        469        579        580        591        590  
       459        460        471        470        580        581        592        591  
       460        461        472        471        581        582        593        592  
       461        462        473        472        582        583        594        593  
       463        464        475        474        584        585        596        595  
       464        465        476        475        585        586        597        596  
       465        466        477        476        586        587        598        597  
       466        467        478        477        587        588        599        598  
       467        468        479        478        588        589        600        599  
       468        469        480        479        589        590        601        600  
       469        470        481        480        590        591        602        601  
       470        471        482        481        591        592        603        602  
       471        472        483        482        592        593        604        603  
       472        473        484        483        593        594        605        604  
       485        486        497        496        606        607        618        617  
       486        487        498        497        607        608        619        618  
       487        488        499        498        608        609        620        619  
       488        489        500        499        609        610        621        620  
       489        490        501        500        610        611        622        621  
       490        491        502        501        611        612        623        622  
       491        492        503        502        612        613        624        623  
       492        493        504        503        613        614        625        624  
       493        494        505        504        614        615        626        625  
       494        495        506        505        615        616        627        626  
       496        497        508        507        617        618        629        628  
       497        498        509        508        618        619        630        629  
       498        499        510        509        619        620        631        630  
       499        500        511        510        620        621        632        631  
       500        501        512        511        621        622        633        632  
       501        502        513        512        622        623        634        633  
       502        503        514        513        623        624        635        634  
       503        504        515        514        624        625        636        635  
       504        505        516        515        625        626        637        636  
       505        506        517        516        626        627        638        637  
       507        508        519        518        628        629        640        639  
       508        509        520        519        629        630        641        640  
       509        510        521        520        630        631        642        641  
       510        511        522        521        631        632        643        642  
       511        512        523        522        632        633        644        643  
       512        513        524        523        633        634        645        644  
       513        514        525        524        634        635        646        645  
       514        515        526        525        635        636        647        646  
       515        516        527        526        636        637        648        647  
       516        517        528        527        637        638        649        648  
       518        519        530        529        639        640        651        650  
       519        520        531        530        640        641        652        651  
       520        521        532        531        641        642        653        652  
       521        522        533        532        642        643        654        653  
       522        523        534        533        643        644        655        654  
       523        524        535        534        644        645        656        655  
       524        525        536        535        645        646        657        656  
       525        526        537        536        646        647        658        657  
       526        527        538        537        647        648        659        658  
       527        528        539        538        648        649        660        659  
       529        530        541        540        650        651        662        661  
       530        531        542        541        651        652        663        662  
       531        532        543        542        652        653        664        663  
       532        533        544        543        653        654        665        664  
       533        534        545        544        654        655        666        665  
       534        535        546        545        655        656        667        666  
       535        536        547        546        656        657        668        667  
       536        537        548        547        657        658        669        668  
       537        538        549        548        658        659        670        669  
       538        539        550        549        659        660        671        670  
       540        541        552        551        661        662        673        672  
       541        542        553        552        662        663        674        673  
       542        543        554        553        663        664        675        674  
       543        544        555        554        664        665        676        675  
       544        545        556        555        665        666        677        676  
       545        546        557        556        666        667        678        677  
       546        547        558        557        667        668        679        678  
       547        548        559        558        668        669        680        679  
       548        549        560        559        669        670        681        680  
       549        550        561        560        670        671        682        681  
       551        552        563        562        672        673        684        683  
       552        553        564        563        673        674        685        684  
       553        554        565        564        674        675        686        685  
       554        555        566        565        675        676        687        686  
       555        556        567        566        676        677        688        687  
       556        557        568        567        677        678        689        688  
       557        558        569        568        678        679        690        689  
       558        559        570        569        679        680        691        690  
       559        560        571        570        680        681        692        691  
       560        561        572        571        681        682        693        692  
       562        563        574        573        683        684        695        694  
       563        564        575        574        684        685        696        695  
       564        565        576        575        685        686        697        696  
       565        566        577        576        686        687        698        697  
       566        567        578        577        687        688        699        698  
       567        568        579        578        688        689        700        699  
       568        569        580        579        689        690        701        700  
       569        570        581        580        690        691        702        701  
       570        571        582        581        691        692        703        702  
       571        572        583        582        692        693        704        703  
       573        574        585        584        694        695        706        705  
       574        575        586        585        695        696        707        706  
       575        576        587        586        696        697        708        707  
       576        577        588        587        697        698        709        708  
       577        578        589        588        698        699        710        709  
       578        579        590        589        699        700        711        710  
       579        580        591        590        700        701        712        711  
       580        581        592        591        701        702        713        712  
       581        582        593        592        702        703        714        713  
       582        583        594        593        703        704        715        714  
       584        585        596        595        705        706        717        716  
       585        586        597        596        706        707        718        717  
       586        587        598        597        707        708        719        718  
       587        588        599        598        708        709        720        719  
       588        589        600        599        709        710        721        720  
       589        590        601        600        710        711        722        721  
       590        591        602        601        711        712        723        722  
       591        592        603        602        712        713        724        723  
       592        593        604        603        713        714        725        724  
       593        594        605        604        714        715        726        725  
       606        607        618        617        727        728        739        738  
       607        608        619        618        728        729        740        739  
       608        609        620        619        729        730        741        740  
       609        610        621        620        730        731        742        741  
       610        611        622        621        731        732        743        742  
       611        612        623        622        732        733        744        743  
       612        613        624        623        733        734        745        744  
       613        614        625        624        734        735        746        745  
       614        615        626        625        735        736        747        746  
       615        616        627        626        736        737        748        747  
       617        618        629        628        738        739        750        749  
       618        619        630        629        739        740        751        750  
       619        620        631        630        740        741        752        751  
       620        621        632        631        741        742        753        752  
       621        622        633        632        742        743        754        753  
       622        623        634        633        743        744        755        754  
       623        624        635        634        744        745        756        755  
       624        625        636        635        745        746        757        756  
       625        626        637        636        746        747        758        757  
       626        627        638        637        747        748        759        758  
       628        629        640        639        749        750        761        760  
       629        630        641        640        750        751        762        761  
       630        631        642        641        751        752        763        762  
       631        632        643        642        752        753        764        763  
       632        633        644        643        753        754        765        764  
       633        634        645        644        754        755        766        765  
       634        635        646        645        755        756        767        766  
       635        636        647        646        756        757        768        767  
       636        637        648        647        757        758        769        768  
       637        638        649        648        758        759        770        769  
       639        640        651        650        760        761        772        771  
       640        641        652        651        761        762        773        772  
       641        642        653        652        762        763        774        773  
       642        643        654        653        763        764        775        774  
       643        644        655        654        764        765        776        775  
       644        645        656        655        765        766        777        776  
       645        646        657        656        766        767        778        777  
       646        647        658        657        767        768        779        778  
       647        648        659        658        768        769        780        779  
       648        649        660        659        769        770        781        780  
       650        651        662        661        771        772        783        782  
       651        652        663        662        772        773        784        783  
       652        653        664        663        773        774        785        784  
       653        654        665        664        774        775        786        785  
       654        655        666        665        775        776        787        786  
       655        656        667        666        776        777        788        787  
       656        657        668        667        777        778        789        788  
       657        658        669        668        778        779        790        789  
       658        659        670        669        779        780        791        790  
       659        660        671        670        780        781        792        791  
       661        662        673        672        782        783        794        793  
       662        663        674        673        783        784        795        794  
       663        664        675        674        784        785        796        795  
       664        665        676        675        785        786        797        796  
       665        666        677        676        786        787        798        797  
       666        667        678        677        787        788        799        798  
       667        668        679        678        788        789        800        799  
       668        669        680        679        789        790        801        800  
       669        670        681        680        790        791        802        801  
       670        671        682        681        791        792        803        802  
       672        673        684        683        793        794        805        804  
       673        674        685        684        794        795        806        805  
       674        675        686        685        795        796        807        806  
       675        676        687        686        796        797        808        807  
       676        677        688        687        797        798        809        808  
       677        678        689        688        798        799        810        809  
       678        679        690        689        799        800        811        810  
       679        680        691        690        800        801        812        811  
       680        681        692        691        801        802        813        812  
       681        682        693        692        802        803        814        813  
       683        684        695        694        804        805        816        815  
       684        685        696        695        805        806        817        816  
       685        686        697        696        806        807        818        817  
       686        687        698        697        807        808        819        818  
       687        688        699        698        808        809        820        819  
       688        689        700        699        809        810        821        820  
       689        690        701        700        810        811        822        821  
       690        691        702        701        811        812        823        822  
       691        692        703        702        812        813        824        823  
       692        693        704        703        813        814        825        824  
       694        695        706        705        815        816        827        826  
       695        696        707        706        816        817        828        827  
       696        697        708        707        817        818        829        828  
       697        698        709        708        818        819        830        829  
       698        699        710        709        819        820        831        830  
       699        700        711        710        820        821        832        831  
       700        701        712        711        821        822        833        832  
       701        702        713        712        822        823        834        833  
       702        703        714        713        823        824        835        834  
       703        704        715        714        824        825        836        835  
       705        706        717        716        826        827        838        837  
       706        707        718        717        827        828        839        838  
       707        708        719        718        828        829        840        839  
       708        709        720        719        829        830        841        840  
       709        710        721        720        830        831        842        841  
       710        711        722        721        831        832        843        842  
       711        712        723        722        832        833        844        843  
       712        713        724        723        833        834        845        844  
       713        714        725        724        834        835        846        845  
       714        715        726        725        835        836        847        846  
       727        728        739        738        848        849        860        859  
       728        729        740        739        849        850        861        860  
       729        730        741        740        850        851        862        861  
       730        731        742        741        851        852        863        862  
       731        732        743        742        852        853        864        863  
       732        733        744        743        853        854        865        864  
       733        734        745        744        854        855        866        865  
       734        735        746        745        855        856        867        866  
       735        736        747        746        856        857        868        867  
       736        737        748        747        857        858        869        868  
       738        739        750        749        859        860        871        870  
       739        740        751        750        860        861        872        871  
       740        741        752        751        861        862        873        872  
       741        742        753        752        862        863        874        873  
       742        743        754        753        863        864        875        874  
       743        744        755        754        864        865        876        875  
       744        745        756        755        865        866        877        876  
       745        746        757        756        866        867        878        877  
       746        747        758        757        867        868        879        878  
       747        748        759        758        868        869        880        879  
       749        750        761        760        870        871        882        881  
       750        751        762        761        871        872        883        882  
       751        752        763        762        872        873        884        883  
       752        753        764        763        873        874        885        884  
       753        754        765        764        874        875        886        885  
       754        755        766        765        875        876        887        886  
       755        756        767        766        876        877        888        887  
       756        757        768        767        877        878        889        888  
       757        758        769        768        878        879        890        889  
       758        759        770        769        879        880        891        890  
       760        761        772        771        881        882        893        892  
       761        762        773        772        882        883        894        893  
       762        763        774        773        883        884        895        894  
       763        764        775        774        884        885        896        895  
       764        765        776        775        885        886        897        896  
       765        766        777        776        886        887        898        897  
       766        767        778        777        887        888        899        898  
       767        768        779        778        888        889        900        899  
       768        769        780        779        889        890        901        900  
       769        770        781        780        890        891        902        901  
       771        772        783        782        892        893        904        903  
       772        773        784        783        893        894        905        904  
       773        774        785        784        894        895        906        905  
       774        775        786        785        895        896        907        906  
       775        776        787        786        896        897        908        907  
       776        777        788        787        897        898        909        908  
       777        778        789        788        898        899        910        909  
       778        779        790        789        899        900        911        910  
       779        780        791        790        900        901        912        911  
       780        781        792        791        901        902        913        912  
       782        783        794        793        903        904        915        914  
       783        784        795        794        904        905        916        915  
       784        785        796        795        905        906        917        916  
       785        786        797        796        906        907        918        917  
       786        787        798        797        907        908        919        918  
       787        788        799        798        908        909        920        919  
       788        789        800        799        909        910        921        920  
       789        790        801        800        910        911        922        921  
       790        791        802        801        911        912        923        922  
       791        792        803        802        912        913        924        923  
       793        794        805        804        914        915        926        925  
       794        795        806        805        915        916        927        926  
       795        796        807        806        916        917        928        927  
       796        797        808        807        917        918        929        928  
       797        798        809        808        918        919        930        929  
       798        799        810        809        919        920        931        930  
       799        800        811        810        920        921        932        931  
       800        801        812        811        921        922        933        932  
       801        802        813        812        922        923        934        933  
       802        803        814        813        923        924        935        934  
       804        805        816        815        925        926        937        936  
       805        806        817        816        926        927        938        937  
       806        807        818        817        927        928        939        938  
       807        808        819        818        928        929        940        939  
       808        809        820        819        929        930        941        940  
       809        810        821        820        930        931        942        941  
       810        811        822        821        931        932        943        942  
       811        812        823        822        932        933        944        943  
       812        813        824        823        933        934        945        944  
       813        814        825        824        934        935        946        945  
       815        816        827        826        936        937        948        947  
       816        817        828        827        937        938        949        948  
       817        818        829        828        938        939        950        949  
       818        819        830        829        939        940        951        950  
       819        820        831        830        940        941        952        951  
       820        821        832        831        941        942        953        952  
       821        822        833        832        942        943        954        953  
       822        823        834        833        943        944        955        954  
       823        824        835        834        944        945        956        955  
       824        825        836        835        945        946        957        956  
       826        827        838        837        947        948        959        958  
       827        828        839        838        948        949        960        959  
       828        829        840        839        949        950        961        960  
       829        830        841        840        950        951        962        961  
       830        831        842        841        951        952        963        962  
       831        832        843        842        952        953        964        963  
       832        833        844        843        953        954        965        964  
       833        834        845        844        954        955        966        965  
       834        835        846        845        955        956        967        966  
       835        836        847        846        956        957        968        967  
       848        849        860        859        969        970        981        980  
       849        850        861        860        970        971        982        981  
       850        851        862        861        971        972        983        982  
       851        852        863        862        972        973        984        983  
       852        853        864        863        973        974        985        984  
       853        854        865        864        974        975        986        985  
       854        855        866        865        975        976        987        986  
       855        856        867        866        976        977        988        987  
       856        857        868        867        977        978        989        988  
       857        858        869        868        978        979        990        989  
       859        860        871        870        980        981        992        991  
       860        861        872        871        981        982        993        992  
       861        862        873        872        982        983        994        993  
       862        863        874        873        983        984        995        994  
       863        864        875        874        984        985        996        995  
       864        865        876        875        985        986        997        996  
       865        866        877        876        986        987        998        997  
       866        867        878        877        987        988        999        998  
       867        868        879        878        988        989       1000        999  
       868        869        880        879        989        990       1001       1000  
       870        871        882        881        991        992       1003       1002  
       871        872        883        882        992        993       1004       1003  
       872        873        884        883        993        994       1005       1004  
       873        874        885        884        994        995       1006       1005  
       874        875        886        885        995        996       1007       1006  
       875        876        887        886        996        997       1008       1007  
       876        877        888        887        997        998       1009       1008  
       877        878        889        888        998        999       1010       1009  
       878        879        890        889        999       1000       1011       1010  
       879        880        891        890       1000       1001       1012       1011  
       881        882        893        892       1002       1003       1014       1013  
       882        883        894        893       1003       1004       1015       1014  
       883        884        895        894       1004       1005       1016       1015  
       884        885        896        895       1005       1006       1017       1016  
       885        886        897        896       1006       1007       1018       1017  
       886        887        898        897       1007       1008       1019       1018  
       887        888        899        898       1008       1009       1020       1019  
       888        889        900        899       1009       1010       1021       1020  
       889        890        901        900       1010       1011       1022       1021  
       890        891        902        901       1011       1012       1023       1022  
       892        893        904        903       1013       1014       1025       1024  
       893        894        905        904       1014       1015       1026       1025  
       894        895        906        905       1015       1016       1027       1026  
       895        896        907        906       1016       1017       1028       1027  
       896        897        908        907       1017       1018       1029       1028  
       897        898        909        908       1018       1019       1030       1029  
       898        899        910        909       1019       1020       1031       1030  
       899        900        911        910       1020       1021       1032       1031  
       900        901        912        911       1021       1022       1033       1032  
       901        902        913        912       1022       1023       1034       1033  
       903        904        915        914       1024       1025       1036       1035  
       904        905        916        915       1025       1026       1037       1036  
       905        906        917        916       1026       1027       1038       1037  
       906        907        918        917       1027       1028       1039       1038  
       907        908        919        918       1028       1029       1040       1039  
       908        909        920        919       1029       1030       1041       1040  
       909        910        921        920       1030       1031       1042       1041  
       910        911        922        921       1031       1032       1043       1042  
       911        912        923        922       1032       1033       1044       1043  
       912        913        924        923       1033       1034       1045       1044  
       914        915        926        925       1035       1036       1047       1046  
       915        916        927        926       1036       1037       1048       1047  
       916        917        928        927       1037       1038       1049       1048  
       917        918        929        928       1038       1039       1050       1049  
       918        919        930        929       1039       1040       1051       1050  
       919        920        931        930       1040       1041       1052       1051  
       920        921        932        931       1041       1042       1053       1052  
       921        922        933        932       1042       1043       1054       1053  
       922        923        934        933       1043       1044       1055       1054  
       923        924        935        934       1044       1045       1056       1055  
       925        926        937        936       1046       1047       1058       1057  
       926        927        938        937       1047       1048       1059       1058  
       927        928        939        938       1048       1049       1060       1059  
       928        929        940        939       1049       1050       1061       1060  
       929        930        941        940       1050       1051       1062       1061  
       930        931        942        941       1051       1052       1063       1062  
       931        932        943        942       1052       1053       1064       1063  
       932        933        944        943       1053       1054       1065       1064  
       933        934        945        944       1054       1055       1066       1065  
       934        935        946        945       1055       1056       1067       1066  
       936        937        948        947       1057       1058       1069       1068  
       937        938        949        948       1058       1059       1070       1069  
       938        939        950        949       1059       1060       1071       1070  
       939        940        951        950       1060       1061       1072       1071  
       940        941        952        951       1061       1062       1073       1072  
       941        942        953        952       1062       1063       1074       1073  
       942        943        954        953       1063       1064       1075       1074  
       943        944        955        954       1064       1065       1076       1075  
       944        945        956        955       1065       1066       1077       1076  
       945        946        957        956       1066       1067       1078       1077  
       947        948        959        958       1068       1069       1080       1079  
       948        949        960        959       1069       1070       1081       1080  
       949        950        961        960       1070       1071       1082       1081  
       950        951        962        961       1071       1072       1083       1082  
       951        952        963        962       1072       1073       1084       1083  
       952        953        964        963       1073       1074       1085       1084  
       953        954        965        964       1074       1075       1086       1085  
       954        955        966        965       1075       1076       1087       1086  
       955        956        967        966       1076       1077       1088       1087  
       956        957        968        967       1077       1078       1089       1088  
       969        970        981        980       1090       1091       1102       1101  
       970        971        982        981       1091       1092       1103       1102  
       971        972        983        982       1092       1093       1104       1103  
       972        973        984        983       1093       1094       1105       1104  
       973        974        985        984       1094       1095       1106       1105  
       974        975        986        985       1095       1096       1107       1106  
       975        976        987        986       1096       1097       1108       1107  
       976        977        988        987       1097       1098       1109       1108  
       977        978        989        988       1098       1099       1110       1109  
       978        979        990        989       1099       1100       1111       1110  
       980        981        992        991       1101       1102       1113       1112  
       981        982        993        992       1102       1103       1114       1113  
       982        983        994        993       1103       1104       1115       1114  
       983        984        995        994       1104       1105       1116       1115  
       984        985        996        995       1105       1106       1117       1116  
       985        986        997        996       1106       1107       1118       1117  
       986        987        998        997       1107       1108       1119       1118  
       987        988        999        998       1108       1109       1120       1119  
       988        989       1000        999       1109       1110       1121       1120  
       989        990       1001       1000       1110       1111       1122       1121  
       991        992       1003       1002       1112       1113       1124       1123  
       992        993       1004       1003       1113       1114       1125       1124  
       993        994       1005       1004       1114       1115       1126       1125  
       994        995       1006       1005       1115       1116       1127       1126  
       995        996       1007       1006       1116       1117       1128       1127  
       996        997       1008       1007       1117       1118       1129       1128  
       997        998       1009       1008       1118       1119       1130       1129  
       998        999       1010       1009       1119       1120       1131       1130  
       999       1000       1011       1010       1120       1121       1132       1131  
      1000       1001       1012       1011       1121       1122       1133       1132  
      1002       1003       1014       1013       1123       1124       1135       1134  
      1003       1004       1015       1014       1124       1125       1136       1135  
      1004       1005       1016       1015       1125       1126       1137       1136  
      1005       1006       1017       1016       1126       1127       1138       1137  
      1006       1007       1018       1017       1127       1128       1139       1138  
      1007       1008       1019       1018       1128       1129       1140       1139  
      1008       1009       1020       1019       1129       1130       1141       1140  
      1009       1010       1021       1020       1130       1131       1142       1141  
      1010       1011       1022       1021       1131       1132       1143       1142  
      1011       1012       1023       1022       1132       1133       1144       1143  
      1013       1014       1025       1024       1134       1135       1146       1145  
      1014       1015       1026       1025       1135       1136       1147       1146  
      1015       1016       1027       1026       1136       1137       1148       1147  
      1016       1017       1028       1027       1137       1138       1149       1148  
      1017       1018       1029       1028       1138       1139       1150       1149  
      1018       1019       1030       1029       1139       1140       1151       1150  
      1019       1020       1031       1030       1140       1141       1152       1151  
      1020       1021       1032       1031       1141       1142       1153       1152  
      1021       1022       1033       1032       1142       1143       1154       1153  
      1022       1023       1034       1033       1143       1144       1155       1154  
      1024       1025       1036       1035       1145       1146       1157       1156  
      1025       1026       1037       1036       1146       1147       1158       1157  
      1026       1027       1038       1037       1147       1148       1159       1158  
      1027       1028       1039       1038       1148       1149       1160       1159  
      1028       1029       1040       1039       1149       1150       1161       1160  
      1029       1030       1041       1040       1150       1151       1162       1161  
      1030       1031       1042       1041       1151       1152       1163       1162  
      1031       1032       1043       1042       1152       1153       1164       1163  
      1032       1033       1044       1043       1153       1154       1165       1164  
      1033       1034       1045       1044       1154       1155       1166       1165  
      1035       1036       1047       1046       1156       1157       1168       1167  
      1036       1037       1048       1047       1157       1158       1169       1168  
      1037       1038       1049       1048       1158       1159       1170       1169  
      1038       1039       1050       1049       1159       1160       1171       1170  
      1039       1040       1051       1050       1160       1161       1172       1171  
      1040       1041       1052       1051       1161       1162       1173       1172  
      1041       1042       1053       1052       1162       1163       1174       1173  
      1042       1043       1054       1053       1163       1164       1175       1174  
      1043       1044       1055       1054       1164       1165       1176       1175  
      1044       1045       1056       1055       1165       1166       1177       1176  
      1046       1047       1058       1057       1167       1168       1179       1178  
      1047       1048       1059       1058       1168       1169       1180       1179  
      1048       1049       1060       1059       1169       1170       1181       1180  
      1049       1050       1061       1060       1170       1171       1182       1181  
      1050       1051       1062       1061       1171       1172       1183       1182  
      1051       1052       1063       1062       1172       1173       1184       1183  
      1052       1053       1064       1063       1173       1174       1185       1184  
      1053       1054       1065       1064       1174       1175       1186       1185  
      1054       1055       1066       1065       1175       1176       1187       1186  
      1055       1056       1067       1066       1176       1177       1188       1187  
      1057       1058       1069       1068       1178       1179       1190       1189  
      1058       1059       1070       1069       1179       1180       1191       1190  
      1059       1060       1071       1070       1180       1181       1192       1191  
      1060       1061       1072       1071       1181       1182       1193       1192  
      1061       1062       1073       1072       1182       1183       1194       1193  
      1062       1063       1074       1073       1183       1184       1195       1194  
      1063       1064       1075       1074       1184       1185       1196       1195  
      1064       1065       1076       1075       1185       1186       1197       1196  
      1065       1066       1077       1076       1186       1187       1198       1197  
      1066       1067       1078       1077       1187       1188       1199       1198  
      1068       1069       1080       1079       1189       1190       1201       1200  
      1069       1070       1081       1080       1190       1191       1202       1201  
      1070       1071       1082       1081       1191       1192       1203       1202  
      1071       1072       1083       1082       1192       1193       1204       1203  
      1072       1073       1084       1083       1193       1194       1205       1204  
      1073       1074       1085       1084       1194       1195       1206       1205  
      1074       1075       1086       1085       1195       1196       1207       1206  
      1075       1076       1087       1086       1196       1197       1208       1207  
      1076       1077       1088       1087       1197       1198       1209       1208  
      1077       1078       1089       1088       1198       1199       1210       1209  
      1090       1091       1102       1101       1211       1212       1223       1222  
      1091       1092       1103       1102       1212       1213       1224       1223  
      1092       1093       1104       1103       1213       1214       1225       1224  
      1093       1094       1105       1104       1214       1215       1226       1225  
      1094       1095       1106       1105       1215       1216       1227       1226  
      1095       1096       1107       1106       1216       1217       1228       1227  
      1096       1097       1108       1107       1217       1218       1229       1228  
      1097       1098       1109       1108       1218       1219       1230       1229  
      1098       1099       1110       1109       1219       1220       1231       1230  
      1099       1100       1111       1110       1220       1221       1232       1231  
      1101       1102       1113       1112       1222       1223       1234       1233  
      1102       1103       1114       1113       1223       1224       1235       1234  
      1103       1104       1115       1114       1224       1225       1236       1235  
      1104       1105       1116       1115       1225       1226       1237       1236  
      1105       1106       1117       1116       1226       1227       1238       1237  
      1106       1107       1118       1117       1227       1228       1239       1238  
      1107       1108       1119       1118       1228       1229       1240       1239  
      1108       1109       1120       1119       1229       1230       1241       1240  
      1109       1110       1121       1120       1230       1231       1242       1241  
      1110       1111       1122       1121       1231       1232       1243       1242  
      1112       1113       1124       1123       1233       1234       1245       1244  
      1113       1114       1125       1124       1234       1235       1246       1245  
      1114       1115       1126       1125       1235       1236       1247       1246  
      1115       1116       1127       1126       1236       1237       1248       1247  
      1116       1117       1128       1127       1237       1238       1249       1248  
      1117       1118       1129       1128       1238       1239       1250       1249  
      1118       1119       1130       1129       1239       1240       1251       1250  
      1119       1120       1131       1130       1240       1241       1252       1251  
      1120       1121       1132       1131       1241       1242       1253       1252  
      1121       1122       1133       1132       1242       1243       1254       1253  
      1123       1124       1135       1134       1244       1245       1256       1255  
      1124       1125       1136       1135       1245       1246       1257       1256  
      1125       1126       1137       1136       1246       1247       1258       1257  
      1126       1127       1138       1137       1247       1248       1259       1258  
      1127       1128       1139       1138       1248       1249       1260       1259  
      1128       1129       1140       1139       1249       1250       1261       1260  
      1129       1130       1141       1140       1250       1251       1262       1261  
      1130       1131       1142       1141       1251       1252       1263       1262  
      1131       1132       1143       1142       1252       1253       1264       1263  
      1132       1133       1144       1143       1253       1254       1265       1264  
      1134       1135       1146       1145       1255       1256       1267       1266  
      1135       1136       1147       1146       1256       1257       1268       1267  
      1136       1137       1148       1147       1257       1258       1269       1268  
      1137       1138       1149       1148       1258       1259       1270       1269  
      1138       1139       1150       1149       1259       1260       1271       1270  
      1139       1140       1151       1150       1260       1261       1272       1271  
      1140       1141       1152       1151       1261       1262       1273       1272  
      1141       1142       1153       1152       1262       1263       1274       1273  
      1142       1143       1154       1153       1263       1264       1275       1274  
      1143       1144       1155       1154       1264       1265       1276       1275  
      1145       1146       1157       1156       1266       1267       1278       1277  
      1146       1147       1158       1157       1267       1268       1279       1278  
      1147       1148       1159       1158       1268       1269       1280       1279  
      1148       1149       1160       1159       1269       1270       1281       1280  
      1149       1150       1161       1160       1270       1271       1282       1281  
      1150       1151       1162       1161       1271       1272       1283       1282  
      1151       1152       1163       1162       1272       1273       1284       1283  
      1152       1153       1164       1163       1273       1274       1285       1284  
      1153       1154       1165       1164       1274       1275       1286       1285  
      1154       1155       1166       1165       1275       1276       1287       1286  
      1156       1157       1168       1167       1277       1278       1289       1288  
      1157       1158       1169       1168       1278       1279       1290       1289  
      1158       1159       1170       1169       1279       1280       1291       1290  
      1159       1160       1171       1170       1280       1281       1292       1291  
      1160       1161       1172       1171       1281       1282       1293       1292  
      1161       1162       1173       1172       1282       1283       1294       1293  
      1162       1163       1174       1173       1283       1284       1295       1294  
      1163       1164       1175       1174       1284       1285       1296       1295  
      1164       1165       1176       1175       1285       1286       1297       1296  
      1165       1166       1177       1176       1286       1287       1298       1297  
      1167       1168       1179       1178       1288       1289       1300       1299  
      1168       1169       1180       1179       1289       1290       1301       1300  
      1169       1170       1181       1180       1290       1291       1302       1301  
      1170       1171       1182       1181       1291       1292       1303       1302  
      1171       1172       1183       1182       1292       1293       1304       1303  
      1172       1173       1184       1183       1293       1294       1305       1304  
      1173       1174       1185       1184       1294       1295       1306       1305  
      1174       1175       1186       1185       1295       1296       1307       1306  
      1175       1176       1187       1186       1296       1297       1308       1307  
      1176       1177       1188       1187       1297       1298       1309       1308  
      1178       1179       1190       1189       1299       1300       1311       1310  
      1179       1180       1191       1190       1300       1301       1312       1311  
      1180       1181       1192       1191       1301       1302       1313       1312  
      1181       1182       1193       1192       1302       1303       1314       1313  
      1182       1183       1194       1193       1303       1304       1315       1314  
      1183       1184       1195       1194       1304       1305       1316       1315  
      1184       1185       1196       1195       1305       1306       1317       1316  
      1185       1186       1197       1196       1306       1307       1318       1317  
      1186       1187       1198       1197       1307       1308       1319       1318  
      1187       1188       1199       1198       1308       1309       1320       1319  
      1189       1190       1201       1200       1310       1311       1322       1321  
      1190       1191       1202       1201       1311       1312       1323       1322  
      1191       1192       1203       1202       1312       1313       1324       1323  
      1192       1193       1204       1203       1313       1314       1325       1324  
      1193       1194       1205       1204       1314       1315       1326       1325  
      1194       1195       1206       1205       1315       1316       1327       1326  
      1195       1196       1207       1206       1316       1317       1328       1327  
      1196       1197       1208       1207       1317       1318       1329       1328  
      1197       1198       1209       1208       1318       1319       1330       1329  
      1198       1199       1210       1209       1319       1320       1331       1330  
      1211       1212       1223       1222       1332       1333       1344       1343  
      1212       1213       1224       1223       1333       1334       1345       1344  
      1213       1214       1225       1224       1334       1335       1346       1345  
      1214       1215       1226       1225       1335       1336       1347       1346  
      1215       1216       1227       1226       1336       1337       1348       1347  
      1216       1217       1228       1227       1337       1338       1349       1348  
      1217       1218       1229       1228       1338       1339       1350       1349  
      1218       1219       1230       1229       1339       1340       1351       1350  
      1219       1220       1231       1230       1340       1341       1352       1351  
      1220       1221       1232       1231       1341       1342       1353       1352  
      1222       1223       1234       1233       1343       1344       1355       1354  
      1223       1224       1235       1234       1344       1345       1356       1355  
      1224       1225       1236       1235       1345       1346       1357       1356  
      1225       1226       1237       1236       1346       1347       1358       1357  
      1226       1227       1238       1237       1347       1348       1359       1358  
      1227       1228       1239       1238       1348       1349       1360       1359  
      1228       1229       1240       1239       1349       1350       1361       1360  
      1229       1230       1241       1240       1350       1351       1362       1361  
      1230       1231       1242       1241       1351       1352       1363       1362  
      1231       1232       1243       1242       1352       1353       1364       1363  
      1233       1234       1245       1244       1354       1355       1366       1365  
      1234       1235       1246       1245       1355       1356       1367       1366  
      1235       1236       1247       1246       1356       1357       1368       1367  
      1236       1237       1248       1247       1357       1358       1369       1368  
      1237       1238       1249       1248       1358       1359       1370       1369  
      1238       1239       1250       1249       1359       1360       1371       1370  
      1239       1240       1251       1250       1360       1361       1372       1371  
      1240       1241       1252       1251       1361       1362       1373       1372  
      1241       1242       1253       1252       1362       1363       1374       1373  
      1242       1243       1254       1253       1363       1364       1375       1374  
      1244       1245       1256       1255       1365       1366       1377       1376  
      1245       1246       1257       1256       1366       1367       1378       1377  
      1246       1247       1258       1257       1367       1368       1379       1378  
      1247       1248       1259       1258       1368       1369       1380       1379  
      1248       1249       1260       1259       1369       1370       1381       1380  
      1249       1250       1261       1260       1370       1371       1382       1381  
      1250       1251       1262       1261       1371       1372       1383       1382  
      1251       1252       1263       1262       1372       1373       1384       1383  
      1252       1253       1264       1263       1373       1374       1385       1384  
      1253       1254       1265       1264       1374       1375       1386       1385  
      1255       1256       1267       1266       1376       1377       1388       1387  
      1256       1257       1268       1267       1377       1378       1389       1388  
      1257       1258       1269       1268       1378       1379       1390       1389  
      1258       1259       1270       1269       1379       1380       1391       1390  
      1259       1260       1271       1270       1380       1381       1392       1391  
      1260       1261       1272       1271       1381       1382       1393       1392  
      1261       1262       1273       1272       1382       1383       1394       1393  
      1262       1263       1274       1273       1383       1384       1395       1394  
      1263       1264       1275       1274       1384       1385       1396       1395  
      1264       1265       1276       1275       1385       1386       1397       1396  
      1266       1267       1278       1277       1387       1388       1399       1398  
      1267       1268       1279       1278       1388       1389       1400       1399  
      1268       1269       1280       1279       1389       1390       1401       1400  
      1269       1270       1281       1280       1390       1391       1402       1401  
      1270       1271       1282       1281       1391       1392       1403       1402  
      1271       1272       1283       1282       1392       1393       1404       1403  
      1272       1273       1284       1283       1393       1394       1405       1404  
      1273       1274       1285       1284       1394       1395       1406       1405  
      1274       1275       1286       1285       1395       1396       1407       1406  
      1275       1276       1287       1286       1396       1397       1408       1407  
      1277       1278       1289       1288       1398       1399       1410       1409  
      1278       1279       1290       1289       1399       1400       1411       1410  
      1279       1280       1291       1290       1400       1401       1412       1411  
      1280       1281       1292       1291       1401       1402       1413       1412  
      1281       1282       1293       1292       1402       1403       1414       1413  
      1282       1283       1294       1293       1403       1404       1415       1414  
      1283       1284       1295       1294       1404       1405       1416       1415  
      1284       1285       1296       1295       1405       1406       1417       1416  
      1285       1286       1297       1296       1406       1407       1418       1417  
      1286       1287       1298       1297       1407       1408       1419       1418  
      1288       1289       1300       1299       1409       1410       1421       1420  
      1289       1290       1301       1300       1410       1411       1422       1421  
      1290       1291       1302       1301       1411       1412       1423       1422  
      1291       1292       1303       1302       1412       1413       1424       1423  
      1292       1293       1304       1303       1413       1414       1425       1424  
      1293       1294       1305       1304       1414       1415       1426       1425  
      1294       1295       1306       1305       1415       1416       1427       1426  
      1295       1296       1307       1306       1416       1417       1428       1427  
      1296       1297       1308       1307       1417       1418       1429       1428  
      1297       1298       1309       1308       1418       1419       1430       1429  
      1299       1300       1311       1310       1420       1421       1432       1431  
      1300       1301       1312       1311       1421       1422       1433       1432  
      1301       1302       1313       1312       1422       1423       1434       1433  
      1302       1303       1314       1313       1423       1424       1435       1434  
      1303       1304       1315       1314       1424       1425       1436       1435  
      1304       1305       1316       1315       1425       1426       1437       1436  
      1305       1306       1317       1316       1426       1427       1438       1437  
      1306       1307       1318       1317       1427       1428       1439       1438  
      1307       1308       1319       1318       1428       1429       1440       1439  
      1308       1309       1320       1319       1429       1430       1441       1440  
      1310       1311       1322       1321       1431       1432       1443       1442  
      1311       1312       1323       1322       1432       1433       1444       1443  
      1312       1313       1324       1323       1433       1434       1445       1444  
      1313       1314       1325       1324       1434       1435       1446       1445  
      1314       1315       1326       1325       1435       1436       1447       1446  
      1315       1316       1327       1326       1436       1437       1448       1447  
      1316       1317       1328       1327       1437       1438       1449       1448  
      1317       1318       1329       1328       1438       1439       1450       1449  
      1318       1319       1330       1329       1439       1440       1451       1450  
      1319       1320       1331       1330       1440       1441       1452       1451  
      1332       1333       1344       1343       1453       1454       1465       1464  
      1333       1334       1345       1344       1454       1455       1466       1465  
      1334       1335       1346       1345       1455       1456       1467       1466  
      1335       1336       1347       1346       1456       1457       1468       1467  
      1336       1337       1348       1347       1457       1458       1469       1468  
      1337       1338       1349       1348       1458       1459       1470       1469  
      1338       1339       1350       1349       1459       1460       1471       1470  
      1339       1340       1351       1350       1460       1461       1472       1471  
      1340       1341       1352       1351       1461       1462       1473       1472  
      1341       1342       1353       1352       1462       1463       1474       1473  
      1343       1344       1355       1354       1464       1465       1476       1475  
      1344       1345       1356       1355       1465       1466       1477       1476  
      1345       1346       1357       1356       1466       1467       1478       1477  
      1346       1347       1358       1357       1467       1468       1479       1478  
      1347       1348       1359       1358       1468       1469       1480       1479  
      1348       1349       1360       1359       1469       1470       1481       1480  
      1349       1350       1361       1360       1470       1471       1482       1481  
      1350       1351       1362       1361       1471       1472       1483       1482  
      1351       1352       1363       1362       1472       1473       1484       1483  
      1352       1353       1364       1363       1473       1474       1485       1484  
      1354       1355       1366       1365       1475       1476       1487       1486  
      1355       1356       1367       1366       1476       1477       1488       1487  
      1356       1357       1368       1367       1477       1478       1489       1488  
      1357       1358       1369       1368       1478       1479       1490       1489  
      1358       1359       1370       1369       1479       1480       1491       1490  
      1359       1360       1371       1370       1480       1481       1492       1491  
      1360       1361       1372       1371       1481       1482       1493       1492  
      1361       1362       1373       1372       1482       1483       1494       1493  
      1362       1363       1374       1373       1483       1484       1495       1494  
      1363       1364       1375       1374       1484       1485       1496       1495  
      1365       1366       1377       1376       1486       1487       1498       1497  
      1366       1367       1378       1377       1487       1488       1499       1498  
      1367       1368       1379       1378       1488       1489       1500       1499  
      1368       1369       1380       1379       1489       1490       1501       1500  
      1369       1370       1381       1380       1490       1491       1502       1501  
      1370       1371       1382       1381       1491       1492       1503       1502  
      1371       1372       1383       1382       1492       1493       1504       1503  
      1372       1373       1384       1383       1493       1494       1505       1504  
      1373       1374       1385       1384       1494       1495       1506       1505  
      1374       1375       1386       1385       1495       1496       1507       1506  
      1376       1377       1388       1387       1497       1498       1509       1508  
      1377       1378       1389       1388       1498       1499       1510       1509  
      1378       1379       1390       1389       1499       1500       1511       1510  
      1379       1380       1391       1390       1500       1501       1512       1511  
      1380       1381       1392       1391       1501       1502       1513       1512  
      1381       1382       1393       1392       1502       1503       1514       1513  
      1382       1383       1394       1393       1503       1504       1515       1514  
      1383       1384       1395       1394       1504       1505       1516       1515  
      1384       1385       1396       1395       1505       1506       1517       1516  
      1385       1386       1397       1396       1506       1507       1518       1517  
      1387       1388       1399       1398       1508       1509       1520       1519  
      1388       1389       1400       1399       1509       1510       1521       1520  
      1389       1390       1401       1400       1510       1511       1522       1521  
      1390       1391       1402       1401       1511       1512       1523       1522  
      1391       1392       1403       1402       1512       1513       1524       1523  
      1392       1393       1404       1403       1513       1514       1525       1524  
      1393       1394       1405       1404       1514       1515       1526       1525  
      1394       1395       1406       1405       1515       1516       1527       1526  
      1395       1396       1407       1406       1516       1517       1528       1527  
      1396       1397       1408       1407       1517       1518       1529       1528  
      1398       1399       1410       1409       1519       1520       1531       1530  
      1399       1400       1411       1410       1520       1521       1532       1531  
      1400       1401       1412       1411       1521       1522       1533       1532  
      1401       1402       1413       1412       1522       1523       1534       1533  
      1402       1403       1414       1413       1523       1524       1535       1534  
      1403       1404       1415       1414       1524       1525       1536       1535  
      1404       1405       1416       1415       1525       1526       1537       1536  
      1405       1406       1417       1416       1526       1527       1538       1537  
      1406       1407       1418       1417       1527       1528       1539       1538  
      1407       1408       1419       1418       1528       1529       1540       1539  
      1409       1410       1421       1420       1530       1531       1542       1541  
      1410       1411       1422       1421       1531       1532       1543       1542  
      1411       1412       1423       1422       1532       1533       1544       1543  
      1412       1413       1424       1423       1533       1534       1545       1544  
      1413       1414       1425       1424       1534       1535       1546       1545  
      1414       1415       1426       1425       1535       1536       1547       1546  
      1415       1416       1427       1426       1536       1537       1548       1547  
      1416       1417       1428       1427       1537       1538       1549       1548  
      1417       1418       1429       1428       1538       1539       1550       1549  
      1418       1419       1430       1429       1539       1540       1551       1550  
      1420       1421       1432       1431       1541       1542       1553       1552  
      1421       1422       1433       1432       1542       1543       1554       1553  
      1422       1423       1434       1433       1543       1544       1555       1554  
      1423       1424       1435       1434       1544       1545       1556       1555  
      1424       1425       1436       1435       1545       1546       1557       1556  
      1425       1426       1437       1436       1546       1547       1558       1557  
      1426       1427       1438       1437       1547       1548       1559       1558  
      1427       1428       1439       1438       1548       1549       1560       1559  
      1428       1429       1440       1439       1549       1550       1561       1560  
      1429       1430       1441       1440       1550       1551       1562       1561  
      1431       1432       1443       1442       1552       1553       1564       1563  
      1432       1433       1444       1443       1553       1554       1565       1564  
      1433       1434       1445       1444       1554       1555       1566       1565  
      1434       1435       1446       1445       1555       1556       1567       1566  
      1435       1436       1447       1446       1556       1557       1568       1567  
      1436       1437       1448       1447       1557       1558       1569       1568  
      1437       1438       1449       1448       1558       1559       1570       1569  
      1438       1439       1450       1449       1559       1560       1571       1570  
      1439       1440       1451       1450       1560       1561       1572       1571  
      1440       1441       1452       1451       1561       1562       1573       1572  
      1453       1454       1465       1464       1574       1575       1586       1585  
      1454       1455       1466       1465       1575       1576       1587       1586  
      1455       1456       1467       1466       1576       1577       1588       1587  
      1456       1457       1468       1467       1577       1578       1589       1588  
      1457       1458       1469       1468       1578       1579       1590       1589  
      1458       1459       1470       1469       1579       1580       1591       1590  
      1459       1460       1471       1470       1580       1581       1592       1591  
      1460       1461       1472       1471       1581       1582       1593       1592  
      1461       1462       1473       1472       1582       1583       1594       1593  
      1462       1463       1474       1473       1583       1584       1595       1594  
      1464       1465       1476       1475       1585       1586       1597       1596  
      1465       1466       1477       1476       1586       1587       1598       1597  
      1466       1467       1478       1477       1587       1588       1599       1598  
      1467       1468       1479       1478       1588       1589       1600       1599  
      1468       1469       1480       1479       1589       1590       1601       1600  
      1469       1470       1481       1480       1590       1591       1602       1601  
      1470       1471       1482       1481       1591       1592       1603       1602  
      1471       1472       1483       1482       1592       1593       1604       1603  
      1472       1473       1484       1483       1593       1594       1605       1604  
      1473       1474       1485       1484       1594       1595       1606       1605  
      1475       1476       1487       1486       1596       1597       1608       1607  
      1476       1477       1488       1487       1597       1598       1609       1608  
      1477       1478       1489       1488       1598       1599       1610       1609  
      1478       1479       1490       1489       1599       1600       1611       1610  
      1479       1480       1491       1490       1600       1601       1612       1611  
      1480       1481       1492       1491       1601       1602       1613       1612  
      1481       1482       1493       1492       1602       1603       1614       1613  
      1482       1483       1494       1493       1603       1604       1615       1614  
      1483       1484       1495       1494       1604       1605       1616       1615  
      1484       1485       1496       1495       1605       1606       1617       1616  
      1486       1487       1498       1497       1607       1608       1619       1618  
      1487       1488       1499       1498       1608       1609       1620       1619  
      1488       1489       1500       1499       1609       1610       1621       1620  
      1489       1490       1501       1500       1610       1611       1622       1621  
      1490       1491       1502       1501       1611       1612       1623       1622  
      1491       1492       1503       1502       1612       1613       1624       1623  
      1492       1493       1504       1503       1613       1614       1625       1624  
      1493       1494       1505       1504       1614       1615       1626       1625  
      1494       1495       1506       1505       1615       1616       1627       1626  
      1495       1496       1507       1506       1616       1617       1628       1627  
      1497       1498       1509       1508       1618       1619       1630       1629  
      1498       1499       1510       1509       1619       1620       1631       1630  
      1499       1500       1511       1510       1620       1621       1632       1631  
      1500       1501       1512       1511       1621       1622       1633       1632  
      1501       1502       1513       1512       1622       1623       1634       1633  
      1502       1503       1514       1513       1623       1624       1635       1634  
      1503       1504       1515       1514       1624       1625       1636       1635  
      1504       1505       1516       1515       1625       1626       1637       1636  
      1505       1506       1517       1516       1626       1627       1638       1637  
      1506       1507       1518       1517       1627       1628       1639       1638  
      1508       1509       1520       1519       1629       1630       1641       1640  
      1509       1510       1521       1520       1630       1631       1642       1641  
      1510       1511       1522       1521       1631       1632       1643       1642  
      1511       1512       1523       1522       1632       1633       1644       1643  
      1512       1513       1524       1523       1633       1634       1645       1644  
      1513       1514       1525       1524       1634       1635       1646       1645  
      1514       1515       1526       1525       1635       1636       1647       1646  
      1515       1516       1527       1526       1636       1637       1648       1647  
      1516       1517       1528       1527       1637       1638       1649       1648  
      1517       1518       1529       1528       1638       1639       1650       1649  
      1519       1520       1531       1530       1640       1641       1652       1651  
      1520       1521       1532       1531       1641       1642       1653       1652  
      1521       1522       1533       1532       1642       1643       1654       1653  
      1522       1523       1534       1533       1643       1644       1655       1654  
      1523       1524       1535       1534       1644       1645       1656       1655  
      1524       1525       1536       1535       1645       1646       1657       1656  
      1525       1526       1537       1536       1646       1647       1658       1657  
      1526       1527       1538       1537       1647       1648       1659       1658  
      1527       1528       1539       1538       1648       1649       1660       1659  
      1528       1529       1540       1539       1649       1650       1661       1660  
      1530       1531       1542       1541       1651       1652       1663       1662  
      1531       1532       1543       1542       1652       1653       1664       1663  
      1532       1533       1544       1543       1653       1654       1665       1664  
      1533       1534       1545       1544       1654       1655       1666       1665  
      1534       1535       1546       1545       1655       1656       1667       1666  
      1535       1536       1547       1546       1656       1657       1668       1667  
      1536       1537       1548       1547       1657       1658       1669       1668  
      1537       1538       1549       1548       1658       1659       1670       1669  
      1538       1539       1550       1549       1659       1660       1671       1670  
      1539       1540       1551       1550       1660       1661       1672       1671  
      1541       1542       1553       1552       1662       1663       1674       1673  
      1542       1543       1554       1553       1663       1664       1675       1674  
      1543       1544       1555       1554       1664       1665       1676       1675  
      1544       1545       1556       1555       1665       1666       1677       1676  
      1545       1546       1557       1556       1666       1667       1678       1677  
      1546       1547       1558       1557       1667       1668       1679       1678  
      1547       1548       1559       1558       1668       1669       1680       1679  
      1548       1549       1560       1559       1669       1670       1681       1680  
      1549       1550       1561       1560       1670       1671       1682       1681  
      1550       1551       1562       1561       1671       1672       1683       1682  
      1552       1553       1564       1563       1673       1674       1685       1684  
      1553       1554       1565       1564       1674       1675       1686       1685  
      1554       1555       1566       1565       1675       1676       1687       1686  
      1555       1556       1567       1566       1676       1677       1688       1687  
      1556       1557       1568       1567       1677       1678       1689       1688  
      1557       1558       1569       1568       1678       1679       1690       1689  
      1558       1559       1570       1569       1679       1680       1691       1690  
      1559       1560       1571       1570       1680       1681       1692       1691  
      1560       1561       1572       1571       1681       1682       1693       1692  
      1561       1562       1573       1572       1682       1683       1694       1693  
      1574       1575       1586       1585       1695       1696       1707       1706  
      1575       1576       1587       1586       1696       1697       1708       1707  
      1576       1577       1588       1587       1697       1698       1709       1708  
      1577       1578       1589       1588       1698       1699       1710       1709  
      1578       1579       1590       1589       1699       1700       1711       1710  
      1579       1580       1591       1590       1700       1701       1712       1711  
      1580       1581       1592       1591       1701       1702       1713       1712  
      1581       1582       1593       1592       1702       1703       1714       1713  
      1582       1583       1594       1593       1703       1704       1715       1714  
      1583       1584       1595       1594       1704       1705       1716       1715  
      1585       1586       1597       1596       1706       1707       1718       1717  
      1586       1587       1598       1597       1707       1708       1719       1718  
      1587       1588       1599       1598       1708       1709       1720       1719  
      1588       1589       1600       1599       1709       1710       1721       1720  
      1589       1590       1601       1600       1710       1711       1722       1721  
      1590       1591       1602       1601       1711       1712       1723       1722  
      1591       1592       1603       1602       1712       1713       1724       1723  
      1592       1593       1604       1603       1713       1714       1725       1724  
      1593       1594       1605       1604       1714       1715       1726       1725  
      1594       1595       1606       1605       1715       1716       1727       1726  
      1596       1597       1608       1607       1717       1718       1729       1728  
      1597       1598       1609       1608       1718       1719       1730       1729  
      1598       1599       1610       1609       1719       1720       1731       1730  
      1599       1600       1611       1610       1720       1721       1732       1731  
      1600       1601       1612       1611       1721       1722       1733       1732  
      1601       1602       1613       1612       1722       1723       1734       1733  
      1602       1603       1614       1613       1723       1724       1735       1734  
      1603       1604       1615       1614       1724       1725       1736       1735  
      1604       1605       1616       1615       1725       1726       1737       1736  
      1605       1606       1617       1616       1726       1727       1738       1737  
      1607       1608       1619       1618       1728       1729       1740       1739  
      1608       1609       1620       1619       1729       1730       1741       1740  
      1609       1610       1621       1620       1730       1731       1742       1741  
      1610       1611       1622       1621       1731       1732       1743       1742  
      1611       1612       1623       1622       1732       1733       1744       1743  
      1612       1613       1624       1623       1733       1734       1745       1744  
      1613       1614       1625       1624       1734       1735       1746       1745  
      1614       1615       1626       1625       1735       1736       1747       1746  
      1615       1616       1627       1626       1736       1737       1748       1747  
      1616       1617       1628       1627       1737       1738       1749       1748  
      1618       1619       1630       1629       1739       1740       1751       1750  
      1619       1620       1631       1630       1740       1741       1752       1751  
      1620       1621       1632       1631       1741       1742       1753       1752  
      1621       1622       1633       1632       1742       1743       1754       1753  
      1622       1623       1634       1633       1743       1744       1755       1754  
      1623       1624       1635       1634       1744       1745       1756       1755  
      1624       1625       1636       1635       1745       1746       1757       1756  
      1625       1626       1637       1636       1746       1747       1758       1757  
      1626       1627       1638       1637       1747       1748       1759       1758  
      1627       1628       1639       1638       1748       1749       1760       1759  
      1629       1630       1641       1640       1750       1751       1762       1761  
      1630       1631       1642       1641       1751       1752       1763       1762  
      1631       1632       1643       1642       1752       1753       1764       1763  
      1632       1633       1644       1643       1753       1754       1765       1764  
      1633       1634       1645       1644       1754       1755       1766       1765  
      1634       1635       1646       1645       1755       1756       1767       1766  
      1635       1636       1647       1646       1756       1757       1768       1767  
      1636       1637       1648       1647       1757       1758       1769       1768  
      1637       1638       1649       1648       1758       1759       1770       1769  
      1638       1639       1650       1649       1759       1760       1771       1770  
      1640       1641       1652       1651       1761       1762       1773       1772  
      1641       1642       1653       1652       1762       1763       1774       1773  
      1642       1643       1654       1653       1763       1764       1775       1774  
      1643       1644       1655       1654       1764       1765       1776       1775  
      1644       1645       1656       1655       1765       1766       1777       1776  
      1645       1646       1657       1656       1766       1767       1778       1777  
      1646       1647       1658       1657       1767       1768       1779       1778  
      1647       1648       1659       1658       1768       1769       1780       1779  
      1648       1649       1660       1659       1769       1770       1781       1780  
      1649       1650       1661       1660       1770       1771       1782       1781  
      1651       1652       1663       1662       1772       1773       1784       1783  
      1652       1653       1664       1663       1773       1774       1785       1784  
      1653       1654       1665       1664       1774       1775       1786       1785  
      1654       1655       1666       1665       1775       1776       1787       1786  
      1655       1656       1667       1666       1776       1777       1788       1787  
      1656       1657       1668       1667       1777       1778       1789       1788  
      1657       1658       1669       1668       1778       1779       1790       1789  
      1658       1659       1670       1669       1779       1780       1791       1790  
      1659       1660       1671       1670       1780       1781       1792       1791  
      1660       1661       1672       1671       1781       1782       1793       1792  
      1662       1663       1674       1673       1783       1784       1795       1794  
      1663       1664       1675       1674       1784       1785       1796       1795  
      1664       1665       1676       1675       1785       1786       1797       1796  
      1665       1666       1677       1676       1786       1787       1798       1797  
      1666       1667       1678       1677       1787       1788       1799       1798  
      1667       1668       1679       1678       1788       1789       1800       1799  
      1668       1669       1680       1679       1789       1790       1801       1800  
      1669       1670       1681       1680       1790       1791       1802       1801  
      1670       1671       1682       1681       1791       1792       1803       1802  
      1671       1672       1683       1682       1792       1793       1804       1803  
      1673       1674       1685       1684       1794       1795       1806       1805  
      1674       1675       1686       1685       1795       1796       1807       1806  
      1675       1676       1687       1686       1796       1797       1808       1807  
      1676       1677       1688       1687       1797       1798       1809       1808  
      1677       1678       1689       1688       1798       1799       1810       1809  
      1678       1679       1690       1689       1799       1800       1811       1810  
      1679       1680       1691       1690       1800       1801       1812       1811  
      1680       1681       1692       1691       1801       1802       1813       1812  
      1681       1682       1693       1692       1802       1803       1814       1813  
      1682       1683       1694       1693       1803       1804       1815       1814  
      1695       1696       1707       1706       1816       1817       1828       1827  
      1696       1697       1708       1707       1817       1818       1829       1828  
      1697       1698       1709       1708       1818       1819       1830       1829  
      1698       1699       1710       1709       1819       1820       1831       1830  
      1699       1700       1711       1710       1820       1821       1832       1831  
      1700       1701       1712       1711       1821       1822       1833       1832  
      1701       1702       1713       1712       1822       1823       1834       1833  
      1702       1703       1714       1713       1823       1824       1835       1834  
      1703       1704       1715       1714       1824       1825       1836       1835  
      1704       1705       1716       1715       1825       1826       1837       1836  
      1706       1707       1718       1717       1827       1828       1839       1838  
      1707       1708       1719       1718       1828       1829       1840       1839  
      1708       1709       1720       1719       1829       1830       1841       1840  
      1709       1710       1721       1720       1830       1831       1842       1841  
      1710       1711       1722       1721       1831       1832       1843       1842  
      1711       1712       1723       1722       1832       1833       1844       1843  
      1712       1713       1724       1723       1833       1834       1845       1844  
      1713       1714       1725       1724       1834       1835       1846       1845  
      1714       1715       1726       1725       1835       1836       1847       1846  
      1715       1716       1727       1726       1836       1837       1848       1847  
      1717       1718       1729       1728       1838       1839       1850       1849  
      1718       1719       1730       1729       1839       1840       1851       1850  
      1719       1720       1731       1730       1840       1841       1852       1851  
      1720       1721       1732       1731       1841       1842       1853       1852  
      1721       1722       1733       1732       1842       1843       1854       1853  
      1722       1723       1734       1733       1843       1844       1855       1854  
      1723       1724       1735       1734       1844       1845       1856       1855  
      1724       1725       1736       1735       1845       1846       1857       1856  
      1725       1726       1737       1736       1846       1847       1858       1857  
      1726       1727       1738       1737       1847       1848       1859       1858  
      1728       1729       1740       1739       1849       1850       1861       1860  
      1729       1730       1741       1740       1850       1851       1862       1861  
      1730       1731       1742       1741       1851       1852       1863       1862  
      1731       1732       1743       1742       1852       1853       1864       1863  
      1732       1733       1744       1743       1853       1854       1865       1864  
      1733       1734       1745       1744       1854       1855       1866       1865  
      1734       1735       1746       1745       1855       1856       1867       1866  
      1735       1736       1747       1746       1856       1857       1868       1867  
      1736       1737       1748       1747       1857       1858       1869       1868  
      1737       1738       1749       1748       1858       1859       1870       1869  
      1739       1740       1751       1750       1860       1861       1872       1871  
      1740       1741       1752       1751       1861       1862       1873       1872  
      1741       1742       1753       1752       1862       1863       1874       1873  
      1742       1743       1754       1753       1863       1864       1875       1874  
      1743       1744       1755       1754       1864       1865       1876       1875  
      1744       1745       1756       1755       1865       1866       1877       1876  
      1745       1746       1757       1756       1866       1867       1878       1877  
      1746       1747       1758       1757       1867       1868       1879       1878  
      1747       1748       1759       1758       1868       1869       1880       1879  
      1748       1749       1760       1759       1869       1870       1881       1880  
      1750       1751       1762       1761       1871       1872       1883       1882  
      1751       1752       1763       1762       1872       1873       1884       1883  
      1752       1753       1764       1763       1873       1874       1885       1884  
      1753       1754       1765       1764       1874       1875       1886       1885  
      1754       1755       1766       1765       1875       1876       1887       1886  
      1755       1756       1767       1766       1876       1877       1888       1887  
      1756       1757       1768       1767       1877       1878       1889       1888  
      1757       1758       1769       1768       1878       1879       1890       1889  
      1758       1759       1770       1769       1879       1880       1891       1890  
      1759       1760       1771       1770       1880       1881       1892       1891  
      1761       1762       1773       1772       1882       1883       1894       1893  
      1762       1763       1774       1773       1883       1884       1895       1894  
      1763       1764       1775       1774       1884       1885       1896       1895  
      1764       1765       1776       1775       1885       1886       1897       1896  
      1765       1766       1777       1776       1886       1887       1898       1897  
      1766       1767       1778       1777       1887       1888       1899       1898  
      1767       1768       1779       1778       1888       1889       1900       1899  
      1768       1769       1780       1779       1889       1890       1901       1900  
      1769       1770       1781       1780       1890       1891       1902       1901  
      1770       1771       1782       1781       1891       1892       1903       1902  
      1772       1773       1784       1783       1893       1894       1905       1904  
      1773       1774       1785       1784       1894       1895       1906       1905  
      1774       1775       1786       1785       1895       1896       1907       1906  
      1775       1776       1787       1786       1896       1897       1908       1907  
      1776       1777       1788       1787       1897       1898       1909       1908  
      1777       1778       1789       1788       1898       1899       1910       1909  
      1778       1779       1790       1789       1899       1900       1911       1910  
      1779       1780       1791       1790       1900       1901       1912       1911  
      1780       1781       1792       1791       1901       1902       1913       1912  
      1781       1782       1793       1792       1902       1903       1914       1913  
      1783       1784       1795       1794       1904       1905       1916       1915  
      1784       1785       1796       1795       1905       1906       1917       1916  
      1785       1786       1797       1796       1906       1907       1918       1917  
      1786       1787       1798       1797       1907       1908       1919       1918  
      1787       1788       1799       1798       1908       1909       1920       1919  
      1788       1789       1800       1799       1909       1910       1921       1920  
      1789       1790       1801       1800       1910       1911       1922       1921  
      1790       1791       1802       1801       1911       1912       1923       1922  
      1791       1792       1803       1802       1912       1913       1924       1923  
      1792       1793       1804       1803       1913       1914       1925       1924  
      1794       1795       1806       1805       1915       1916       1927       1926  
      1795       1796       1807       1806       1916       1917       1928       1927  
      1796       1797       1808       1807       1917       1918       1929       1928  
      1797       1798       1809       1808       1918       1919       1930       1929  
      1798       1799       1810       1809       1919       1920       1931       1930  
      1799       1800       1811       1810       1920       1921       1932       1931  
      1800       1801       1812       1811       1921       1922       1933       1932  
      1801       1802       1813       1812       1922       1923       1934       1933  
      1802       1803       1814       1813       1923       1924       1935       1934  
      1803       1804       1815       1814       1924       1925       1936       1935  
      1816       1817       1828       1827       1937       1938       1949       1948  
      1817       1818       1829       1828       1938       1939       1950       1949  
      1818       1819       1830       1829       1939       1940       1951       1950  
      1819       1820       1831       1830       1940       1941       1952       1951  
      1820       1821       1832       1831       1941       1942       1953       1952  
      1821       1822       1833       1832       1942       1943       1954       1953  
      1822       1823       1834       1833       1943       1944       1955       1954  
      1823       1824       1835       1834       1944       1945       1956       1955  
      1824       1825       1836       1835       1945       1946       1957       1956  
      1825       1826       1837       1836       1946       1947       1958       1957  
      1827       1828       1839       1838       1948       1949       1960       1959  
      1828       1829       1840       1839       1949       1950       1961       1960  
      1829       1830       1841       1840       1950       1951       1962       1961  
      1830       1831       1842       1841       1951       1952       1963       1962  
      1831       1832       1843       1842       1952       1953       1964       1963  
      1832       1833       1844       1843       1953       1954       1965       1964  
      1833       1834       1845       1844       1954       1955       1966       1965  
      1834       1835       1846       1845       1955       1956       1967       1966  
      1835       1836       1847       1846       1956       1957       1968       1967  
      1836       1837       1848       1847       1957       1958       1969       1968  
      1838       1839       1850       1849       1959       1960       1971       1970  
      1839       1840       1851       1850       1960       1961       1972       1971  
      1840       1841       1852       1851       1961       1962       1973       1972  
      1841       1842       1853       1852       1962       1963       1974       1973  
      1842       1843       1854       1853       1963       1964       1975       1974  
      1843       1844       1855       1854       1964       1965       1976       1975  
      1844       1845       1856       1855       1965       1966       1977       1976  
      1845       1846       1857       1856       1966       1967       1978       1977  
      1846       1847       1858       1857       1967       1968       1979       1978  
      1847       1848       1859       1858       1968       1969       1980       1979  
      1849       1850       1861       1860       1970       1971       1982       1981  
      1850       1851       1862       1861       1971       1972       1983       1982  
      1851       1852       1863       1862       1972       1973       1984       1983  
      1852       1853       1864       1863       1973       1974       1985       1984  
      1853       1854       1865       1864       1974       1975       1986       1985  
      1854       1855       1866       1865       1975       1976       1987       1986  
      1855       1856       1867       1866       1976       1977       1988       1987  
      1856       1857       1868       1867       1977       1978       1989       1988  
      1857       1858       1869       1868       1978       1979       1990       1989  
      1858       1859       1870       1869       1979       1980       1991       1990  
      1860       1861       1872       1871       1981       1982       1993       1992  
      1861       1862       1873       1872       1982       1983       1994       1993  
      1862       1863       1874       1873       1983       1984       1995       1994  
      1863       1864       1875       1874       1984       1985       1996       1995  
      1864       1865       1876       1875       1985       1986       1997       1996  
      1865       1866       1877       1876       1986       1987       1998       1997  
      1866       1867       1878       1877       1987       1988       1999       1998  
      1867       1868       1879       1878       1988       1989       2000       1999  
      1868       1869       1880       1879       1989       1990       2001       2000  
      1869       1870       1881       1880       1990       1991       2002       2001  
      1871       1872       1883       1882       1992       1993       2004       2003  
      1872       1873       1884       1883       1993       1994       2005       2004  
      1873       1874       1885       1884       1994       1995       2006       2005  
      1874       1875       1886       1885       1995       1996       2007       2006  
      1875       1876       1887       1886       1996       1997       2008       2007  
      1876       1877       1888       1887       1997       1998       2009       2008  
      1877       1878       1889       1888       1998       1999       2010       2009  
      1878       1879       1890       1889       1999       2000       2011       2010  
      1879       1880       1891       1890       2000       2001       2012       2011  
      1880       1881       1892       1891       2001       2002       2013       2012  
      1882       1883       1894       1893       2003       2004       2015       2014  
      1883       1884       1895       1894       2004       2005       2016       2015  
      1884       1885       1896       1895       2005       2006       2017       2016  
      1885       1886       1897       1896       2006       2007       2018       2017  
      1886       1887       1898       1897       2007       2008       2019       2018  
      1887       1888       1899       1898       2008       2009       2020       2019  
      1888       1889       1900       1899       2009       2010       2021       2020  
      1889       1890       1901       1900       2010       2011       2022       2021  
      1890       1891       1902       1901       2011       2012       2023       2022  
      1891       1892       1903       1902       2012       2013       2024       2023  
      1893       1894       1905       1904       2014       2015       2026       2025  
      1894       1895       1906       1905       2015       2016       2027       2026  
      1895       1896       1907       1906       2016       2017       2028       2027  
      1896       1897       1908       1907       2017       2018       2029       2028  
      1897       1898       1909       1908       2018       2019       2030       2029  
      1898       1899       1910       1909       2019       2020       2031       2030  
      1899       1900       1911       1910       2020       2021       2032       2031  
      1900       1901       1912       1911       2021       2022       2033       2032  
      1901       1902       1913       1912       2022       2023       2034       2033  
      1902       1903       1914       1913       2023       2024       2035       2034  
      1904       1905       1916       1915       2025       2026       2037       2036  
      1905       1906       1917       1916       2026       2027       2038       2037  
      1906       1907       1918       1917       2027       2028       2039       2038  
      1907       1908       1919       1918       2028       2029       2040       2039  
      1908       1909       1920       1919       2029       2030       2041       2040  
      1909       1910       1921       1920       2030       2031       2042       2041  
      1910       1911       1922       1921       2031       2032       2043       2042  
      1911       1912       1923       1922       2032       2033       2044       2043  
      1912       1913       1924       1923       2033       2034       2045       2044  
      1913       1914       1925       1924       2034       2035       2046       2045  
      1915       1916       1927       1926       2036       2037       2048       2047  
      1916       1917       1928       1927       2037       2038       2049       2048  
      1917       1918       1929       1928       2038       2039       2050       2049  
      1918       1919       1930       1929       2039       2040       2051       2050  
      1919       1920       1931       1930       2040       2041       2052       2051  
      1920       1921       1932       1931       2041       2042       2053       2052  
      1921       1922       1933       1932       2042       2043       2054       2053  
      1922       1923       1934       1933       2043       2044       2055       2054  
      1923       1924       1935       1934       2044       2045       2056       2055  
      1924       1925       1936       1935       2045       2046       2057       2056  
      1937       1938       1949       1948       2058       2059       2070       2069  
      1938       1939       1950       1949       2059       2060       2071       2070  
      1939       1940       1951       1950       2060       2061       2072       2071  
      1940       1941       1952       1951       2061       2062       2073       2072  
      1941       1942       1953       1952       2062       2063       2074       2073  
      1942       1943       1954       1953       2063       2064       2075       2074  
      1943       1944       1955       1954       2064       2065       2076       2075  
      1944       1945       1956       1955       2065       2066       2077       2076  
      1945       1946       1957       1956       2066       2067       2078       2077  
      1946       1947       1958       1957       2067       2068       2079       2078  
      1948       1949       1960       1959       2069       2070       2081       2080  
      1949       1950       1961       1960       2070       2071       2082       2081  
      1950       1951       1962       1961       2071       2072       2083       2082  
      1951       1952       1963       1962       2072       2073       2084       2083  
      1952       1953       1964       1963       2073       2074       2085       2084  
      1953       1954       1965       1964       2074       2075       2086       2085  
      1954       1955       1966       1965       2075       2076       2087       2086  
      1955       1956       1967       1966       2076       2077       2088       2087  
      1956       1957       1968       1967       2077       2078       2089       2088  
      1957       1958       1969       1968       2078       2079       2090       2089  
      1959       1960       1971       1970       2080       2081       2092       2091  
      1960       1961       1972       1971       2081       2082       2093       2092  
      1961       1962       1973       1972       2082       2083       2094       2093  
      1962       1963       1974       1973       2083       2084       2095       2094  
      1963       1964       1975       1974       2084       2085       2096       2095  
      1964       1965       1976       1975       2085       2086       2097       2096  
      1965       1966       1977       1976       2086       2087       2098       2097  
      1966       1967       1978       1977       2087       2088       2099       2098  
      1967       1968       1979       1978       2088       2089       2100       2099  
      1968       1969       1980       1979       2089       2090       2101       2100  
      1970       1971       1982       1981       2091       2092       2103       2102  
      1971       1972       1983       1982       2092       2093       2104       2103  
      1972       1973       1984       1983       2093       2094       2105       2104  
      1973       1974       1985       1984       2094       2095       2106       2105  
      1974       1975       1986       1985       2095       2096       2107       2106  
      1975       1976       1987       1986       2096       2097       2108       2107  
      1976       1977       1988       1987       2097       2098       2109       2108  
      1977       1978       1989       1988       2098       2099       2110       2109  
      1978       1979       1990       1989       2099       2100       2111       2110  
      1979       1980       1991       1990       2100       2101       2112       2111  
      1981       1982       1993       1992       2102       2103       2114       2113  
      1982       1983       1994       1993       2103       2104       2115       2114  
      1983       1984       1995       1994       2104       2105       2116       2115  
      1984       1985       1996       1995       2105       2106       2117       2116  
      1985       1986       1997       1996       2106       2107       2118       2117  
      1986       1987       1998       1997       2107       2108       2119       2118  
      1987       1988       1999       1998       2108       2109       2120       2119  
      1988       1989       2000       1999       2109       2110       2121       2120  
      1989       1990       2001       2000       2110       2111       2122       2121  
      1990       1991       2002       2001       2111       2112       2123       2122  
      1992       1993       2004       2003       2113       2114       2125       2124  
      1993       1994       2005       2004       2114       2115       2126       2125  
      1994       1995       2006       2005       2115       2116       2127       2126  
      1995       1996       2007       2006       2116       2117       2128       2127  
      1996       1997       2008       2007       2117       2118       2129       2128  
      1997       1998       2009       2008       2118       2119       2130       2129  
      1998       1999       2010       2009       2119       2120       2131       2130  
      1999       2000       2011       2010       2120       2121       2132       2131  
      2000       2001       2012       2011       2121       2122       2133       2132  
      2001       2002       2013       2012       2122       2123       2134       2133  
      2003       2004       2015       2014       2124       2125       2136       2135  
      2004       2005       2016       2015       2125       2126       2137       2136  
      2005       2006       2017       2016       2126       2127       2138       2137  
      2006       2007       2018       2017       2127       2128       2139       2138  
      2007       2008       2019       2018       2128       2129       2140       2139  
      2008       2009       2020       2019       2129       2130       2141       2140  
      2009       2010       2021       2020       2130       2131       2142       2141  
      2010       2011       2022       2021       2131       2132       2143       2142  
      2011       2012       2023       2022       2132       2133       2144       2143  
      2012       2013       2024       2023       2133       2134       2145       2144  
      2014       2015       2026       2025       2135       2136       2147       2146  
      2015       2016       2027       2026       2136       2137       2148       2147  
      2016       2017       2028       2027       2137       2138       2149       2148  
      2017       2018       2029       2028       2138       2139       2150       2149  
      2018       2019       2030       2029       2139       2140       2151       2150  
      2019       2020       2031       2030       2140       2141       2152       2151  
      2020       2021       2032       2031       2141       2142       2153       2152  
      2021       2022       2033       2032       2142       2143       2154       2153  
      2022       2023       2034       2033       2143       2144       2155       2154  
      2023       2024       2035       2034       2144       2145       2156       2155  
      2025       2026       2037       2036       2146       2147       2158       2157  
      2026       2027       2038       2037       2147       2148       2159       2158  
      2027       2028       2039       2038       2148       2149       2160       2159  
      2028       2029       2040       2039       2149       2150       2161       2160  
      2029       2030       2041       2040       2150       2151       2162       2161  
      2030       2031       2042       2041       2151       2152       2163       2162  
      2031       2032       2043       2042       2152       2153       2164       2163  
      2032       2033       2044       2043       2153       2154       2165       2164  
      2033       2034       2045       2044       2154       2155       2166       2165  
      2034       2035       2046       2045       2155       2156       2167       2166  
      2036       2037       2048       2047       2157       2158       2169       2168  
      2037       2038       2049       2048       2158       2159       2170       2169  
      2038       2039       2050       2049       2159       2160       2171       2170  
      2039       2040       2051       2050       2160       2161       2172       2171  
      2040       2041       2052       2051       2161       2162       2173       2172  
      2041       2042       2053       2052       2162       2163       2174       2173  
      2042       2043       2054       2053       2163       2164       2175       2174  
      2043       2044       2055       2054       2164       2165       2176       2175  
      2044       2045       2056       2055       2165       2166       2177       2176  
      2045       2046       2057       2056       2166       2167       2178       2177  
      2058       2059       2070       2069       2179       2180       2191       2190  
      2059       2060       2071       2070       2180       2181       2192       2191  
      2060       2061       2072       2071       2181       2182       2193       2192  
      2061       2062       2073       2072       2182       2183       2194       2193  
      2062       2063       2074       2073       2183       2184       2195       2194  
      2063       2064       2075       2074       2184       2185       2196       2195  
      2064       2065       2076       2075       2185       2186       2197       2196  
      2065       2066       2077       2076       2186       2187       2198       2197  
      2066       2067       2078       2077       2187       2188       2199       2198  
      2067       2068       2079       2078       2188       2189       2200       2199  
      2069       2070       2081       2080       2190       2191       2202       2201  
      2070       2071       2082       2081       2191       2192       2203       2202  
      2071       2072       2083       2082       2192       2193       2204       2203  
      2072       2073       2084       2083       2193       2194       2205       2204  
      2073       2074       2085       2084       2194       2195       2206       2205  
      2074       2075       2086       2085       2195       2196       2207       2206  
      2075       2076       2087       2086       2196       2197       2208       2207  
      2076       2077       2088       2087       2197       2198       2209       2208  
      2077       2078       2089       2088       2198       2199       2210       2209  
      2078       2079       2090       2089       2199       2200       2211       2210  
      2080       2081       2092       2091       2201       2202       2213       2212  
      2081       2082       2093       2092       2202       2203       2214       2213  
      2082       2083       2094       2093       2203       2204       2215       2214  
      2083       2084       2095       2094       2204       2205       2216       2215  
      2084       2085       2096       2095       2205       2206       2217       2216  
      2085       2086       2097       2096       2206       2207       2218       2217  
      2086       2087       2098       2097       2207       2208       2219       2218  
      2087       2088       2099       2098       2208       2209       2220       2219  
      2088       2089       2100       2099       2209       2210       2221       2220  
      2089       2090       2101       2100       2210       2211       2222       2221  
      2091       2092       2103       2102       2212       2213       2224       2223  
      2092       2093       2104       2103       2213       2214       2225       2224  
      2093       2094       2105       2104       2214       2215       2226       2225  
      2094       2095       2106       2105       2215       2216       2227       2226  
      2095       2096       2107       2106       2216       2217       2228       2227  
      2096       2097       2108       2107       2217       2218       2229       2228  
      2097       2098       2109       2108       2218       2219       2230       2229  
      2098       2099       2110       2109       2219       2220       2231       2230  
      2099       2100       2111       2110       2220       2221       2232       2231  
      2100       2101       2112       2111       2221       2222       2233       2232  
      2102       2103       2114       2113       2223       2224       2235       2234  
      2103       2104       2115       2114       2224       2225       2236       2235  
      2104       2105       2116       2115       2225       2226       2237       2236  
      2105       2106       2117       2116       2226       2227       2238       2237  
      2106       2107       2118       2117       2227       2228       2239       2238  
      2107       2108       2119       2118       2228       2229       2240       2239  
      2108       2109       2120       2119       2229       2230       2241       2240  
      2109       2110       2121       2120       2230       2231       2242       2241  
      2110       2111       2122       2121       2231       2232       2243       2242  
      2111       2112       2123       2122       2232       2233       2244       2243  
      2113       2114       2125       2124       2234       2235       2246       2245  
      2114       2115       2126       2125       2235       2236       2247       2246  
      2115       2116       2127       2126       2236       2237       2248       2247  
      2116       2117       2128       2127       2237       2238       2249       2248  
      2117       2118       2129       2128       2238       2239       2250       2249  
      2118       2119       2130       2129       2239       2240       2251       2250  
      2119       2120       2131       2130       2240       2241       2252       2251  
      2120       2121       2132       2131       2241       2242       2253       2252  
      2121       2122       2133       2132       2242       2243       2254       2253  
      2122       2123       2134       2133       2243       2244       2255       2254  
      2124       2125       2136       2135       2245       2246       2257       2256  
      2125       2126       2137       2136       2246       2247       2258       2257  
      2126       2127       2138       2137       2247       2248       2259       2258  
      2127       2128       2139       2138       2248       2249       2260       2259  
      2128       2129       2140       2139       2249       2250       2261       2260  
      2129       2130       2141       2140       2250       2251       2262       2261  
      2130       2131       2142       2141       2251       2252       2263       2262  
      2131       2132       2143       2142       2252       2253       2264       2263  
      2132       2133       2144       2143       2253       2254       2265       2264  
      2133       2134       2145       2144       2254       2255       2266       2265  
      2135       2136       2147       2146       2256       2257       2268       2267  
      2136       2137       2148       2147       2257       2258       2269       2268  
      2137       2138       2149       2148       2258       2259       2270       2269  
      2138       2139       2150       2149       2259       2260       2271       2270  
      2139       2140       2151       2150       2260       2261       2272       2271  
      2140       2141       2152       2151       2261       2262       2273       2272  
      2141       2142       2153       2152       2262       2263       2274       2273  
      2142       2143       2154       2153       2263       2264       2275       2274  
      2143       2144       2155       2154       2264       2265       2276       2275  
      2144       2145       2156       2155       2265       2266       2277       2276  
      2146       2147       2158       2157       2267       2268       2279       2278  
      2147       2148       2159       2158       2268       2269       2280       2279  
      2148       2149       2160       2159       2269       2270       2281       2280  
      2149       2150       2161       2160       2270       2271       2282       2281  
      2150       2151       2162       2161       2271       2272       2283       2282  
      2151       2152       2163       2162       2272       2273       2284       2283  
      2152       2153       2164       2163       2273       2274       2285       2284  
      2153       2154       2165       2164       2274       2275       2286       2285  
      2154       2155       2166       2165       2275       2276       2287       2286  
      2155       2156       2167       2166       2276       2277       2288       2287  
      2157       2158       2169       2168       2278       2279       2290       2289  
      2158       2159       2170       2169       2279       2280       2291       2290  
      2159       2160       2171       2170       2280       2281       2292       2291  
      2160       2161       2172       2171       2281       2282       2293       2292  
      2161       2162       2173       2172       2282       2283       2294       2293  
      2162       2163       2174       2173       2283       2284       2295       2294  
      2163       2164       2175       2174       2284       2285       2296       2295  
      2164       2165       2176       2175       2285       2286       2297       2296  
      2165       2166       2177       2176       2286       2287       2298       2297  
      2166       2167       2178       2177       2287       2288       2299       2298  
      2179       2180       2191       2190       2300       2301       2312       2311  
      2180       2181       2192       2191       2301       2302       2313       2312  
      2181       2182       2193       2192       2302       2303       2314       2313  
      2182       2183       2194       2193       2303       2304       2315       2314  
      2183       2184       2195       2194       2304       2305       2316       2315  
      2184       2185       2196       2195       2305       2306       2317       2316  
      2185       2186       2197       2196       2306       2307       2318       2317  
      2186       2187       2198       2197       2307       2308       2319       2318  
      2187       2188       2199       2198       2308       2309       2320       2319  
      2188       2189       2200       2199       2309       2310       2321       2320  
      2190       2191       2202       2201       2311       2312       2323       2322  
      2191       2192       2203       2202       2312       2313       2324       2323  
      2192       2193       2204       2203       2313       2314       2325       2324  
      2193       2194       2205       2204       2314       2315       2326       2325  
      2194       2195       2206       2205       2315       2316       2327       2326  
      2195       2196       2207       2206       2316       2317       2328       2327  
      2196       2197       2208       2207       2317       2318       2329       2328  
      2197       2198       2209       2208       2318       2319       2330       2329  
      2198       2199       2210       2209       2319       2320       2331       2330  
      2199       2200       2211       2210       2320       2321       2332       2331  
      2201       2202       2213       2212       2322       2323       2334       2333  
      2202       2203       2214       2213       2323       2324       2335       2334  
      2203       2204       2215       2214       2324       2325       2336       2335  
      2204       2205       2216       2215       2325       2326       2337       2336  
      2205       2206       2217       2216       2326       2327       2338       2337  
      2206       2207       2218       2217       2327       2328       2339       2338  
      2207       2208       2219       2218       2328       2329       2340       2339  
      2208       2209       2220       2219       2329       2330       2341       2340  
      2209       2210       2221       2220       2330       2331       2342       2341  
      2210       2211       2222       2221       2331       2332       2343       2342  
      2212       2213       2224       2223       2333       2334       2345       2344  
      2213       2214       2225       2224       2334       2335       2346       2345  
      2214       2215       2226       2225       2335       2336       2347       2346  
      2215       2216       2227       2226       2336       2337       2348       2347  
      2216       2217       2228       2227       2337       2338       2349       2348  
      2217       2218       2229       2228       2338       2339       2350       2349  
      2218       2219       2230       2229       2339       2340       2351       2350  
      2219       2220       2231       2230       2340       2341       2352       2351  
      2220       2221       2232       2231       2341       2342       2353       2352  
      2221       2222       2233       2232       2342       2343       2354       2353  
      2223       2224       2235       2234       2344       2345       2356       2355  
      2224       2225       2236       2235       2345       2346       2357       2356  
      2225       2226       2237       2236       2346       2347       2358       2357  
      2226       2227       2238       2237       2347       2348       2359       2358  
      2227       2228       2239       2238       2348       2349       2360       2359  
      2228       2229       2240       2239       2349       2350       2361       2360  
      2229       2230       2241       2240       2350       2351       2362       2361  
      2230       2231       2242       2241       2351       2352       2363       2362  
      2231       2232       2243       2242       2352       2353       2364       2363  
      2232       2233       2244       2243       2353       2354       2365       2364  
      2234       2235       2246       2245       2355       2356       2367       2366  
      2235       2236       2247       2246       2356       2357       2368       2367  
      2236       2237       2248       2247       2357       2358       2369       2368  
      2237       2238       2249       2248       2358       2359       2370       2369  
      2238       2239       2250       2249       2359       2360       2371       2370  
      2239       2240       2251       2250       2360       2361       2372       2371  
      2240       2241       2252       2251       2361       2362       2373       2372  
      2241       2242       2253       2252       2362       2363       2374       2373  
      2242       2243       2254       2253       2363       2364       2375       2374  
      2243       2244       2255       2254       2364       2365       2376       2375  
      2245       2246       2257       2256       2366       2367       2378       2377  
      2246       2247       2258       2257       2367       2368       2379       2378  
      2247       2248       2259       2258       2368       2369       2380       2379  
      2248       2249       2260       2259       2369       2370       2381       2380  
      2249       2250       2261       2260       2370       2371       2382       2381  
      2250       2251       2262       2261       2371       2372       2383       2382  
      2251       2252       2263       2262       2372       2373       2384       2383  
      2252       2253       2264       2263       2373       2374       2385       2384  
      2253       2254       2265       2264       2374       2375       2386       2385  
      2254       2255       2266       2265       2375       2376       2387       2386  
      2256       2257       2268       2267       2377       2378       2389       2388  
      2257       2258       2269       2268       2378       2379       2390       2389  
      2258       2259       2270       2269       2379       2380       2391       2390  
      2259       2260       2271       2270       2380       2381       2392       2391  
      2260       2261       2272       2271       2381       2382       2393       2392  
      2261       2262       2273       2272       2382       2383       2394       2393  
      2262       2263       2274       2273       2383       2384       2395       2394  
      2263       2264       2275       2274       2384       2385       2396       2395  
      2264       2265       2276       2275       2385       2386       2397       2396  
      2265       2266       2277       2276       2386       2387       2398       2397  
      2267       2268       2279       2278       2388       2389       2400       2399  
      2268       2269       2280       2279       2389       2390       2401       2400  
      2269       2270       2281       2280       2390       2391       2402       2401  
      2270       2271       2282       2281       2391       2392       2403       2402  
      2271       2272       2283       2282       2392       2393       2404       2403  
      2272       2273       2284       2283       2393       2394       2405       2404  
      2273       2274       2285       2284       2394       2395       2406       2405  
      2274       2275       2286       2285       2395       2396       2407       2406  
      2275       2276       2287       2286       2396       2397       2408       2407  
      2276       2277       2288       2287       2397       2398       2409       2408  
      2278       2279       2290       2289       2399       2400       2411       2410  
      2279       2280       2291       2290       2400       2401       2412       2411  
      2280       2281       2292       2291       2401       2402       2413       2412  
      2281       2282       2293       2292       2402       2403       2414       2413  
      2282       2283       2294       2293       2403       2404       2415       2414  
      2283       2284       2295       2294       2404       2405       2416       2415  
      2284       2285       2296       2295       2405       2406       2417       2416  
      2285       2286       2297       2296       2406       2407       2418       2417  
      2286       2287       2298       2297       2407       2408       2419       2418  
      2287       2288       2299       2298       2408       2409       2420       2419  
      2300       2301       2312       2311       2421       2422       2433       2432  
      2301       2302       2313       2312       2422       2423       2434       2433  
      2302       2303       2314       2313       2423       2424       2435       2434  
      2303       2304       2315       2314       2424       2425       2436       2435  
      2304       2305       2316       2315       2425       2426       2437       2436  
      2305       2306       2317       2316       2426       2427       2438       2437  
      2306       2307       2318       2317       2427       2428       2439       2438  
      2307       2308       2319       2318       2428       2429       2440       2439  
      2308       2309       2320       2319       2429       2430       2441       2440  
      2309       2310       2321       2320       2430       2431       2442       2441  
      2311       2312       2323       2322       2432       2433       2444       2443  
      2312       2313       2324       2323       2433       2434       2445       2444  
      2313       2314       2325       2324       2434       2435       2446       2445  
      2314       2315       2326       2325       2435       2436       2447       2446  
      2315       2316       2327       2326       2436       2437       2448       2447  
      2316       2317       2328       2327       2437       2438       2449       2448  
      2317       2318       2329       2328       2438       2439       2450       2449  
      2318       2319       2330       2329       2439       2440       2451       2450  
      2319       2320       2331       2330       2440       2441       2452       2451  
      2320       2321       2332       2331       2441       2442       2453       2452  
      2322       2323       2334       2333       2443       2444       2455       2454  
      2323       2324       2335       2334       2444       2445       2456       2455  
      2324       2325       2336       2335       2445       2446       2457       2456  
      2325       2326       2337       2336       2446       2447       2458       2457  
      2326       2327       2338       2337       2447       2448       2459       2458  
      2327       2328       2339       2338       2448       2449       2460       2459  
      2328       2329       2340       2339       2449       2450       2461       2460  
      2329       2330       2341       2340       2450       2451       2462       2461  
      2330       2331       2342       2341       2451       2452       2463       2462  
      2331       2332       2343       2342       2452       2453       2464       2463  
      2333       2334       2345       2344       2454       2455       2466       2465  
      2334       2335       2346       2345       2455       2456       2467       2466  
      2335       2336       2347       2346       2456       2457       2468       2467  
      2336       2337       2348       2347       2457       2458       2469       2468  
      2337       2338       2349       2348       2458       2459       2470       2469  
      2338       2339       2350       2349       2459       2460       2471       2470  
      2339       2340       2351       2350       2460       2461       2472       2471  
      2340       2341       2352       2351       2461       2462       2473       2472  
      2341       2342       2353       2352       2462       2463       2474       2473  
      2342       2343       2354       2353       2463       2464       2475       2474  
      2344       2345       2356       2355       2465       2466       2477       2476  
      2345       2346       2357       2356       2466       2467       2478       2477  
      2346       2347       2358       2357       2467       2468       2479       2478  
      2347       2348       2359       2358       2468       2469       2480       2479  
      2348       2349       2360       2359       2469       2470       2481       2480  
      2349       2350       2361       2360       2470       2471       2482       2481  
      2350       2351       2362       2361       2471       2472       2483       2482  
      2351       2352       2363       2362       2472       2473       2484       2483  
      2352       2353       2364       2363       2473       2474       2485       2484  
      2353       2354       2365       2364       2474       2475       2486       2485  
      2355       2356       2367       2366       2476       2477       2488       2487  
      2356       2357       2368       2367       2477       2478       2489       2488  
      2357       2358       2369       2368       2478       2479       2490       2489  
      2358       2359       2370       2369       2479       2480       2491       2490  
      2359       2360       2371       2370       2480       2481       2492       2491  
      2360       2361       2372       2371       2481       2482       2493       2492  
      2361       2362       2373       2372       2482       2483       2494       2493  
      2362       2363       2374       2373       2483       2484       2495       2494  
      2363       2364       2375       2374       2484       2485       2496       2495  
      2364       2365       2376       2375       2485       2486       2497       2496  
      2366       2367       2378       2377       2487       2488       2499       2498  
      2367       2368       2379       2378       2488       2489       2500       2499  
      2368       2369       2380       2379       2489       2490       2501       2500  
      2369       2370       2381       2380       2490       2491       2502       2501  
      2370       2371       2382       2381       2491       2492       2503       2502  
      2371       2372       2383       2382       2492       2493       2504       2503  
      2372       2373       2384       2383       2493       2494       2505       2504  
      2373       2374       2385       2384       2494       2495       2506       2505  
      2374       2375       2386       2385       2495       2496       2507       2506  
      2375       2376       2387       2386       2496       2497       2508       2507  
      2377       2378       2389       2388       2498       2499       2510       2509  
      2378       2379       2390       2389       2499       2500       2511       2510  
      2379       2380       2391       2390       2500       2501       2512       2511  
      2380       2381       2392       2391       2501       2502       2513       2512  
      2381       2382       2393       2392       2502       2503       2514       2513  
      2382       2383       2394       2393       2503       2504       2515       2514  
      2383       2384       2395       2394       2504       2505       2516       2515  
      2384       2385       2396       2395       2505       2506       2517       2516  
      2385       2386       2397       2396       2506       2507       2518       2517  
      2386       2387       2398       2397       2507       2508       2519       2518  
      2388       2389       2400       2399       2509       2510       2521       2520  
      2389       2390       2401       2400       2510       2511       2522       2521  
      2390       2391       2402       2401       2511       2512       2523       2522  
      2391       2392       2403       2402       2512       2513       2524       2523  
      2392       2393       2404       2403       2513       2514       2525       2524  
      2393       2394       2405       2404       2514       2515       2526       2525  
      2394       2395       2406       2405       2515       2516       2527       2526  
      2395       2396       2407       2406       2516       2517       2528       2527  
      2396       2397       2408       2407       2517       2518       2529       2528  
      2397       2398       2409       2408       2518       2519       2530       2529  
      2399       2400       2411       2410       2520       2521       2532       2531  
      2400       2401       2412       2411       2521       2522       2533       2532  
      2401       2402       2413       2412       2522       2523       2534       2533  
      2402       2403       2414       2413       2523       2524       2535       2534  
      2403       2404       2415       2414       2524       2525       2536       2535  
      2404       2405       2416       2415       2525       2526       2537       2536  
      2405       2406       2417       2416       2526       2527       2538       2537  
      2406       2407       2418       2417       2527       2528       2539       2538  
      2407       2408       2419       2418       2528       2529       2540       2539  
      2408       2409       2420       2419       2529       2530       2541       2540  
      2421       2422       2433       2432       2542       2543       2554       2553  
      2422       2423       2434       2433       2543       2544       2555       2554  
      2423       2424       2435       2434       2544       2545       2556       2555  
      2424       2425       2436       2435       2545       2546       2557       2556  
      2425       2426       2437       2436       2546       2547       2558       2557  
      2426       2427       2438       2437       2547       2548       2559       2558  
      2427       2428       2439       2438       2548       2549       2560       2559  
      2428       2429       2440       2439       2549       2550       2561       2560  
      2429       2430       2441       2440       2550       2551       2562       2561  
      2430       2431       2442       2441       2551       2552       2563       2562  
      2432       2433       2444       2443       2553       2554       2565       2564  
      2433       2434       2445       2444       2554       2555       2566       2565  
      2434       2435       2446       2445       2555       2556       2567       2566  
      2435       2436       2447       2446       2556       2557       2568       2567  
      2436       2437       2448       2447       2557       2558       2569       2568  
      2437       2438       2449       2448       2558       2559       2570       2569  
      2438       2439       2450       2449       2559       2560       2571       2570  
      2439       2440       2451       2450       2560       2561       2572       2571  
      2440       2441       2452       2451       2561       2562       2573       2572  
      2441       2442       2453       2452       2562       2563       2574       2573  
      2443       2444       2455       2454       2564       2565       2576       2575  
      2444       2445       2456       2455       2565       2566       2577       2576  
      2445       2446       2457       2456       2566       2567       2578       2577  
      2446       2447       2458       2457       2567       2568       2579       2578  
      2447       2448       2459       2458       2568       2569       2580       2579  
      2448       2449       2460       2459       2569       2570       2581       2580  
      2449       2450       2461       2460       2570       2571       2582       2581  
      2450       2451       2462       2461       2571       2572       2583       2582  
      2451       2452       2463       2462       2572       2573       2584       2583  
      2452       2453       2464       2463       2573       2574       2585       2584  
      2454       2455       2466       2465       2575       2576       2587       2586  
      2455       2456       2467       2466       2576       2577       2588       2587  
      2456       2457       2468       2467       2577       2578       2589       2588  
      2457       2458       2469       2468       2578       2579       2590       2589  
      2458       2459       2470       2469       2579       2580       2591       2590  
      2459       2460       2471       2470       2580       2581       2592       2591  
      2460       2461       2472       2471       2581       2582       2593       2592  
      2461       2462       2473       2472       2582       2583       2594       2593  
      2462       2463       2474       2473       2583       2584       2595       2594  
      2463       2464       2475       2474       2584       2585       2596       2595  
      2465       2466       2477       2476       2586       2587       2598       2597  
      2466       2467       2478       2477       2587       2588       2599       2598  
      2467       2468       2479       2478       2588       2589       2600       2599  
      2468       2469       2480       2479       2589       2590       2601       2600  
      2469       2470       2481       2480       2590       2591       2602       2601  
      2470       2471       2482       2481       2591       2592       2603       2602  
      2471       2472       2483       2482       2592       2593       2604       2603  
      2472       2473       2484       2483       2593       2594       2605       2604  
      2473       2474       2485       2484       2594       2595       2606       2605  
      2474       2475       2486       2485       2595       2596       2607       2606  
      2476       2477       2488       2487       2597       2598       2609       2608  
      2477       2478       2489       2488       2598       2599       2610       2609  
      2478       2479       2490       2489       2599       2600       2611       2610  
      2479       2480       2491       2490       2600       2601       2612       2611  
      2480       2481       2492       2491       2601       2602       2613       2612  
      2481       2482       2493       2492       2602       2603       2614       2613  
      2482       2483       2494       2493       2603       2604       2615       2614  
      2483       2484       2495       2494       2604       2605       2616       2615  
      2484       2485       2496       2495       2605       2606       2617       2616  
      2485       2486       2497       2496       2606       2607       2618       2617  
      2487       2488       2499       2498       2608       2609       2620       2619  
      2488       2489       2500       2499       2609       2610       2621       2620  
      2489       2490       2501       2500       2610       2611       2622       2621  
      2490       2491       2502       2501       2611       2612       2623       2622  
      2491       2492       2503       2502       2612       2613       2624       2623  
      2492       2493       2504       2503       2613       2614       2625       2624  
      2493       2494       2505       2504       2614       2615       2626       2625  
      2494       2495       2506       2505       2615       2616       2627       2626  
      2495       2496       2507       2506       2616       2617       2628       2627  
      2496       2497       2508       2507       2617       2618       2629       2628  
      2498       2499       2510       2509       2619       2620       2631       2630  
      2499       2500       2511       2510       2620       2621       2632       2631  
      2500       2501       2512       2511       2621       2622       2633       2632  
      2501       2502       2513       2512       2622       2623       2634       2633  
      2502       2503       2514       2513       2623       2624       2635       2634  
      2503       2504       2515       2514       2624       2625       2636       2635  
      2504       2505       2516       2515       2625       2626       2637       2636  
      2505       2506       2517       2516       2626       2627       2638       2637  
      2506       2507       2518       2517       2627       2628       2639       2638  
      2507       2508       2519       2518       2628       2629       2640       2639  
      2509       2510       2521       2520       2630       2631       2642       2641  
      2510       2511       2522       2521       2631       2632       2643       2642  
      2511       2512       2523       2522       2632       2633       2644       2643  
      2512       2513       2524       2523       2633       2634       2645       2644  
      2513       2514       2525       2524       2634       2635       2646       2645  
      2514       2515       2526       2525       2635       2636       2647       2646  
      2515       2516       2527       2526       2636       2637       2648       2647  
      2516       2517       2528       2527       2637       2638       2649       2648  
      2517       2518       2529       2528       2638       2639       2650       2649  
      2518       2519       2530       2529       2639       2640       2651       2650  
      2520       2521       2532       2531       2641       2642       2653       2652  
      2521       2522       2533       2532       2642       2643       2654       2653  
      2522       2523       2534       2533       2643       2644       2655       2654  
      2523       2524       2535       2534       2644       2645       2656       2655  
      2524       2525       2536       2535       2645       2646       2657       2656  
      2525       2526       2537       2536       2646       2647       2658       2657  
      2526       2527       2538       2537       2647       2648       2659       2658  
      2527       2528       2539       2538       2648       2649       2660       2659  
      2528       2529       2540       2539       2649       2650       2661       2660  
      2529       2530       2541       2540       2650       2651       2662       2661  
      2542       2543       2554       2553       2663       2664       2675       2674  
      2543       2544       2555       2554       2664       2665       2676       2675  
      2544       2545       2556       2555       2665       2666       2677       2676  
      2545       2546       2557       2556       2666       2667       2678       2677  
      2546       2547       2558       2557       2667       2668       2679       2678  
      2547       2548       2559       2558       2668       2669       2680       2679  
      2548       2549       2560       2559       2669       2670       2681       2680  
      2549       2550       2561       2560       2670       2671       2682       2681  
      2550       2551       2562       2561       2671       2672       2683       2682  
      2551       2552       2563       2562       2672       2673       2684       2683  
      2553       2554       2565       2564       2674       2675       2686       2685  
      2554       2555       2566       2565       2675       2676       2687       2686  
      2555       2556       2567       2566       2676       2677       2688       2687  
      2556       2557       2568       2567       2677       2678       2689       2688  
      2557       2558       2569       2568       2678       2679       2690       2689  
      2558       2559       2570       2569       2679       2680       2691       2690  
      2559       2560       2571       2570       2680       2681       2692       2691  
      2560       2561       2572       2571       2681       2682       2693       2692  
      2561       2562       2573       2572       2682       2683       2694       2693  
      2562       2563       2574       2573       2683       2684       2695       2694  
      2564       2565       2576       2575       2685       2686       2697       2696  
      2565       2566       2577       2576       2686       2687       2698       2697  
      2566       2567       2578       2577       2687       2688       2699       2698  
      2567       2568       2579       2578       2688       2689       2700       2699  
      2568       2569       2580       2579       2689       2690       2701       2700  
      2569       2570       2581       2580       2690       2691       2702       2701  
      2570       2571       2582       2581       2691       2692       2703       2702  
      2571       2572       2583       2582       2692       2693       2704       2703  
      2572       2573       2584       2583       2693       2694       2705       2704  
      2573       2574       2585       2584       2694       2695       2706       2705  
      2575       2576       2587       2586       2696       2697       2708       2707  
      2576       2577       2588       2587       2697       2698       2709       2708  
      2577       2578       2589       2588       2698       2699       2710       2709  
      2578       2579       2590       2589       2699       2700       2711       2710  
      2579       2580       2591       2590       2700       2701       2712       2711  
      2580       2581       2592       2591       2701       2702       2713       2712  
      2581       2582       2593       2592       2702       2703       2714       2713  
      2582       2583       2594       2593       2703       2704       2715       2714  
      2583       2584       2595       2594       2704       2705       2716       2715  
      2584       2585       2596       2595       2705       2706       2717       2716  
      2586       2587       2598       2597       2707       2708       2719       2718  
      2587       2588       2599       2598       2708       2709       2720       2719  
      2588       2589       2600       2599       2709       2710       2721       2720  
      2589       2590       2601       2600       2710       2711       2722       2721  
      2590       2591       2602       2601       2711       2712       2723       2722  
      2591       2592       2603       2602       2712       2713       2724       2723  
      2592       2593       2604       2603       2713       2714       2725       2724  
      2593       2594       2605       2604       2714       2715       2726       2725  
      2594       2595       2606       2605       2715       2716       2727       2726  
      2595       2596       2607       2606       2716       2717       2728       2727  
      2597       2598       2609       2608       2718       2719       2730       2729  
      2598       2599       2610       2609       2719       2720       2731       2730  
      2599       2600       2611       2610       2720       2721       2732       2731  
      2600       2601       2612       2611       2721       2722       2733       2732  
      2601       2602       2613       2612       2722       2723       2734       2733  
      2602       2603       2614       2613       2723       2724       2735       2734  
      2603       2604       2615       2614       2724       2725       2736       2735  
      2604       2605       2616       2615       2725       2726       2737       2736  
      2605       2606       2617       2616       2726       2727       2738       2737  
      2606       2607       2618       2617       2727       2728       2739       2738  
      2608       2609       2620       2619       2729       2730       2741       2740  
      2609       2610       2621       2620       2730       2731       2742       2741  
      2610       2611       2622       2621       2731       2732       2743       2742  
      2611       2612       2623       2622       2732       2733       2744       2743  
      2612       2613       2624       2623       2733       2734       2745       2744  
      2613       2614       2625       2624       2734       2735       2746       2745  
      2614       2615       2626       2625       2735       2736       2747       2746  
      2615       2616       2627       2626       2736       2737       2748       2747  
      2616       2617       2628       2627       2737       2738       2749       2748  
      2617       2618       2629       2628       2738       2739       2750       2749  
      2619       2620       2631       2630       2740       2741       2752       2751  
      2620       2621       2632       2631       2741       2742       2753       2752  
      2621       2622       2633       2632       2742       2743       2754       2753  
      2622       2623       2634       2633       2743       2744       2755       2754  
      2623       2624       2635       2634       2744       2745       2756       2755  
      2624       2625       2636       2635       2745       2746       2757       2756  
      2625       2626       2637       2636       2746       2747       2758       2757  
      2626       2627       2638       2637       2747       2748       2759       2758  
      2627       2628       2639       2638       2748       2749       2760       2759  
      2628       2629       2640       2639       2749       2750       2761       2760  
      2630       2631       2642       2641       2751       2752       2763       2762  
      2631       2632       2643       2642       2752       2753       2764       2763  
      2632       2633       2644       2643       2753       2754       2765       2764  
      2633       2634       2645       2644       2754       2755       2766       2765  
      2634       2635       2646       2645       2755       2756       2767       2766  
      2635       2636       2647       2646       2756       2757       2768       2767  
      2636       2637       2648       2647       2757       2758       2769       2768  
      2637       2638       2649       2648       2758       2759       2770       2769  
      2638       2639       2650       2649       2759       2760       2771       2770  
      2639       2640       2651       2650       2760       2761       2772       2771  
      2641       2642       2653       2652       2762       2763       2774       2773  
      2642       2643       2654       2653       2763       2764       2775       2774  
      2643       2644       2655       2654       2764       2765       2776       2775  
      2644       2645       2656       2655       2765       2766       2777       2776  
      2645       2646       2657       2656       2766       2767       2778       2777  
      2646       2647       2658       2657       2767       2768       2779       2778  
      2647       2648       2659       2658       2768       2769       2780       2779  
      2648       2649       2660       2659       2769       2770       2781       2780  
      2649       2650       2661       2660       2770       2771       2782       2781  
      2650       2651       2662       2661       2771       2772       2783       2782  
      2663       2664       2675       2674       2784       2785       2796       2795  
      2664       2665       2676       2675       2785       2786       2797       2796  
      2665       2666       2677       2676       2786       2787       2798       2797  
      2666       2667       2678       2677       2787       2788       2799       2798  
      2667       2668       2679       2678       2788       2789       2800       2799  
      2668       2669       2680       2679       2789       2790       2801       2800  
      2669       2670       2681       2680       2790       2791       2802       2801  
      2670       2671       2682       2681       2791       2792       2803       2802  
      2671       2672       2683       2682       2792       2793       2804       2803  
      2672       2673       2684       2683       2793       2794       2805       2804  
      2674       2675       2686       2685       2795       2796       2807       2806  
      2675       2676       2687       2686       2796       2797       2808       2807  
      2676       2677       2688       2687       2797       2798       2809       2808  
      2677       2678       2689       2688       2798       2799       2810       2809  
      2678       2679       2690       2689       2799       2800       2811       2810  
      2679       2680       2691       2690       2800       2801       2812       2811  
      2680       2681       2692       2691       2801       2802       2813       2812  
      2681       2682       2693       2692       2802       2803       2814       2813  
      2682       2683       2694       2693       2803       2804       2815       2814  
      2683       2684       2695       2694       2804       2805       2816       2815  
      2685       2686       2697       2696       2806       2807       2818       2817  
      2686       2687       2698       2697       2807       2808       2819       2818  
      2687       2688       2699       2698       2808       2809       2820       2819  
      2688       2689       2700       2699       2809       2810       2821       2820  
      2689       2690       2701       2700       2810       2811       2822       2821  
      2690       2691       2702       2701       2811       2812       2823       2822  
      2691       2692       2703       2702       2812       2813       2824       2823  
      2692       2693       2704       2703       2813       2814       2825       2824  
      2693       2694       2705       2704       2814       2815       2826       2825  
      2694       2695       2706       2705       2815       2816       2827       2826  
      2696       2697       2708       2707       2817       2818       2829       2828  
      2697       2698       2709       2708       2818       2819       2830       2829  
      2698       2699       2710       2709       2819       2820       2831       2830  
      2699       2700       2711       2710       2820       2821       2832       2831  
      2700       2701       2712       2711       2821       2822       2833       2832  
      2701       2702       2713       2712       2822       2823       2834       2833  
      2702       2703       2714       2713       2823       2824       2835       2834  
      2703       2704       2715       2714       2824       2825       2836       2835  
      2704       2705       2716       2715       2825       2826       2837       2836  
      2705       2706       2717       2716       2826       2827       2838       2837  
      2707       2708       2719       2718       2828       2829       2840       2839  
      2708       2709       2720       2719       2829       2830       2841       2840  
      2709       2710       2721       2720       2830       2831       2842       2841  
      2710       2711       2722       2721       2831       2832       2843       2842  
      2711       2712       2723       2722       2832       2833       2844       2843  
      2712       2713       2724       2723       2833       2834       2845       2844  
      2713       2714       2725       2724       2834       2835       2846       2845  
      2714       2715       2726       2725       2835       2836       2847       2846  
      2715       2716       2727       2726       2836       2837       2848       2847  
      2716       2717       2728       2727       2837       2838       2849       2848  
      2718       2719       2730       2729       2839       2840       2851       2850  
      2719       2720       2731       2730       2840       2841       2852       2851  
      2720       2721       2732       2731       2841       2842       2853       2852  
      2721       2722       2733       2732       2842       2843       2854       2853  
      2722       2723       2734       2733       2843       2844       2855       2854  
      2723       2724       2735       2734       2844       2845       2856       2855  
      2724       2725       2736       2735       2845       2846       2857       2856  
      2725       2726       2737       2736       2846       2847       2858       2857  
      2726       2727       2738       2737       2847       2848       2859       2858  
      2727       2728       2739       2738       2848       2849       2860       2859  
      2729       2730       2741       2740       2850       2851       2862       2861  
      2730       2731       2742       2741       2851       2852       2863       2862  
      2731       2732       2743       2742       2852       2853       2864       2863  
      2732       2733       2744       2743       2853       2854       2865       2864  
      2733       2734       2745       2744       2854       2855       2866       2865  
      2734       2735       2746       2745       2855       2856       2867       2866  
      2735       2736       2747       2746       2856       2857       2868       2867  
      2736       2737       2748       2747       2857       2858       2869       2868  
      2737       2738       2749       2748       2858       2859       2870       2869  
      2738       2739       2750       2749       2859       2860       2871       2870  
      2740       2741       2752       2751       2861       2862       2873       2872  
      2741       2742       2753       2752       2862       2863       2874       2873  
      2742       2743       2754       2753       2863       2864       2875       2874  
      2743       2744       2755       2754       2864       2865       2876       2875  
      2744       2745       2756       2755       2865       2866       2877       2876  
      2745       2746       2757       2756       2866       2867       2878       2877  
      2746       2747       2758       2757       2867       2868       2879       2878  
      2747       2748       2759       2758       2868       2869       2880       2879  
      2748       2749       2760       2759       2869       2870       2881       2880  
      2749       2750       2761       2760       2870       2871       2882       2881  
      2751       2752       2763       2762       2872       2873       2884       2883  
      2752       2753       2764       2763       2873       2874       2885       2884  
      2753       2754       2765       2764       2874       2875       2886       2885  
      2754       2755       2766       2765       2875       2876       2887       2886  
      2755       2756       2767       2766       2876       2877       2888       2887  
      2756       2757       2768       2767       2877       2878       2889       2888  
      2757       2758       2769       2768       2878       2879       2890       2889  
      2758       2759       2770       2769       2879       2880       2891       2890  
      2759       2760       2771       2770       2880       2881       2892       2891  
      2760       2761       2772       2771       2881       2882       2893       2892  
      2762       2763       2774       2773       2883       2884       2895       2894  
      2763       2764       2775       2774       2884       2885       2896       2895  
      2764       2765       2776       2775       2885       2886       2897       2896  
      2765       2766       2777       2776       2886       2887       2898       2897  
      2766       2767       2778       2777       2887       2888       2899       2898  
      2767       2768       2779       2778       2888       2889       2900       2899  
      2768       2769       2780       2779       2889       2890       2901       2900  
      2769       2770       2781       2780       2890       2891       2902       2901  
      2770       2771       2782       2781       2891       2892       2903       2902  
      2771       2772       2783       2782       2892       2893       2904       2903  
      2784       2785       2796       2795       2905       2906       2917       2916  
      2785       2786       2797       2796       2906       2907       2918       2917  
      2786       2787       2798       2797       2907       2908       2919       2918  
      2787       2788       2799       2798       2908       2909       2920       2919  
      2788       2789       2800       2799       2909       2910       2921       2920  
      2789       2790       2801       2800       2910       2911       2922       2921  
      2790       2791       2802       2801       2911       2912       2923       2922  
      2791       2792       2803       2802       2912       2913       2924       2923  
      2792       2793       2804       2803       2913       2914       2925       2924  
      2793       2794       2805       2804       2914       2915       2926       2925  
      2795       2796       2807       2806       2916       2917       2928       2927  
      2796       2797       2808       2807       2917       2918       2929       2928  
      2797       2798       2809       2808       2918       2919       2930       2929  
      2798       2799       2810       2809       2919       2920       2931       2930  
      2799       2800       2811       2810       2920       2921       2932       2931  
      2800       2801       2812       2811       2921       2922       2933       2932  
      2801       2802       2813       2812       2922       2923       2934       2933  
      2802       2803       2814       2813       2923       2924       2935       2934  
      2803       2804       2815       2814       2924       2925       2936       2935  
      2804       2805       2816       2815       2925       2926       2937       2936  
      2806       2807       2818       2817       2927       2928       2939       2938  
      2807       2808       2819       2818       2928       2929       2940       2939  
      2808       2809       2820       2819       2929       2930       2941       2940  
      2809       2810       2821       2820       2930       2931       2942       2941  
      2810       2811       2822       2821       2931       2932       2943       2942  
      2811       2812       2823       2822       2932       2933       2944       2943  
      2812       2813       2824       2823       2933       2934       2945       2944  
      2813       2814       2825       2824       2934       2935       2946       2945  
      2814       2815       2826       2825       2935       2936       2947       2946  
      2815       2816       2827       2826       2936       2937       2948       2947  
      2817       2818       2829       2828       2938       2939       2950       2949  
      2818       2819       2830       2829       2939       2940       2951       2950  
      2819       2820       2831       2830       2940       2941       2952       2951  
      2820       2821       2832       2831       2941       2942       2953       2952  
      2821       2822       2833       2832       2942       2943       2954       2953  
      2822       2823       2834       2833       2943       2944       2955       2954  
      2823       2824       2835       2834       2944       2945       2956       2955  
      2824       2825       2836       2835       2945       2946       2957       2956  
      2825       2826       2837       2836       2946       2947       2958       2957  
      2826       2827       2838       2837       2947       2948       2959       2958  
      2828       2829       2840       2839       2949       2950       2961       2960  
      2829       2830       2841       2840       2950       2951       2962       2961  
      2830       2831       2842       2841       2951       2952       2963       2962  
      2831       2832       2843       2842       2952       2953       2964       2963  
      2832       2833       2844       2843       2953       2954       2965       2964  
      2833       2834       2845       2844       2954       2955       2966       2965  
      2834       2835       2846       2845       2955       2956       2967       2966  
      2835       2836       2847       2846       2956       2957       2968       2967  
      2836       2837       2848       2847       2957       2958       2969       2968  
      2837       2838       2849       2848       2958       2959       2970       2969  
      2839       2840       2851       2850       2960       2961       2972       2971  
      2840       2841       2852       2851       2961       2962       2973       2972  
      2841       2842       2853       2852       2962       2963       2974       2973  
      2842       2843       2854       2853       2963       2964       2975       2974  
      2843       2844       2855       2854       2964       2965       2976       2975  
      2844       2845       2856       2855       2965       2966       2977       2976  
      2845       2846       2857       2856       2966       2967       2978       2977  
      2846       2847       2858       2857       2967       2968       2979       2978  
      2847       2848       2859       2858       2968       2969       2980       2979  
      2848       2849       2860       2859       2969       2970       2981       2980  
      2850       2851       2862       2861       2971       2972       2983       2982  
      2851       2852       2863       2862       2972       2973       2984       2983  
      2852       2853       2864       2863       2973       2974       2985       2984  
      2853       2854       2865       2864       2974       2975       2986       2985  
      2854       2855       2866       2865       2975       2976       2987       2986  
      2855       2856       2867       2866       2976       2977       2988       2987  
      2856       2857       2868       2867       2977       2978       2989       2988  
      2857       2858       2869       2868       2978       2979       2990       2989  
      2858       2859       2870       2869       2979       2980       2991       2990  
      2859       2860       2871       2870       2980       2981       2992       2991  
      2861       2862       2873       2872       2982       2983       2994       2993  
      2862       2863       2874       2873       2983       2984       2995       2994  
      2863       2864       2875       2874       2984       2985       2996       2995  
      2864       2865       2876       2875       2985       2986       2997       2996  
      2865       2866       2877       2876       2986       2987       2998       2997  
      2866       2867       2878       2877       2987       2988       2999       2998  
      2867       2868       2879       2878       2988       2989       3000       2999  
      2868       2869       2880       2879       2989       2990       3001       3000  
      2869       2870       2881       2880       2990       2991       3002       3001  
      2870       2871       2882       2881       2991       2992       3003       3002  
      2872       2873       2884       2883       2993       2994       3005       3004  
      2873       2874       2885       2884       2994       2995       3006       3005  
      2874       2875       2886       2885       2995       2996       3007       3006  
      2875       2876       2887       2886       2996       2997       3008       3007  
      2876       2877       2888       2887       2997       2998       3009       3008  
      2877       2878       2889       2888       2998       2999       3010       3009  
      2878       2879       2890       2889       2999       3000       3011       3010  
      2879       2880       2891       2890       3000       3001       3012       3011  
      2880       2881       2892       2891       3001       3002       3013       3012  
      2881       2882       2893       2892       3002       3003       3014       3013  
      2883       2884       2895       2894       3004       3005       3016       3015  
      2884       2885       2896       2895       3005       3006       3017       3016  
      2885       2886       2897       2896       3006       3007       3018       3017  
      2886       2887       2898       2897       3007       3008       3019       3018  
      2887       2888       2899       2898       3008       3009       3020       3019  
      2888       2889       2900       2899       3009       3010       3021       3020  
      2889       2890       2901       2900       3010       3011       3022       3021  
      2890       2891       2902       2901       3011       3012       3023       3022  
      2891       2892       2903       2902       3012       3013       3024       3023  
      2892       2893       2904       2903       3013       3014       3025       3024  
      2905       2906       2917       2916       3026       3027       3038       3037  
      2906       2907       2918       2917       3027       3028       3039       3038  
      2907       2908       2919       2918       3028       3029       3040       3039  
      2908       2909       2920       2919       3029       3030       3041       3040  
      2909       2910       2921       2920       3030       3031       3042       3041  
      2910       2911       2922       2921       3031       3032       3043       3042  
      2911       2912       2923       2922       3032       3033       3044       3043  
      2912       2913       2924       2923       3033       3034       3045       3044  
      2913       2914       2925       2924       3034       3035       3046       3045  
      2914       2915       2926       2925       3035       3036       3047       3046  
      2916       2917       2928       2927       3037       3038       3049       3048  
      2917       2918       2929       2928       3038       3039       3050       3049  
      2918       2919       2930       2929       3039       3040       3051       3050  
      2919       2920       2931       2930       3040       3041       3052       3051  
      2920       2921       2932       2931       3041       3042       3053       3052  
      2921       2922       2933       2932       3042       3043       3054       3053  
      2922       2923       2934       2933       3043       3044       3055       3054  
      2923       2924       2935       2934       3044       3045       3056       3055  
      2924       2925       2936       2935       3045       3046       3057       3056  
      2925       2926       2937       2936       3046       3047       3058       3057  
      2927       2928       2939       2938       3048       3049       3060       3059  
      2928       2929       2940       2939       3049       3050       3061       3060  
      2929       2930       2941       2940       3050       3051       3062       3061  
      2930       2931       2942       2941       3051       3052       3063       3062  
      2931       2932       2943       2942       3052       3053       3064       3063  
      2932       2933       2944       2943       3053       3054       3065       3064  
      2933       2934       2945       2944       3054       3055       3066       3065  
      2934       2935       2946       2945       3055       3056       3067       3066  
      2935       2936       2947       2946       3056       3057       3068       3067  
      2936       2937       2948       2947       3057       3058       3069       3068  
      2938       2939       2950       2949       3059       3060       3071       3070  
      2939       2940       2951       2950       3060       3061       3072       3071  
      2940       2941       2952       2951       3061       3062       3073       3072  
      2941       2942       2953       2952       3062       3063       3074       3073  
      2942       2943       2954       2953       3063       3064       3075       3074  
      2943       2944       2955       2954       3064       3065       3076       3075  
      2944       2945       2956       2955       3065       3066       3077       3076  
      2945       2946       2957       2956       3066       3067       3078       3077  
      2946       2947       2958       2957       3067       3068       3079       3078  
      2947       2948       2959       2958       3068       3069       3080       3079  
      2949       2950       2961       2960       3070       3071       3082       3081  
      2950       2951       2962       2961       3071       3072       3083       3082  
      2951       2952       2963       2962       3072       3073       3084       3083  
      2952       2953       2964       2963       3073       3074       3085       3084  
      2953       2954       2965       2964       3074       3075       3086       3085  
      2954       2955       2966       2965       3075       3076       3087       3086  
      2955       2956       2967       2966       3076       3077       3088       3087  
      2956       2957       2968       2967       3077       3078       3089       3088  
      2957       2958       2969       2968       3078       3079       3090       3089  
      2958       2959       2970       2969       3079       3080       3091       3090  
      2960       2961       2972       2971       3081       3082       3093       3092  
      2961       2962       2973       2972       3082       3083       3094       3093  
      2962       2963       2974       2973       3083       3084       3095       3094  
      2963       2964       2975       2974       3084       3085       3096       3095  
      2964       2965       2976       2975       3085       3086       3097       3096  
      2965       2966       2977       2976       3086       3087       3098       3097  
      2966       2967       2978       2977       3087       3088       3099       3098  
      2967       2968       2979       2978       3088       3089       3100       3099  
      2968       2969       2980       2979       3089       3090       3101       3100  
      2969       2970       2981       2980       3090       3091       3102       3101  
      2971       2972       2983       2982       3092       3093       3104       3103  
      2972       2973       2984       2983       3093       3094       3105       3104  
      2973       2974       2985       2984       3094       3095       3106       3105  
      2974       2975       2986       2985       3095       3096       3107       3106  
      2975       2976       2987       2986       3096       3097       3108       3107  
      2976       2977       2988       2987       3097       3098       3109       3108  
      2977       2978       2989       2988       3098       3099       3110       3109  
      2978       2979       2990       2989       3099       3100       3111       3110  
      2979       2980       2991       2990       3100       3101       3112       3111  
      2980       2981       2992       2991       3101       3102       3113       3112  
      2982       2983       2994       2993       3103       3104       3115       3114  
      2983       2984       2995       2994       3104       3105       3116       3115  
      2984       2985       2996       2995       3105       3106       3117       3116  
      2985       2986       2997       2996       3106       3107       3118       3117  
      2986       2987       2998       2997       3107       3108       3119       3118  
      2987       2988       2999       2998       3108       3109       3120       3119  
      2988       2989       3000       2999       3109       3110       3121       3120  
      2989       2990       3001       3000       3110       3111       3122       3121  
      2990       2991       3002       3001       3111       3112       3123       3122  
      2991       2992       3003       3002       3112       3113       3124       3123  
      2993       2994       3005       3004       3114       3115       3126       3125  
      2994       2995       3006       3005       3115       3116       3127       3126  
      2995       2996       3007       3006       3116       3117       3128       3127  
      2996       2997       3008       3007       3117       3118       3129       3128  
      2997       2998       3009       3008       3118       3119       3130       3129  
      2998       2999       3010       3009       3119       3120       3131       3130  
      2999       3000       3011       3010       3120       3121       3132       3131  
      3000       3001       3012       3011       3121       3122       3133       3132  
      3001       3002       3013       3012       3122       3123       3134       3133  
      3002       3003       3014       3013       3123       3124       3135       3134  
      3004       3005       3016       3015       3125       3126       3137       3136  
      3005       3006       3017       3016       3126       3127       3138       3137  
      3006       3007       3018       3017       3127       3128       3139       3138  
      3007       3008       3019       3018       3128       3129       3140       3139  
      3008       3009       3020       3019       3129       3130       3141       3140  
      3009       3010       3021       3020       3130       3131       3142       3141  
      3010       3011       3022       3021       3131       3132       3143       3142  
      3011       3012       3023       3022       3132       3133       3144       3143  
      3012       3013       3024       3023       3133       3134       3145       3144  
      3013       3014       3025       3024       3134       3135       3146       3145  
      3026       3027       3038       3037       3147       3148       3159       3158  
      3027       3028       3039       3038       3148       3149       3160       3159  
      3028       3029       3040       3039       3149       3150       3161       3160  
      3029       3030       3041       3040       3150       3151       3162       3161  
      3030       3031       3042       3041       3151       3152       3163       3162  
      3031       3032       3043       3042       3152       3153       3164       3163  
      3032       3033       3044       3043       3153       3154       3165       3164  
      3033       3034       3045       3044       3154       3155       3166       3165  
      3034       3035       3046       3045       3155       3156       3167       3166  
      3035       3036       3047       3046       3156       3157       3168       3167  
      3037       3038       3049       3048       3158       3159       3170       3169  
      3038       3039       3050       3049       3159       3160       3171       3170  
      3039       3040       3051       3050       3160       3161       3172       3171  
      3040       3041       3052       3051       3161       3162       3173       3172  
      3041       3042       3053       3052       3162       3163       3174       3173  
      3042       3043       3054       3053       3163       3164       3175       3174  
      3043       3044       3055       3054       3164       3165       3176       3175  
      3044       3045       3056       3055       3165       3166       3177       3176  
      3045       3046       3057       3056       3166       3167       3178       3177  
      3046       3047       3058       3057       3167       3168       3179       3178  
      3048       3049       3060       3059       3169       3170       3181       3180  
      3049       3050       3061       3060       3170       3171       3182       3181  
      3050       3051       3062       3061       3171       3172       3183       3182  
      3051       3052       3063       3062       3172       3173       3184       3183  
      3052       3053       3064       3063       3173       3174       3185       3184  
      3053       3054       3065       3064       3174       3175       3186       3185  
      3054       3055       3066       3065       3175       3176       3187       3186  
      3055       3056       3067       3066       3176       3177       3188       3187  
      3056       3057       3068       3067       3177       3178       3189       3188  
      3057       3058       3069       3068       3178       3179       3190       3189  
      3059       3060       3071       3070       3180       3181       3192       3191  
      3060       3061       3072       3071       3181       3182       3193       3192  
      3061       3062       3073       3072       3182       3183       3194       3193  
      3062       3063       3074       3073       3183       3184       3195       3194  
      3063       3064       3075       3074       3184       3185       3196       3195  
      3064       3065       3076       3075       3185       3186       3197       3196  
      3065       3066       3077       3076       3186       3187       3198       3197  
      3066       3067       3078       3077       3187       3188       3199       3198  
      3067       3068       3079       3078       3188       3189       3200       3199  
      3068       3069       3080       3079       3189       3190       3201       3200  
      3070       3071       3082       3081       3191       3192       3203       3202  
      3071       3072       3083       3082       3192       3193       3204       3203  
      3072       3073       3084       3083       3193       3194       3205       3204  
      3073       3074       3085       3084       3194       3195       3206       3205  
      3074       3075       3086       3085       3195       3196       3207       3206  
      3075       3076       3087       3086       3196       3197       3208       3207  
      3076       3077       3088       3087       3197       3198       3209       3208  
      3077       3078       3089       3088       3198       3199       3210       3209  
      3078       3079       3090       3089       3199       3200       3211       3210  
      3079       3080       3091       3090       3200       3201       3212       3211  
      3081       3082       3093       3092       3202       3203       3214       3213  
      3082       3083       3094       3093       3203       3204       3215       3214  
      3083       3084       3095       3094       3204       3205       3216       3215  
      3084       3085       3096       3095       3205       3206       3217       3216  
      3085       3086       3097       3096       3206       3207       3218       3217  
      3086       3087       3098       3097       3207       3208       3219       3218  
      3087       3088       3099       3098       3208       3209       3220       3219  
      3088       3089       3100       3099       3209       3210       3221       3220  
      3089       3090       3101       3100       3210       3211       3222       3221  
      3090       3091       3102       3101       3211       3212       3223       3222  
      3092       3093       3104       3103       3213       3214       3225       3224  
      3093       3094       3105       3104       3214       3215       3226       3225  
      3094       3095       3106       3105       3215       3216       3227       3226  
      3095       3096       3107       3106       3216       3217       3228       3227  
      3096       3097       3108       3107       3217       3218       3229       3228  
      3097       3098       3109       3108       3218       3219       3230       3229  
      3098       3099       3110       3109       3219       3220       3231       3230  
      3099       3100       3111       3110       3220       3221       3232       3231  
      3100       3101       3112       3111       3221       3222       3233       3232  
      3101       3102       3113       3112       3222       3223       3234       3233  
      3103       3104       3115       3114       3224       3225       3236       3235  
      3104       3105       3116       3115       3225       3226       3237       3236  
      3105       3106       3117       3116       3226       3227       3238       3237  
      3106       3107       3118       3117       3227       3228       3239       3238  
      3107       3108       3119       3118       3228       3229       3240       3239  
      3108       3109       3120       3119       3229       3230       3241       3240  
      3109       3110       3121       3120       3230       3231       3242       3241  
      3110       3111       3122       3121       3231       3232       3243       3242  
      3111       3112       3123       3122       3232       3233       3244       3243  
      3112       3113       3124       3123       3233       3234       3245       3244  
      3114       3115       3126       3125       3235       3236       3247       3246  
      3115       3116       3127       3126       3236       3237       3248       3247  
      3116       3117       3128       3127       3237       3238       3249       3248  
      3117       3118       3129       3128       3238       3239       3250       3249  
      3118       3119       3130       3129       3239       3240       3251       3250  
      3119       3120       3131       3130       3240       3241       3252       3251  
      3120       3121       3132       3131       3241       3242       3253       3252  
      3121       3122       3133       3132       3242       3243       3254       3253  
      3122       3123       3134       3133       3243       3244       3255       3254  
      3123       3124       3135       3134       3244       3245       3256       3255  
      3125       3126       3137       3136       3246       3247       3258       3257  
      3126       3127       3138       3137       3247       3248       3259       3258  
      3127       3128       3139       3138       3248       3249       3260       3259  
      3128       3129       3140       3139       3249       3250       3261       3260  
      3129       3130       3141       3140       3250       3251       3262       3261  
      3130       3131       3142       3141       3251       3252       3263       3262  
      3131       3132       3143       3142       3252       3253       3264       3263  
      3132       3133       3144       3143       3253       3254       3265       3264  
      3133       3134       3145       3144       3254       3255       3266       3265  
      3134       3135       3146       3145       3255       3256       3267       3266  
      3147       3148       3159       3158       3268       3269       3280       3279  
      3148       3149       3160       3159       3269       3270       3281       3280  
      3149       3150       3161       3160       3270       3271       3282       3281  
      3150       3151       3162       3161       3271       3272       3283       3282  
      3151       3152       3163       3162       3272       3273       3284       3283  
      3152       3153       3164       3163       3273       3274       3285       3284  
      3153       3154       3165       3164       3274       3275       3286       3285  
      3154       3155       3166       3165       3275       3276       3287       3286  
      3155       3156       3167       3166       3276       3277       3288       3287  
      3156       3157       3168       3167       3277       3278       3289       3288  
      3158       3159       3170       3169       3279       3280       3291       3290  
      3159       3160       3171       3170       3280       3281       3292       3291  
      3160       3161       3172       3171       3281       3282       3293       3292  
      3161       3162       3173       3172       3282       3283       3294       3293  
      3162       3163       3174       3173       3283       3284       3295       3294  
      3163       3164       3175       3174       3284       3285       3296       3295  
      3164       3165       3176       3175       3285       3286       3297       3296  
      3165       3166       3177       3176       3286       3287       3298       3297  
      3166       3167       3178       3177       3287       3288       3299       3298  
      3167       3168       3179       3178       3288       3289       3300       3299  
      3169       3170       3181       3180       3290       3291       3302       3301  
      3170       3171       3182       3181       3291       3292       3303       3302  
      3171       3172       3183       3182       3292       3293       3304       3303  
      3172       3173       3184       3183       3293       3294       3305       3304  
      3173       3174       3185       3184       3294       3295       3306       3305  
      3174       3175       3186       3185       3295       3296       3307       3306  
      3175       3176       3187       3186       3296       3297       3308       3307  
      3176       3177       3188       3187       3297       3298       3309       3308  
      3177       3178       3189       3188       3298       3299       3310       3309  
      3178       3179       3190       3189       3299       3300       3311       3310  
      3180       3181       3192       3191       3301       3302       3313       3312  
      3181       3182       3193       3192       3302       3303       3314       3313  
      3182       3183       3194       3193       3303       3304       3315       3314  
      3183       3184       3195       3194       3304       3305       3316       3315  
      3184       3185       3196       3195       3305       3306       3317       3316  
      3185       3186       3197       3196       3306       3307       3318       3317  
      3186       3187       3198       3197       3307       3308       3319       3318  
      3187       3188       3199       3198       3308       3309       3320       3319  
      3188       3189       3200       3199       3309       3310       3321       3320  
      3189       3190       3201       3200       3310       3311       3322       3321  
      3191       3192       3203       3202       3312       3313       3324       3323  
      3192       3193       3204       3203       3313       3314       3325       3324  
      3193       3194       3205       3204       3314       3315       3326       3325  
      3194       3195       3206       3205       3315       3316       3327       3326  
      3195       3196       3207       3206       3316       3317       3328       3327  
      3196       3197       3208       3207       3317       3318       3329       3328  
      3197       3198       3209       3208       3318       3319       3330       3329  
      3198       3199       3210       3209       3319       3320       3331       3330  
      3199       3200       3211       3210       3320       3321       3332       3331  
      3200       3201       3212       3211       3321       3322       3333       3332  
      3202       3203       3214       3213       3323       3324       3335       3334  
      3203       3204       3215       3214       3324       3325       3336       3335  
      3204       3205       3216       3215       3325       3326       3337       3336  
      3205       3206       3217       3216       3326       3327       3338       3337  
      3206       3207       3218       3217       3327       3328       3339       3338  
      3207       3208       3219       3218       3328       3329       3340       3339  
      3208       3209       3220       3219       3329       3330       3341       3340  
      3209       3210       3221       3220       3330       3331       3342       3341  
      3210       3211       3222       3221       3331       3332       3343       3342  
      3211       3212       3223       3222       3332       3333       3344       3343  
      3213       3214       3225       3224       3334       3335       3346       3345  
      3214       3215       3226       3225       3335       3336       3347       3346  
      3215       3216       3227       3226       3336       3337       3348       3347  
      3216       3217       3228       3227       3337       3338       3349       3348  
      3217       3218       3229       3228       3338       3339       3350       3349  
      3218       3219       3230       3229       3339       3340       3351       3350  
      3219       3220       3231       3230       3340       3341       3352       3351  
      3220       3221       3232       3231       3341       3342       3353       3352  
      3221       3222       3233       3232       3342       3343       3354       3353  
      3222       3223       3234       3233       3343       3344       3355       3354  
      3224       3225       3236       3235       3345       3346       3357       3356  
      3225       3226       3237       3236       3346       3347       3358       3357  
      3226       3227       3238       3237       3347       3348       3359       3358  
      3227       3228       3239       3238       3348       3349       3360       3359  
      3228       3229       3240       3239       3349       3350       3361       3360  
      3229       3230       3241       3240       3350       3351       3362       3361  
      3230       3231       3242       3241       3351       3352       3363       3362  
      3231       3232       3243       3242       3352       3353       3364       3363  
      3232       3233       3244       3243       3353       3354       3365       3364  
      3233       3234       3245       3244       3354       3355       3366       3365  
      3235       3236       3247       3246       3356       3357       3368       3367  
      3236       3237       3248       3247       3357       3358       3369       3368  
      3237       3238       3249       3248       3358       3359       3370       3369  
      3238       3239       3250       3249       3359       3360       3371       3370  
      3239       3240       3251       3250       3360       3361       3372       3371  
      3240       3241       3252       3251       3361       3362       3373       3372  
      3241       3242       3253       3252       3362       3363       3374       3373  
      3242       3243       3254       3253       3363       3364       3375       3374  
      3243       3244       3255       3254       3364       3365       3376       3375  
      3244       3245       3256       3255       3365       3366       3377       3376  
      3246       3247       3258       3257       3367       3368       3379       3378  
      3247       3248       3259       3258       3368       3369       3380       3379  
      3248       3249       3260       3259       3369       3370       3381       3380  
      3249       3250       3261       3260       3370       3371       3382       3381  
      3250       3251       3262       3261       3371       3372       3383       3382  
      3251       3252       3263       3262       3372       3373       3384       3383  
      3252       3253       3264       3263       3373       3374       3385       3384  
      3253       3254       3265       3264       3374       3375       3386       3385  
      3254       3255       3266       3265       3375       3376       3387       3386  
      3255       3256       3267       3266       3376       3377       3388       3387  
      3268       3269       3280       3279       3389       3390       3401       3400  
      3269       3270       3281       3280       3390       3391       3402       3401  
      3270       3271       3282       3281       3391       3392       3403       3402  
      3271       3272       3283       3282       3392       3393       3404       3403  
      3272       3273       3284       3283       3393       3394       3405       3404  
      3273       3274       3285       3284       3394       3395       3406       3405  
      3274       3275       3286       3285       3395       3396       3407       3406  
      3275       3276       3287       3286       3396       3397       3408       3407  
      3276       3277       3288       3287       3397       3398       3409       3408  
      3277       3278       3289       3288       3398       3399       3410       3409  
      3279       3280       3291       3290       3400       3401       3412       3411  
      3280       3281       3292       3291       3401       3402       3413       3412  
      3281       3282       3293       3292       3402       3403       3414       3413  
      3282       3283       3294       3293       3403       3404       3415       3414  
      3283       3284       3295       3294       3404       3405       3416       3415  
      3284       3285       3296       3295       3405       3406       3417       3416  
      3285       3286       3297       3296       3406       3407       3418       3417  
      3286       3287       3298       3297       3407       3408       3419       3418  
      3287       3288       3299       3298       3408       3409       3420       3419  
      3288       3289       3300       3299       3409       3410       3421       3420  
      3290       3291       3302       3301       3411       3412       3423       3422  
      3291       3292       3303       3302       3412       3413       3424       3423  
      3292       3293       3304       3303       3413       3414       3425       3424  
      3293       3294       3305       3304       3414       3415       3426       3425  
      3294       3295       3306       3305       3415       3416       3427       3426  
      3295       3296       3307       3306       3416       3417       3428       3427  
      3296       3297       3308       3307       3417       3418       3429       3428  
      3297       3298       3309       3308       3418       3419       3430       3429  
      3298       3299       3310       3309       3419       3420       3431       3430  
      3299       3300       3311       3310       3420       3421       3432       3431  
      3301       3302       3313       3312       3422       3423       3434       3433  
      3302       3303       3314       3313       3423       3424       3435       3434  
      3303       3304       3315       3314       3424       3425       3436       3435  
      3304       3305       3316       3315       3425       3426       3437       3436  
      3305       3306       3317       3316       3426       3427       3438       3437  
      3306       3307       3318       3317       3427       3428       3439       3438  
      3307       3308       3319       3318       3428       3429       3440       3439  
      3308       3309       3320       3319       3429       3430       3441       3440  
      3309       3310       3321       3320       3430       3431       3442       3441  
      3310       3311       3322       3321       3431       3432       3443       3442  
      3312       3313       3324       3323       3433       3434       3445       3444  
      3313       3314       3325       3324       3434       3435       3446       3445  
      3314       3315       3326       3325       3435       3436       3447       3446  
      3315       3316       3327       3326       3436       3437       3448       3447  
      3316       3317       3328       3327       3437       3438       3449       3448  
      3317       3318       3329       3328       3438       3439       3450       3449  
      3318       3319       3330       3329       3439       3440       3451       3450  
      3319       3320       3331       3330       3440       3441       3452       3451  
      3320       3321       3332       3331       3441       3442       3453       3452  
      3321       3322       3333       3332       3442       3443       3454       3453  
      3323       3324       3335       3334       3444       3445       3456       3455  
      3324       3325       3336       3335       3445       3446       3457       3456  
      3325       3326       3337       3336       3446       3447       3458       3457  
      3326       3327       3338       3337       3447       3448       3459       3458  
      3327       3328       3339       3338       3448       3449       3460       3459  
      3328       3329       3340       3339       3449       3450       3461       3460  
      3329       3330       3341       3340       3450       3451       3462       3461  
      3330       3331       3342       3341       3451       3452       3463       3462  
      3331       3332       3343       3342       3452       3453       3464       3463  
      3332       3333       3344       3343       3453       3454       3465       3464  
      3334       3335       3346       3345       3455       3456       3467       3466  
      3335       3336       3347       3346       3456       3457       3468       3467  
      3336       3337       3348       3347       3457       3458       3469       3468  
      3337       3338       3349       3348       3458       3459       3470       3469  
      3338       3339       3350       3349       3459       3460       3471       3470  
      3339       3340       3351       3350       3460       3461       3472       3471  
      3340       3341       3352       3351       3461       3462       3473       3472  
      3341       3342       3353       3352       3462       3463       3474       3473  
      3342       3343       3354       3353       3463       3464       3475       3474  
      3343       3344       3355       3354       3464       3465       3476       3475  
      3345       3346       3357       3356       3466       3467       3478       3477  
      3346       3347       3358       3357       3467       3468       3479       3478  
      3347       3348       3359       3358       3468       3469       3480       3479  
      3348       3349       3360       3359       3469       3470       3481       3480  
      3349       3350       3361       3360       3470       3471       3482       3481  
      3350       3351       3362       3361       3471       3472       3483       3482  
      3351       3352       3363       3362       3472       3473       3484       3483  
      3352       3353       3364       3363       3473       3474       3485       3484  
      3353       3354       3365       3364       3474       3475       3486       3485  
      3354       3355       3366       3365       3475       3476       3487       3486  
      3356       3357       3368       3367       3477       3478       3489       3488  
      3357       3358       3369       3368       3478       3479       3490       3489  
      3358       3359       3370       3369       3479       3480       3491       3490  
      3359       3360       3371       3370       3480       3481       3492       3491  
      3360       3361       3372       3371       3481       3482       3493       3492  
      3361       3362       3373       3372       3482       3483       3494       3493  
      3362       3363       3374       3373       3483       3484       3495       3494  
      3363       3364       3375       3374       3484       3485       3496       3495  
      3364       3365       3376       3375       3485       3486       3497       3496  
      3365       3366       3377       3376       3486       3487       3498       3497  
      3367       3368       3379       3378       3488       3489       3500       3499  
      3368       3369       3380       3379       3489       3490       3501       3500  
      3369       3370       3381       3380       3490       3491       3502       3501  
      3370       3371       3382       3381       3491       3492       3503       3502  
      3371       3372       3383       3382       3492       3493       3504       3503  
      3372       3373       3384       3383       3493       3494       3505       3504  
      3373       3374       3385       3384       3494       3495       3506       3505  
      3374       3375       3386       3385       3495       3496       3507       3506  
      3375       3376       3387       3386       3496       3497       3508       3507  
      3376       3377       3388       3387       3497       3498       3509       3508  
      3389       3390       3401       3400       3510       3511       3522       3521  
      3390       3391       3402       3401       3511       3512       3523       3522  
      3391       3392       3403       3402       3512       3513       3524       3523  
      3392       3393       3404       3403       3513       3514       3525       3524  
      3393       3394       3405       3404       3514       3515       3526       3525  
      3394       3395       3406       3405       3515       3516       3527       3526  
      3395       3396       3407       3406       3516       3517       3528       3527  
      3396       3397       3408       3407       3517       3518       3529       3528  
      3397       3398       3409       3408       3518       3519       3530       3529  
      3398       3399       3410       3409       3519       3520       3531       3530  
      3400       3401       3412       3411       3521       3522       3533       3532  
      3401       3402       3413       3412       3522       3523       3534       3533  
      3402       3403       3414       3413       3523       3524       3535       3534  
      3403       3404       3415       3414       3524       3525       3536       3535  
      3404       3405       3416       3415       3525       3526       3537       3536  
      3405       3406       3417       3416       3526       3527       3538       3537  
      3406       3407       3418       3417       3527       3528       3539       3538  
      3407       3408       3419       3418       3528       3529       3540       3539  
      3408       3409       3420       3419       3529       3530       3541       3540  
      3409       3410       3421       3420       3530       3531       3542       3541  
      3411       3412       3423       3422       3532       3533       3544       3543  
      3412       3413       3424       3423       3533       3534       3545       3544  
      3413       3414       3425       3424       3534       3535       3546       3545  
      3414       3415       3426       3425       3535       3536       3547       3546  
      3415       3416       3427       3426       3536       3537       3548       3547  
      3416       3417       3428       3427       3537       3538       3549       3548  
      3417       3418       3429       3428       3538       3539       3550       3549  
      3418       3419       3430       3429       3539       3540       3551       3550  
      3419       3420       3431       3430       3540       3541       3552       3551  
      3420       3421       3432       3431       3541       3542       3553       3552  
      3422       3423       3434       3433       3543       3544       3555       3554  
      3423       3424       3435       3434       3544       3545       3556       3555  
      3424       3425       3436       3435       3545       3546       3557       3556  
      3425       3426       3437       3436       3546       3547       3558       3557  
      3426       3427       3438       3437       3547       3548       3559       3558  
      3427       3428       3439       3438       3548       3549       3560       3559  
      3428       3429       3440       3439       3549       3550       3561       3560  
      3429       3430       3441       3440       3550       3551       3562       3561  
      3430       3431       3442       3441       3551       3552       3563       3562  
      3431       3432       3443       3442       3552       3553       3564       3563  
      3433       3434       3445       3444       3554       3555       3566       3565  
      3434       3435       3446       3445       3555       3556       3567       3566  
      3435       3436       3447       3446       3556       3557       3568       3567  
      3436       3437       3448       3447       3557       3558       3569       3568  
      3437       3438       3449       3448       3558       3559       3570       3569  
      3438       3439       3450       3449       3559       3560       3571       3570  
      3439       3440       3451       3450       3560       3561       3572       3571  
      3440       3441       3452       3451       3561       3562       3573       3572  
      3441       3442       3453       3452       3562       3563       3574       3573  
      3442       3443       3454       3453       3563       3564       3575       3574  
      3444       3445       3456       3455       3565       3566       3577       3576  
      3445       3446       3457       3456       3566       3567       3578       3577  
      3446       3447       3458       3457       3567       3568       3579       3578  
      3447       3448       3459       3458       3568       3569       3580       3579  
      3448       3449       3460       3459       3569       3570       3581       3580  
      3449       3450       3461       3460       3570       3571       3582       3581  
      3450       3451       3462       3461       3571       3572       3583       3582  
      3451       3452       3463       3462       3572       3573       3584       3583  
      3452       3453       3464       3463       3573       3574       3585       3584  
      3453       3454       3465       3464       3574       3575       3586       3585  
      3455       3456       3467       3466       3576       3577       3588       3587  
      3456       3457       3468       3467       3577       3578       3589       3588  
      3457       3458       3469       3468       3578       3579       3590       3589  
      3458       3459       3470       3469       3579       3580       3591       3590  
      3459       3460       3471       3470       3580       3581       3592       3591  
      3460       3461       3472       3471       3581       3582       3593       3592  
      3461       3462       3473       3472       3582       3583       3594       3593  
      3462       3463       3474       3473       3583       3584       3595       3594  
      3463       3464       3475       3474       3584       3585       3596       3595  
      3464       3465       3476       3475       3585       3586       3597       3596  
      3466       3467       3478       3477       3587       3588       3599       3598  
      3467       3468       3479       3478       3588       3589       3600       3599  
      3468       3469       3480       3479       3589       3590       3601       3600  
      3469       3470       3481       3480       3590       3591       3602       3601  
      3470       3471       3482       3481       3591       3592       3603       3602  
      3471       3472       3483       3482       3592       3593       3604       3603  
      3472       3473       3484       3483       3593       3594       3605       3604  
      3473       3474       3485       3484       3594       3595       3606       3605  
      3474       3475       3486       3485       3595       3596       3607       3606  
      3475       3476       3487       3486       3596       3597       3608       3607  
      3477       3478       3489       3488       3598       3599       3610       3609  
      3478       3479       3490       3489       3599       3600       3611       3610  
      3479       3480       3491       3490       3600       3601       3612       3611  
      3480       3481       3492       3491       3601       3602       3613       3612  
      3481       3482       3493       3492       3602       3603       3614       3613  
      3482       3483       3494       3493       3603       3604       3615       3614  
      3483       3484       3495       3494       3604       3605       3616       3615  
      3484       3485       3496       3495       3605       3606       3617       3616  
      3485       3486       3497       3496       3606       3607       3618       3617  
      3486       3487       3498       3497       3607       3608       3619       3618  
      3488       3489       3500       3499       3609       3610       3621       3620  
      3489       3490       3501       3500       3610       3611       3622       3621  
      3490       3491       3502       3501       3611       3612       3623       3622  
      3491       3492       3503       3502       3612       3613       3624       3623  
      3492       3493       3504       3503       3613       3614       3625       3624  
      3493       3494       3505       3504       3614       3615       3626       3625  
      3494       3495       3506       3505       3615       3616       3627       3626  
      3495       3496       3507       3506       3616       3617       3628       3627  
      3496       3497       3508       3507       3617       3618       3629       3628  
      3497       3498       3509       3508       3618       3619       3630       3629  
      3510       3511       3522       3521       3631       3632       3643       3642  
      3511       3512       3523       3522       3632       3633       3644       3643  
      3512       3513       3524       3523       3633       3634       3645       3644  
      3513       3514       3525       3524       3634       3635       3646       3645  
      3514       3515       3526       3525       3635       3636       3647       3646  
      3515       3516       3527       3526       3636       3637       3648       3647  
      3516       3517       3528       3527       3637       3638       3649       3648  
      3517       3518       3529       3528       3638       3639       3650       3649  
      3518       3519       3530       3529       3639       3640       3651       3650  
      3519       3520       3531       3530       3640       3641       3652       3651  
      3521       3522       3533       3532       3642       3643       3654       3653  
      3522       3523       3534       3533       3643       3644       3655       3654  
      3523       3524       3535       3534       3644       3645       3656       3655  
      3524       3525       3536       3535       3645       3646       3657       3656  
      3525       3526       3537       3536       3646       3647       3658       3657  
      3526       3527       3538       3537       3647       3648       3659       3658  
      3527       3528       3539       3538       3648       3649       3660       3659  
      3528       3529       3540       3539       3649       3650       3661       3660  
      3529       3530       3541       3540       3650       3651       3662       3661  
      3530       3531       3542       3541       3651       3652       3663       3662  
      3532       3533       3544       3543       3653       3654       3665       3664  
      3533       3534       3545       3544       3654       3655       3666       3665  
      3534       3535       3546       3545       3655       3656       3667       3666  
      3535       3536       3547       3546       3656       3657       3668       3667  
      3536       3537       3548       3547       3657       3658       3669       3668  
      3537       3538       3549       3548       3658       3659       3670       3669  
      3538       3539       3550       3549       3659       3660       3671       3670  
      3539       3540       3551       3550       3660       3661       3672       3671  
      3540       3541       3552       3551       3661       3662       3673       3672  
      3541       3542       3553       3552       3662       3663       3674       3673  
      3543       3544       3555       3554       3664       3665       3676       3675  
      3544       3545       3556       3555       3665       3666       3677       3676  
      3545       3546       3557       3556       3666       3667       3678       3677  
      3546       3547       3558       3557       3667       3668       3679       3678  
      3547       3548       3559       3558       3668       3669       3680       3679  
      3548       3549       3560       3559       3669       3670       3681       3680  
      3549       3550       3561       3560       3670       3671       3682       3681  
      3550       3551       3562       3561       3671       3672       3683       3682  
      3551       3552       3563       3562       3672       3673       3684       3683  
      3552       3553       3564       3563       3673       3674       3685       3684  
      3554       3555       3566       3565       3675       3676       3687       3686  
      3555       3556       3567       3566       3676       3677       3688       3687  
      3556       3557       3568       3567       3677       3678       3689       3688  
      3557       3558       3569       3568       3678       3679       3690       3689  
      3558       3559       3570       3569       3679       3680       3691       3690  
      3559       3560       3571       3570       3680       3681       3692       3691  
      3560       3561       3572       3571       3681       3682       3693       3692  
      3561       3562       3573       3572       3682       3683       3694       3693  
      3562       3563       3574       3573       3683       3684       3695       3694  
      3563       3564       3575       3574       3684       3685       3696       3695  
      3565       3566       3577       3576       3686       3687       3698       3697  
      3566       3567       3578       3577       3687       3688       3699       3698  
      3567       3568       3579       3578       3688       3689       3700       3699  
      3568       3569       3580       3579       3689       3690       3701       3700  
      3569       3570       3581       3580       3690       3691       3702       3701  
      3570       3571       3582       3581       3691       3692       3703       3702  
      3571       3572       3583       3582       3692       3693       3704       3703  
      3572       3573       3584       3583       3693       3694       3705       3704  
      3573       3574       3585       3584       3694       3695       3706       3705  
      3574       3575       3586       3585       3695       3696       3707       3706  
      3576       3577       3588       3587       3697       3698       3709       3708  
      3577       3578       3589       3588       3698       3699       3710       3709  
      3578       3579       3590       3589       3699       3700       3711       3710  
      3579       3580       3591       3590       3700       3701       3712       3711  
      3580       3581       3592       3591       3701       3702       3713       3712  
      3581       3582       3593       3592       3702       3703       3714       3713  
      3582       3583       3594       3593       3703       3704       3715       3714  
      3583       3584       3595       3594       3704       3705       3716       3715  
      3584       3585       3596       3595       3705       3706       3717       3716  
      3585       3586       3597       3596       3706       3707       3718       3717  
      3587       3588       3599       3598       3708       3709       3720       3719  
      3588       3589       3600       3599       3709       3710       3721       3720  
      3589       3590       3601       3600       3710       3711       3722       3721  
      3590       3591       3602       3601       3711       3712       3723       3722  
      3591       3592       3603       3602       3712       3713       3724       3723  
      3592       3593       3604       3603       3713       3714       3725       3724  
      3593       3594       3605       3604       3714       3715       3726       3725  
      3594       3595       3606       3605       3715       3716       3727       3726  
      3595       3596       3607       3606       3716       3717       3728       3727  
      3596       3597       3608       3607       3717       3718       3729       3728  
      3598       3599       3610       3609       3719       3720       3731       3730  
      3599       3600       3611       3610       3720       3721       3732       3731  
      3600       3601       3612       3611       3721       3722       3733       3732  
      3601       3602       3613       3612       3722       3723       3734       3733  
      3602       3603       3614       3613       3723       3724       3735       3734  
      3603       3604       3615       3614       3724       3725       3736       3735  
      3604       3605       3616       3615       3725       3726       3737       3736  
      3605       3606       3617       3616       3726       3727       3738       3737  
      3606       3607       3618       3617       3727       3728       3739       3738  
      3607       3608       3619       3618       3728       3729       3740       3739  
      3609       3610       3621       3620       3730       3731       3742       3741  
      3610       3611       3622       3621       3731       3732       3743       3742  
      3611       3612       3623       3622       3732       3733       3744       3743  
      3612       3613       3624       3623       3733       3734       3745       3744  
      3613       3614       3625       3624       3734       3735       3746       3745  
      3614       3615       3626       3625       3735       3736       3747       3746  
      3615       3616       3627       3626       3736       3737       3748       3747  
      3616       3617       3628       3627       3737       3738       3749       3748  
      3617       3618       3629       3628       3738       3739       3750       3749  
      3618       3619       3630       3629       3739       3740       3751       3750  
      3631       3632       3643       3642       3752       3753       3764       3763  
      3632       3633       3644       3643       3753       3754       3765       3764  
      3633       3634       3645       3644       3754       3755       3766       3765  
      3634       3635       3646       3645       3755       3756       3767       3766  
      3635       3636       3647       3646       3756       3757       3768       3767  
      3636       3637       3648       3647       3757       3758       3769       3768  
      3637       3638       3649       3648       3758       3759       3770       3769  
      3638       3639       3650       3649       3759       3760       3771       3770  
      3639       3640       3651       3650       3760       3761       3772       3771  
      3640       3641       3652       3651       3761       3762       3773       3772  
      3642       3643       3654       3653       3763       3764       3775       3774  
      3643       3644       3655       3654       3764       3765       3776       3775  
      3644       3645       3656       3655       3765       3766       3777       3776  
      3645       3646       3657       3656       3766       3767       3778       3777  
      3646       3647       3658       3657       3767       3768       3779       3778  
      3647       3648       3659       3658       3768       3769       3780       3779  
      3648       3649       3660       3659       3769       3770       3781       3780  
      3649       3650       3661       3660       3770       3771       3782       3781  
      3650       3651       3662       3661       3771       3772       3783       3782  
      3651       3652       3663       3662       3772       3773       3784       3783  
      3653       3654       3665       3664       3774       3775       3786       3785  
      3654       3655       3666       3665       3775       3776       3787       3786  
      3655       3656       3667       3666       3776       3777       3788       3787  
      3656       3657       3668       3667       3777       3778       3789       3788  
      3657       3658       3669       3668       3778       3779       3790       3789  
      3658       3659       3670       3669       3779       3780       3791       3790  
      3659       3660       3671       3670       3780       3781       3792       3791  
      3660       3661       3672       3671       3781       3782       3793       3792  
      3661       3662       3673       3672       3782       3783       3794       3793  
      3662       3663       3674       3673       3783       3784       3795       3794  
      3664       3665       3676       3675       3785       3786       3797       3796  
      3665       3666       3677       3676       3786       3787       3798       3797  
      3666       3667       3678       3677       3787       3788       3799       3798  
      3667       3668       3679       3678       3788       3789       3800       3799  
      3668       3669       3680       3679       3789       3790       3801       3800  
      3669       3670       3681       3680       3790       3791       3802       3801  
      3670       3671       3682       3681       3791       3792       3803       3802  
      3671       3672       3683       3682       3792       3793       3804       3803  
      3672       3673       3684       3683       3793       3794       3805       3804  
      3673       3674       3685       3684       3794       3795       3806       3805  
      3675       3676       3687       3686       3796       3797       3808       3807  
      3676       3677       3688       3687       3797       3798       3809       3808  
      3677       3678       3689       3688       3798       3799       3810       3809  
      3678       3679       3690       3689       3799       3800       3811       3810  
      3679       3680       3691       3690       3800       3801       3812       3811  
      3680       3681       3692       3691       3801       3802       3813       3812  
      3681       3682       3693       3692       3802       3803       3814       3813  
      3682       3683       3694       3693       3803       3804       3815       3814  
      3683       3684       3695       3694       3804       3805       3816       3815  
      3684       3685       3696       3695       3805       3806       3817       3816  
      3686       3687       3698       3697       3807       3808       3819       3818  
      3687       3688       3699       3698       3808       3809       3820       3819  
      3688       3689       3700       3699       3809       3810       3821       3820  
      3689       3690       3701       3700       3810       3811       3822       3821  
      3690       3691       3702       3701       3811       3812       3823       3822  
      3691       3692       3703       3702       3812       3813       3824       3823  
      3692       3693       3704       3703       3813       3814       3825       3824  
      3693       3694       3705       3704       3814       3815       3826       3825  
      3694       3695       3706       3705       3815       3816       3827       3826  
      3695       3696       3707       3706       3816       3817       3828       3827  
      3697       3698       3709       3708       3818       3819       3830       3829  
      3698       3699       3710       3709       3819       3820       3831       3830  
      3699       3700       3711       3710       3820       3821       3832       3831  
      3700       3701       3712       3711       3821       3822       3833       3832  
      3701       3702       3713       3712       3822       3823       3834       3833  
      3702       3703       3714       3713       3823       3824       3835       3834  
      3703       3704       3715       3714       3824       3825       3836       3835  
      3704       3705       3716       3715       3825       3826       3837       3836  
      3705       3706       3717       3716       3826       3827       3838       3837  
      3706       3707       3718       3717       3827       3828       3839       3838  
      3708       3709       3720       3719       3829       3830       3841       3840  
      3709       3710       3721       3720       3830       3831       3842       3841  
      3710       3711       3722       3721       3831       3832       3843       3842  
      3711       3712       3723       3722       3832       3833       3844       3843  
      3712       3713       3724       3723       3833       3834       3845       3844  
      3713       3714       3725       3724       3834       3835       3846       3845  
      3714       3715       3726       3725       3835       3836       3847       3846  
      3715       3716       3727       3726       3836       3837       3848       3847  
      3716       3717       3728       3727       3837       3838       3849       3848  
      3717       3718       3729       3728       3838       3839       3850       3849  
      3719       3720       3731       3730       3840       3841       3852       3851  
      3720       3721       3732       3731       3841       3842       3853       3852  
      3721       3722       3733       3732       3842       3843       3854       3853  
      3722       3723       3734       3733       3843       3844       3855       3854  
      3723       3724       3735       3734       3844       3845       3856       3855  
      3724       3725       3736       3735       3845       3846       3857       3856  
      3725       3726       3737       3736       3846       3847       3858       3857  
      3726       3727       3738       3737       3847       3848       3859       3858  
      3727       3728       3739       3738       3848       3849       3860       3859  
      3728       3729       3740       3739       3849       3850       3861       3860  
      3730       3731       3742       3741       3851       3852       3863       3862  
      3731       3732       3743       3742       3852       3853       3864       3863  
      3732       3733       3744       3743       3853       3854       3865       3864  
      3733       3734       3745       3744       3854       3855       3866       3865  
      3734       3735       3746       3745       3855       3856       3867       3866  
      3735       3736       3747       3746       3856       3857       3868       3867  
      3736       3737       3748       3747       3857       3858       3869       3868  
      3737       3738       3749       3748       3858       3859       3870       3869  
      3738       3739       3750       3749       3859       3860       3871       3870  
      3739       3740       3751       3750       3860       3861       3872       3871  
      3752       3753       3764       3763       3873       3874       3885       3884  
      3753       3754       3765       3764       3874       3875       3886       3885  
      3754       3755       3766       3765       3875       3876       3887       3886  
      3755       3756       3767       3766       3876       3877       3888       3887  
      3756       3757       3768       3767       3877       3878       3889       3888  
      3757       3758       3769       3768       3878       3879       3890       3889  
      3758       3759       3770       3769       3879       3880       3891       3890  
      3759       3760       3771       3770       3880       3881       3892       3891  
      3760       3761       3772       3771       3881       3882       3893       3892  
      3761       3762       3773       3772       3882       3883       3894       3893  
      3763       3764       3775       3774       3884       3885       3896       3895  
      3764       3765       3776       3775       3885       3886       3897       3896  
      3765       3766       3777       3776       3886       3887       3898       3897  
      3766       3767       3778       3777       3887       3888       3899       3898  
      3767       3768       3779       3778       3888       3889       3900       3899  
      3768       3769       3780       3779       3889       3890       3901       3900  
      3769       3770       3781       3780       3890       3891       3902       3901  
      3770       3771       3782       3781       3891       3892       3903       3902  
      3771       3772       3783       3782       3892       3893       3904       3903  
      3772       3773       3784       3783       3893       3894       3905       3904  
      3774       3775       3786       3785       3895       3896       3907       3906  
      3775       3776       3787       3786       3896       3897       3908       3907  
      3776       3777       3788       3787       3897       3898       3909       3908  
      3777       3778       3789       3788       3898       3899       3910       3909  
      3778       3779       3790       3789       3899       3900       3911       3910  
      3779       3780       3791       3790       3900       3901       3912       3911  
      3780       3781       3792       3791       3901       3902       3913       3912  
      3781       3782       3793       3792       3902       3903       3914       3913  
      3782       3783       3794       3793       3903       3904       3915       3914  
      3783       3784       3795       3794       3904       3905       3916       3915  
      3785       3786       3797       3796       3906       3907       3918       3917  
      3786       3787       3798       3797       3907       3908       3919       3918  
      3787       3788       3799       3798       3908       3909       3920       3919  
      3788       3789       3800       3799       3909       3910       3921       3920  
      3789       3790       3801       3800       3910       3911       3922       3921  
      3790       3791       3802       3801       3911       3912       3923       3922  
      3791       3792       3803       3802       3912       3913       3924       3923  
      3792       3793       3804       3803       3913       3914       3925       3924  
      3793       3794       3805       3804       3914       3915       3926       3925  
      3794       3795       3806       3805       3915       3916       3927       3926  
      3796       3797       3808       3807       3917       3918       3929       3928  
      3797       3798       3809       3808       3918       3919       3930       3929  
      3798       3799       3810       3809       3919       3920       3931       3930  
      3799       3800       3811       3810       3920       3921       3932       3931  
      3800       3801       3812       3811       3921       3922       3933       3932  
      3801       3802       3813       3812       3922       3923       3934       3933  
      3802       3803       3814       3813       3923       3924       3935       3934  
      3803       3804       3815       3814       3924       3925       3936       3935  
      3804       3805       3816       3815       3925       3926       3937       3936  
      3805       3806       3817       3816       3926       3927       3938       3937  
      3807       3808       3819       3818       3928       3929       3940       3939  
      3808       3809       3820       3819       3929       3930       3941       3940  
      3809       3810       3821       3820       3930       3931       3942       3941  
      3810       3811       3822       3821       3931       3932       3943       3942  
      3811       3812       3823       3822       3932       3933       3944       3943  
      3812       3813       3824       3823       3933       3934       3945       3944  
      3813       3814       3825       3824       3934       3935       3946       3945  
      3814       3815       3826       3825       3935       3936       3947       3946  
      3815       3816       3827       3826       3936       3937       3948       3947  
      3816       3817       3828       3827       3937       3938       3949       3948  
      3818       3819       3830       3829       3939       3940       3951       3950  
      3819       3820       3831       3830       3940       3941       3952       3951  
      3820       3821       3832       3831       3941       3942       3953       3952  
      3821       3822       3833       3832       3942       3943       3954       3953  
      3822       3823       3834       3833       3943       3944       3955       3954  
      3823       3824       3835       3834       3944       3945       3956       3955  
      3824       3825       3836       3835       3945       3946       3957       3956  
      3825       3826       3837       3836       3946       3947       3958       3957  
      3826       3827       3838       3837       3947       3948       3959       3958  
      3827       3828       3839       3838       3948       3949       3960       3959  
      3829       3830       3841       3840       3950       3951       3962       3961  
      3830       3831       3842       3841       3951       3952       3963       3962  
      3831       3832       3843       3842       3952       3953       3964       3963  
      3832       3833       3844       3843       3953       3954       3965       3964  
      3833       3834       3845       3844       3954       3955       3966       3965  
      3834       3835       3846       3845       3955       3956       3967       3966  
      3835       3836       3847       3846       3956       3957       3968       3967  
      3836       3837       3848       3847       3957       3958       3969       3968  
      3837       3838       3849       3848       3958       3959       3970       3969  
      3838       3839       3850       3849       3959       3960       3971       3970  
      3840       3841       3852       3851       3961       3962       3973       3972  
      3841       3842       3853       3852       3962       3963       3974       3973  
      3842       3843       3854       3853       3963       3964       3975       3974  
      3843       3844       3855       3854       3964       3965       3976       3975  
      3844       3845       3856       3855       3965       3966       3977       3976  
      3845       3846       3857       3856       3966       3967       3978       3977  
      3846       3847       3858       3857       3967       3968       3979       3978  
      3847       3848       3859       3858       3968       3969       3980       3979  
      3848       3849       3860       3859       3969       3970       3981       3980  
      3849       3850       3861       3860       3970       3971       3982       3981  
      3851       3852       3863       3862       3972       3973       3984       3983  
      3852       3853       3864       3863       3973       3974       3985       3984  
      3853       3854       3865       3864       3974       3975       3986       3985  
      3854       3855       3866       3865       3975       3976       3987       3986  
      3855       3856       3867       3866       3976       3977       3988       3987  
      3856       3857       3868       3867       3977       3978       3989       3988  
      3857       3858       3869       3868       3978       3979       3990       3989  
      3858       3859       3870       3869       3979       3980       3991       3990  
      3859       3860       3871       3870       3980       3981       3992       3991  
      3860       3861       3872       3871       3981       3982       3993       3992  
      3873       3874       3885       3884       3994       3995       4006       4005  
      3874       3875       3886       3885       3995       3996       4007       4006  
      3875       3876       3887       3886       3996       3997       4008       4007  
      3876       3877       3888       3887       3997       3998       4009       4008  
      3877       3878       3889       3888       3998       3999       4010       4009  
      3878       3879       3890       3889       3999       4000       4011       4010  
      3879       3880       3891       3890       4000       4001       4012       4011  
      3880       3881       3892       3891       4001       4002       4013       4012  
      3881       3882       3893       3892       4002       4003       4014       4013  
      3882       3883       3894       3893       4003       4004       4015       4014  
      3884       3885       3896       3895       4005       4006       4017       4016  
      3885       3886       3897       3896       4006       4007       4018       4017  
      3886       3887       3898       3897       4007       4008       4019       4018  
      3887       3888       3899       3898       4008       4009       4020       4019  
      3888       3889       3900       3899       4009       4010       4021       4020  
      3889       3890       3901       3900       4010       4011       4022       4021  
      3890       3891       3902       3901       4011       4012       4023       4022  
      3891       3892       3903       3902       4012       4013       4024       4023  
      3892       3893       3904       3903       4013       4014       4025       4024  
      3893       3894       3905       3904       4014       4015       4026       4025  
      3895       3896       3907       3906       4016       4017       4028       4027  
      3896       3897       3908       3907       4017       4018       4029       4028  
      3897       3898       3909       3908       4018       4019       4030       4029  
      3898       3899       3910       3909       4019       4020       4031       4030  
      3899       3900       3911       3910       4020       4021       4032       4031  
      3900       3901       3912       3911       4021       4022       4033       4032  
      3901       3902       3913       3912       4022       4023       4034       4033  
      3902       3903       3914       3913       4023       4024       4035       4034  
      3903       3904       3915       3914       4024       4025       4036       4035  
      3904       3905       3916       3915       4025       4026       4037       4036  
      3906       3907       3918       3917       4027       4028       4039       4038  
      3907       3908       3919       3918       4028       4029       4040       4039  
      3908       3909       3920       3919       4029       4030       4041       4040  
      3909       3910       3921       3920       4030       4031       4042       4041  
      3910       3911       3922       3921       4031       4032       4043       4042  
      3911       3912       3923       3922       4032       4033       4044       4043  
      3912       3913       3924       3923       4033       4034       4045       4044  
      3913       3914       3925       3924       4034       4035       4046       4045  
      3914       3915       3926       3925       4035       4036       4047       4046  
      3915       3916       3927       3926       4036       4037       4048       4047  
      3917       3918       3929       3928       4038       4039       4050       4049  
      3918       3919       3930       3929       4039       4040       4051       4050  
      3919       3920       3931       3930       4040       4041       4052       4051  
      3920       3921       3932       3931       4041       4042       4053       4052  
      3921       3922       3933       3932       4042       4043       4054       4053  
      3922       3923       3934       3933       4043       4044       4055       4054  
      3923       3924       3935       3934       4044       4045       4056       4055  
      3924       3925       3936       3935       4045       4046       4057       4056  
      3925       3926       3937       3936       4046       4047       4058       4057  
      3926       3927       3938       3937       4047       4048       4059       4058  
      3928       3929       3940       3939       4049       4050       4061       4060  
      3929       3930       3941       3940       4050       4051       4062       4061  
      3930       3931       3942       3941       4051       4052       4063       4062  
      3931       3932       3943       3942       4052       4053       4064       4063  
      3932       3933       3944       3943       4053       4054       4065       4064  
      3933       3934       3945       3944       4054       4055       4066       4065  
      3934       3935       3946       3945       4055       4056       4067       4066  
      3935       3936       3947       3946       4056       4057       4068       4067  
      3936       3937       3948       3947       4057       4058       4069       4068  
      3937       3938       3949       3948       4058       4059       4070       4069  
      3939       3940       3951       3950       4060       4061       4072       4071  
      3940       3941       3952       3951       4061       4062       4073       4072  
      3941       3942       3953       3952       4062       4063       4074       4073  
      3942       3943       3954       3953       4063       4064       4075       4074  
      3943       3944       3955       3954       4064       4065       4076       4075  
      3944       3945       3956       3955       4065       4066       4077       4076  
      3945       3946       3957       3956       4066       4067       4078       4077  
      3946       3947       3958       3957       4067       4068       4079       4078  
      3947       3948       3959       3958       4068       4069       4080       4079  
      3948       3949       3960       3959       4069       4070       4081       4080  
      3950       3951       3962       3961       4071       4072       4083       4082  
      3951       3952       3963       3962       4072       4073       4084       4083  
      3952       3953       3964       3963       4073       4074       4085       4084  
      3953       3954       3965       3964       4074       4075       4086       4085  
      3954       3955       3966       3965       4075       4076       4087       4086  
      3955       3956       3967       3966       4076       4077       4088       4087  
      3956       3957       3968       3967       4077       4078       4089       4088  
      3957       3958       3969       3968       4078       4079       4090       4089  
      3958       3959       3970       3969       4079       4080       4091       4090  
      3959       3960       3971       3970       4080       4081       4092       4091  
      3961       3962       3973       3972       4082       4083       4094       4093  
      3962       3963       3974       3973       4083       4084       4095       4094  
      3963       3964       3975       3974       4084       4085       4096       4095  
      3964       3965       3976       3975       4085       4086       4097       4096  
      3965       3966       3977       3976       4086       4087       4098       4097  
      3966       3967       3978       3977       4087       4088       4099       4098  
      3967       3968       3979       3978       4088       4089       4100       4099  
      3968       3969       3980       3979       4089       4090       4101       4100  
      3969       3970       3981       3980       4090       4091       4102       4101  
      3970       3971       3982       3981       4091       4092       4103       4102  
      3972       3973       3984       3983       4093       4094       4105       4104  
      3973       3974       3985       3984       4094       4095       4106       4105  
      3974       3975       3986       3985       4095       4096       4107       4106  
      3975       3976       3987       3986       4096       4097       4108       4107  
      3976       3977       3988       3987       4097       4098       4109       4108  
      3977       3978       3989       3988       4098       4099       4110       4109  
      3978       3979       3990       3989       4099       4100       4111       4110  
      3979       3980       3991       3990       4100       4101       4112       4111  
      3980       3981       3992       3991       4101       4102       4113       4112  
      3981       3982       3993       3992       4102       4103       4114       4113  
      3994       3995       4006       4005       4115       4116       4127       4126  
      3995       3996       4007       4006       4116       4117       4128       4127  
      3996       3997       4008       4007       4117       4118       4129       4128  
      3997       3998       4009       4008       4118       4119       4130       4129  
      3998       3999       4010       4009       4119       4120       4131       4130  
      3999       4000       4011       4010       4120       4121       4132       4131  
      4000       4001       4012       4011       4121       4122       4133       4132  
      4001       4002       4013       4012       4122       4123       4134       4133  
      4002       4003       4014       4013       4123       4124       4135       4134  
      4003       4004       4015       4014       4124       4125       4136       4135  
      4005       4006       4017       4016       4126       4127       4138       4137  
      4006       4007       4018       4017       4127       4128       4139       4138  
      4007       4008       4019       4018       4128       4129       4140       4139  
      4008       4009       4020       4019       4129       4130       4141       4140  
      4009       4010       4021       4020       4130       4131       4142       4141  
      4010       4011       4022       4021       4131       4132       4143       4142  
      4011       4012       4023       4022       4132       4133       4144       4143  
      4012       4013       4024       4023       4133       4134       4145       4144  
      4013       4014       4025       4024       4134       4135       4146       4145  
      4014       4015       4026       4025       4135       4136       4147       4146  
      4016       4017       4028       4027       4137       4138       4149       4148  
      4017       4018       4029       4028       4138       4139       4150       4149  
      4018       4019       4030       4029       4139       4140       4151       4150  
      4019       4020       4031       4030       4140       4141       4152       4151  
      4020       4021       4032       4031       4141       4142       4153       4152  
      4021       4022       4033       4032       4142       4143       4154       4153  
      4022       4023       4034       4033       4143       4144       4155       4154  
      4023       4024       4035       4034       4144       4145       4156       4155  
      4024       4025       4036       4035       4145       4146       4157       4156  
      4025       4026       4037       4036       4146       4147       4158       4157  
      4027       4028       4039       4038       4148       4149       4160       4159  
      4028       4029       4040       4039       4149       4150       4161       4160  
      4029       4030       4041       4040       4150       4151       4162       4161  
      4030       4031       4042       4041       4151       4152       4163       4162  
      4031       4032       4043       4042       4152       4153       4164       4163  
      4032       4033       4044       4043       4153       4154       4165       4164  
      4033       4034       4045       4044       4154       4155       4166       4165  
      4034       4035       4046       4045       4155       4156       4167       4166  
      4035       4036       4047       4046       4156       4157       4168       4167  
      4036       4037       4048       4047       4157       4158       4169       4168  
      4038       4039       4050       4049       4159       4160       4171       4170  
      4039       4040       4051       4050       4160       4161       4172       4171  
      4040       4041       4052       4051       4161       4162       4173       4172  
      4041       4042       4053       4052       4162       4163       4174       4173  
      4042       4043       4054       4053       4163       4164       4175       4174  
      4043       4044       4055       4054       4164       4165       4176       4175  
      4044       4045       4056       4055       4165       4166       4177       4176  
      4045       4046       4057       4056       4166       4167       4178       4177  
      4046       4047       4058       4057       4167       4168       4179       4178  
      4047       4048       4059       4058       4168       4169       4180       4179  
      4049       4050       4061       4060       4170       4171       4182       4181  
      4050       4051       4062       4061       4171       4172       4183       4182  
      4051       4052       4063       4062       4172       4173       4184       4183  
      4052       4053       4064       4063       4173       4174       4185       4184  
      4053       4054       4065       4064       4174       4175       4186       4185  
      4054       4055       4066       4065       4175       4176       4187       4186  
      4055       4056       4067       4066       4176       4177       4188       4187  
      4056       4057       4068       4067       4177       4178       4189       4188  
      4057       4058       4069       4068       4178       4179       4190       4189  
      4058       4059       4070       4069       4179       4180       4191       4190  
      4060       4061       4072       4071       4181       4182       4193       4192  
      4061       4062       4073       4072       4182       4183       4194       4193  
      4062       4063       4074       4073       4183       4184       4195       4194  
      4063       4064       4075       4074       4184       4185       4196       4195  
      4064       4065       4076       4075       4185       4186       4197       4196  
      4065       4066       4077       4076       4186       4187       4198       4197  
      4066       4067       4078       4077       4187       4188       4199       4198  
      4067       4068       4079       4078       4188       4189       4200       4199  
      4068       4069       4080       4079       4189       4190       4201       4200  
      4069       4070       4081       4080       4190       4191       4202       4201  
      4071       4072       4083       4082       4192       4193       4204       4203  
      4072       4073       4084       4083       4193       4194       4205       4204  
      4073       4074       4085       4084       4194       4195       4206       4205  
      4074       4075       4086       4085       4195       4196       4207       4206  
      4075       4076       4087       4086       4196       4197       4208       4207  
      4076       4077       4088       4087       4197       4198       4209       4208  
      4077       4078       4089       4088       4198       4199       4210       4209  
      4078       4079       4090       4089       4199       4200       4211       4210  
      4079       4080       4091       4090       4200       4201       4212       4211  
      4080       4081       4092       4091       4201       4202       4213       4212  
      4082       4083       4094       4093       4203       4204       4215       4214  
      4083       4084       4095       4094       4204       4205       4216       4215  
      4084       4085       4096       4095       4205       4206       4217       4216  
      4085       4086       4097       4096       4206       4207       4218       4217  
      4086       4087       4098       4097       4207       4208       4219       4218  
      4087       4088       4099       4098       4208       4209       4220       4219  
      4088       4089       4100       4099       4209       4210       4221       4220  
      4089       4090       4101       4100       4210       4211       4222       4221  
      4090       4091       4102       4101       4211       4212       4223       4222  
      4091       4092       4103       4102       4212       4213       4224       4223  
      4093       4094       4105       4104       4214       4215       4226       4225  
      4094       4095       4106       4105       4215       4216       4227       4226  
      4095       4096       4107       4106       4216       4217       4228       4227  
      4096       4097       4108       4107       4217       4218       4229       4228  
      4097       4098       4109       4108       4218       4219       4230       4229  
      4098       4099       4110       4109       4219       4220       4231       4230  
      4099       4100       4111       4110       4220       4221       4232       4231  
      4100       4101       4112       4111       4221       4222       4233       4232  
      4101       4102       4113       4112       4222       4223       4234       4233  
      4102       4103       4114       4113       4223       4224       4235       4234  
      4115       4116       4127       4126       4236       4237       4248       4247  
      4116       4117       4128       4127       4237       4238       4249       4248  
      4117       4118       4129       4128       4238       4239       4250       4249  
      4118       4119       4130       4129       4239       4240       4251       4250  
      4119       4120       4131       4130       4240       4241       4252       4251  
      4120       4121       4132       4131       4241       4242       4253       4252  
      4121       4122       4133       4132       4242       4243       4254       4253  
      4122       4123       4134       4133       4243       4244       4255       4254  
      4123       4124       4135       4134       4244       4245       4256       4255  
      4124       4125       4136       4135       4245       4246       4257       4256  
      4126       4127       4138       4137       4247       4248       4259       4258  
      4127       4128       4139       4138       4248       4249       4260       4259  
      4128       4129       4140       4139       4249       4250       4261       4260  
      4129       4130       4141       4140       4250       4251       4262       4261  
      4130       4131       4142       4141       4251       4252       4263       4262  
      4131       4132       4143       4142       4252       4253       4264       4263  
      4132       4133       4144       4143       4253       4254       4265       4264  
      4133       4134       4145       4144       4254       4255       4266       4265  
      4134       4135       4146       4145       4255       4256       4267       4266  
      4135       4136       4147       4146       4256       4257       4268       4267  
      4137       4138       4149       4148       4258       4259       4270       4269  
      4138       4139       4150       4149       4259       4260       4271       4270  
      4139       4140       4151       4150       4260       4261       4272       4271  
      4140       4141       4152       4151       4261       4262       4273       4272  
      4141       4142       4153       4152       4262       4263       4274       4273  
      4142       4143       4154       4153       4263       4264       4275       4274  
      4143       4144       4155       4154       4264       4265       4276       4275  
      4144       4145       4156       4155       4265       4266       4277       4276  
      4145       4146       4157       4156       4266       4267       4278       4277  
      4146       4147       4158       4157       4267       4268       4279       4278  
      4148       4149       4160       4159       4269       4270       4281       4280  
      4149       4150       4161       4160       4270       4271       4282       4281  
      4150       4151       4162       4161       4271       4272       4283       4282  
      4151       4152       4163       4162       4272       4273       4284       4283  
      4152       4153       4164       4163       4273       4274       4285       4284  
      4153       4154       4165       4164       4274       4275       4286       4285  
      4154       4155       4166       4165       4275       4276       4287       4286  
      4155       4156       4167       4166       4276       4277       4288       4287  
      4156       4157       4168       4167       4277       4278       4289       4288  
      4157       4158       4169       4168       4278       4279       4290       4289  
      4159       4160       4171       4170       4280       4281       4292       4291  
      4160       4161       4172       4171       4281       4282       4293       4292  
      4161       4162       4173       4172       4282       4283       4294       4293  
      4162       4163       4174       4173       4283       4284       4295       4294  
      4163       4164       4175       4174       4284       4285       4296       4295  
      4164       4165       4176       4175       4285       4286       4297       4296  
      4165       4166       4177       4176       4286       4287       4298       4297  
      4166       4167       4178       4177       4287       4288       4299       4298  
      4167       4168       4179       4178       4288       4289       4300       4299  
      4168       4169       4180       4179       4289       4290       4301       4300  
      4170       4171       4182       4181       4291       4292       4303       4302  
      4171       4172       4183       4182       4292       4293       4304       4303  
      4172       4173       4184       4183       4293       4294       4305       4304  
      4173       4174       4185       4184       4294       4295       4306       4305  
      4174       4175       4186       4185       4295       4296       4307       4306  
      4175       4176       4187       4186       4296       4297       4308       4307  
      4176       4177       4188       4187       4297       4298       4309       4308  
      4177       4178       4189       4188       4298       4299       4310       4309  
      4178       4179       4190       4189       4299       4300       4311       4310  
      4179       4180       4191       4190       4300       4301       4312       4311  
      4181       4182       4193       4192       4302       4303       4314       4313  
      4182       4183       4194       4193       4303       4304       4315       4314  
      4183       4184       4195       4194       4304       4305       4316       4315  
      4184       4185       4196       4195       4305       4306       4317       4316  
      4185       4186       4197       4196       4306       4307       4318       4317  
      4186       4187       4198       4197       4307       4308       4319       4318  
      4187       4188       4199       4198       4308       4309       4320       4319  
      4188       4189       4200       4199       4309       4310       4321       4320  
      4189       4190       4201       4200       4310       4311       4322       4321  
      4190       4191       4202       4201       4311       4312       4323       4322  
      4192       4193       4204       4203       4313       4314       4325       4324  
      4193       4194       4205       4204       4314       4315       4326       4325  
      4194       4195       4206       4205       4315       4316       4327       4326  
      4195       4196       4207       4206       4316       4317       4328       4327  
      4196       4197       4208       4207       4317       4318       4329       4328  
      4197       4198       4209       4208       4318       4319       4330       4329  
      4198       4199       4210       4209       4319       4320       4331       4330  
      4199       4200       4211       4210       4320       4321       4332       4331  
      4200       4201       4212       4211       4321       4322       4333       4332  
      4201       4202       4213       4212       4322       4323       4334       4333  
      4203       4204       4215       4214       4324       4325       4336       4335  
      4204       4205       4216       4215       4325       4326       4337       4336  
      4205       4206       4217       4216       4326       4327       4338       4337  
      4206       4207       4218       4217       4327       4328       4339       4338  
      4207       4208       4219       4218       4328       4329       4340       4339  
      4208       4209       4220       4219       4329       4330       4341       4340  
      4209       4210       4221       4220       4330       4331       4342       4341  
      4210       4211       4222       4221       4331       4332       4343       4342  
      4211       4212       4223       4222       4332       4333       4344       4343  
      4212       4213       4224       4223       4333       4334       4345       4344  
      4214       4215       4226       4225       4335       4336       4347       4346  
      4215       4216       4227       4226       4336       4337       4348       4347  
      4216       4217       4228       4227       4337       4338       4349       4348  
      4217       4218       4229       4228       4338       4339       4350       4349  
      4218       4219       4230       4229       4339       4340       4351       4350  
      4219       4220       4231       4230       4340       4341       4352       4351  
      4220       4221       4232       4231       4341       4342       4353       4352  
      4221       4222       4233       4232       4342       4343       4354       4353  
      4222       4223       4234       4233       4343       4344       4355       4354  
      4223       4224       4235       4234       4344       4345       4356       4355  
      4236       4237       4248       4247       4357       4358       4369       4368  
      4237       4238       4249       4248       4358       4359       4370       4369  
      4238       4239       4250       4249       4359       4360       4371       4370  
      4239       4240       4251       4250       4360       4361       4372       4371  
      4240       4241       4252       4251       4361       4362       4373       4372  
      4241       4242       4253       4252       4362       4363       4374       4373  
      4242       4243       4254       4253       4363       4364       4375       4374  
      4243       4244       4255       4254       4364       4365       4376       4375  
      4244       4245       4256       4255       4365       4366       4377       4376  
      4245       4246       4257       4256       4366       4367       4378       4377  
      4247       4248       4259       4258       4368       4369       4380       4379  
      4248       4249       4260       4259       4369       4370       4381       4380  
      4249       4250       4261       4260       4370       4371       4382       4381  
      4250       4251       4262       4261       4371       4372       4383       4382  
      4251       4252       4263       4262       4372       4373       4384       4383  
      4252       4253       4264       4263       4373       4374       4385       4384  
      4253       4254       4265       4264       4374       4375       4386       4385  
      4254       4255       4266       4265       4375       4376       4387       4386  
      4255       4256       4267       4266       4376       4377       4388       4387  
      4256       4257       4268       4267       4377       4378       4389       4388  
      4258       4259       4270       4269       4379       4380       4391       4390  
      4259       4260       4271       4270       4380       4381       4392       4391  
      4260       4261       4272       4271       4381       4382       4393       4392  
      4261       4262       4273       4272       4382       4383       4394       4393  
      4262       4263       4274       4273       4383       4384       4395       4394  
      4263       4264       4275       4274       4384       4385       4396       4395  
      4264       4265       4276       4275       4385       4386       4397       4396  
      4265       4266       4277       4276       4386       4387       4398       4397  
      4266       4267       4278       4277       4387       4388       4399       4398  
      4267       4268       4279       4278       4388       4389       4400       4399  
      4269       4270       4281       4280       4390       4391       4402       4401  
      4270       4271       4282       4281       4391       4392       4403       4402  
      4271       4272       4283       4282       4392       4393       4404       4403  
      4272       4273       4284       4283       4393       4394       4405       4404  
      4273       4274       4285       4284       4394       4395       4406       4405  
      4274       4275       4286       4285       4395       4396       4407       4406  
      4275       4276       4287       4286       4396       4397       4408       4407  
      4276       4277       4288       4287       4397       4398       4409       4408  
      4277       4278       4289       4288       4398       4399       4410       4409  
      4278       4279       4290       4289       4399       4400       4411       4410  
      4280       4281       4292       4291       4401       4402       4413       4412  
      4281       4282       4293       4292       4402       4403       4414       4413  
      4282       4283       4294       4293       4403       4404       4415       4414  
      4283       4284       4295       4294       4404       4405       4416       4415  
      4284       4285       4296       4295       4405       4406       4417       4416  
      4285       4286       4297       4296       4406       4407       4418       4417  
      4286       4287       4298       4297       4407       4408       4419       4418  
      4287       4288       4299       4298       4408       4409       4420       4419  
      4288       4289       4300       4299       4409       4410       4421       4420  
      4289       4290       4301       4300       4410       4411       4422       4421  
      4291       4292       4303       4302       4412       4413       4424       4423  
      4292       4293       4304       4303       4413       4414       4425       4424  
      4293       4294       4305       4304       4414       4415       4426       4425  
      4294       4295       4306       4305       4415       4416       4427       4426  
      4295       4296       4307       4306       4416       4417       4428       4427  
      4296       4297       4308       4307       4417       4418       4429       4428  
      4297       4298       4309       4308       4418       4419       4430       4429  
      4298       4299       4310       4309       4419       4420       4431       4430  
      4299       4300       4311       4310       4420       4421       4432       4431  
      4300       4301       4312       4311       4421       4422       4433       4432  
      4302       4303       4314       4313       4423       4424       4435       4434  
      4303       4304       4315       4314       4424       4425       4436       4435  
      4304       4305       4316       4315       4425       4426       4437       4436  
      4305       4306       4317       4316       4426       4427       4438       4437  
      4306       4307       4318       4317       4427       4428       4439       4438  
      4307       4308       4319       4318       4428       4429       4440       4439  
      4308       4309       4320       4319       4429       4430       4441       4440  
      4309       4310       4321       4320       4430       4431       4442       4441  
      4310       4311       4322       4321       4431       4432       4443       4442  
      4311       4312       4323       4322       4432       4433       4444       4443  
      4313       4314       4325       4324       4434       4435       4446       4445  
      4314       4315       4326       4325       4435       4436       4447       4446  
      4315       4316       4327       4326       4436       4437       4448       4447  
      4316       4317       4328       4327       4437       4438       4449       4448  
      4317       4318       4329       4328       4438       4439       4450       4449  
      4318       4319       4330       4329       4439       4440       4451       4450  
      4319       4320       4331       4330       4440       4441       4452       4451  
      4320       4321       4332       4331       4441       4442       4453       4452  
      4321       4322       4333       4332       4442       4443       4454       4453  
      4322       4323       4334       4333       4443       4444       4455       4454  
      4324       4325       4336       4335       4445       4446       4457       4456  
      4325       4326       4337       4336       4446       4447       4458       4457  
      4326       4327       4338       4337       4447       4448       4459       4458  
      4327       4328       4339       4338       4448       4449       4460       4459  
      4328       4329       4340       4339       4449       4450       4461       4460  
      4329       4330       4341       4340       4450       4451       4462       4461  
      4330       4331       4342       4341       4451       4452       4463       4462  
      4331       4332       4343       4342       4452       4453       4464       4463  
      4332       4333       4344       4343       4453       4454       4465       4464  
      4333       4334       4345       4344       4454       4455       4466       4465  
      4335       4336       4347       4346       4456       4457       4468       4467  
      4336       4337       4348       4347       4457       4458       4469       4468  
      4337       4338       4349       4348       4458       4459       4470       4469  
      4338       4339       4350       4349       4459       4460       4471       4470  
      4339       4340       4351       4350       4460       4461       4472       4471  
      4340       4341       4352       4351       4461       4462       4473       4472  
      4341       4342       4353       4352       4462       4463       4474       4473  
      4342       4343       4354       4353       4463       4464       4475       4474  
      4343       4344       4355       4354       4464       4465       4476       4475  
      4344       4345       4356       4355       4465       4466       4477       4476  
      4357       4358       4369       4368       4478       4479       4490       4489  
      4358       4359       4370       4369       4479       4480       4491       4490  
      4359       4360       4371       4370       4480       4481       4492       4491  
      4360       4361       4372       4371       4481       4482       4493       4492  
      4361       4362       4373       4372       4482       4483       4494       4493  
      4362       4363       4374       4373       4483       4484       4495       4494  
      4363       4364       4375       4374       4484       4485       4496       4495  
      4364       4365       4376       4375       4485       4486       4497       4496  
      4365       4366       4377       4376       4486       4487       4498       4497  
      4366       4367       4378       4377       4487       4488       4499       4498  
      4368       4369       4380       4379       4489       4490       4501       4500  
      4369       4370       4381       4380       4490       4491       4502       4501  
      4370       4371       4382       4381       4491       4492       4503       4502  
      4371       4372       4383       4382       4492       4493       4504       4503  
      4372       4373       4384       4383       4493       4494       4505       4504  
      4373       4374       4385       4384       4494       4495       4506       4505  
      4374       4375       4386       4385       4495       4496       4507       4506  
      4375       4376       4387       4386       4496       4497       4508       4507  
      4376       4377       4388       4387       4497       4498       4509       4508  
      4377       4378       4389       4388       4498       4499       4510       4509  
      4379       4380       4391       4390       4500       4501       4512       4511  
      4380       4381       4392       4391       4501       4502       4513       4512  
      4381       4382       4393       4392       4502       4503       4514       4513  
      4382       4383       4394       4393       4503       4504       4515       4514  
      4383       4384       4395       4394       4504       4505       4516       4515  
      4384       4385       4396       4395       4505       4506       4517       4516  
      4385       4386       4397       4396       4506       4507       4518       4517  
      4386       4387       4398       4397       4507       4508       4519       4518  
      4387       4388       4399       4398       4508       4509       4520       4519  
      4388       4389       4400       4399       4509       4510       4521       4520  
      4390       4391       4402       4401       4511       4512       4523       4522  
      4391       4392       4403       4402       4512       4513       4524       4523  
      4392       4393       4404       4403       4513       4514       4525       4524  
      4393       4394       4405       4404       4514       4515       4526       4525  
      4394       4395       4406       4405       4515       4516       4527       4526  
      4395       4396       4407       4406       4516       4517       4528       4527  
      4396       4397       4408       4407       4517       4518       4529       4528  
      4397       4398       4409       4408       4518       4519       4530       4529  
      4398       4399       4410       4409       4519       4520       4531       4530  
      4399       4400       4411       4410       4520       4521       4532       4531  
      4401       4402       4413       4412       4522       4523       4534       4533  
      4402       4403       4414       4413       4523       4524       4535       4534  
      4403       4404       4415       4414       4524       4525       4536       4535  
      4404       4405       4416       4415       4525       4526       4537       4536  
      4405       4406       4417       4416       4526       4527       4538       4537  
      4406       4407       4418       4417       4527       4528       4539       4538  
      4407       4408       4419       4418       4528       4529       4540       4539  
      4408       4409       4420       4419       4529       4530       4541       4540  
      4409       4410       4421       4420       4530       4531       4542       4541  
      4410       4411       4422       4421       4531       4532       4543       4542  
      4412       4413       4424       4423       4533       4534       4545       4544  
      4413       4414       4425       4424       4534       4535       4546       4545  
      4414       4415       4426       4425       4535       4536       4547       4546  
      4415       4416       4427       4426       4536       4537       4548       4547  
      4416       4417       4428       4427       4537       4538       4549       4548  
      4417       4418       4429       4428       4538       4539       4550       4549  
      4418       4419       4430       4429       4539       4540       4551       4550  
      4419       4420       4431       4430       4540       4541       4552       4551  
      4420       4421       4432       4431       4541       4542       4553       4552  
      4421       4422       4433       4432       4542       4543       4554       4553  
      4423       4424       4435       4434       4544       4545       4556       4555  
      4424       4425       4436       4435       4545       4546       4557       4556  
      4425       4426       4437       4436       4546       4547       4558       4557  
      4426       4427       4438       4437       4547       4548       4559       4558  
      4427       4428       4439       4438       4548       4549       4560       4559  
      4428       4429       4440       4439       4549       4550       4561       4560  
      4429       4430       4441       4440       4550       4551       4562       4561  
      4430       4431       4442       4441       4551       4552       4563       4562  
      4431       4432       4443       4442       4552       4553       4564       4563  
      4432       4433       4444       4443       4553       4554       4565       4564  
      4434       4435       4446       4445       4555       4556       4567       4566  
      4435       4436       4447       4446       4556       4557       4568       4567  
      4436       4437       4448       4447       4557       4558       4569       4568  
      4437       4438       4449       4448       4558       4559       4570       4569  
      4438       4439       4450       4449       4559       4560       4571       4570  
      4439       4440       4451       4450       4560       4561       4572       4571  
      4440       4441       4452       4451       4561       4562       4573       4572  
      4441       4442       4453       4452       4562       4563       4574       4573  
      4442       4443       4454       4453       4563       4564       4575       4574  
      4443       4444       4455       4454       4564       4565       4576       4575  
      4445       4446       4457       4456       4566       4567       4578       4577  
      4446       4447       4458       4457       4567       4568       4579       4578  
      4447       4448       4459       4458       4568       4569       4580       4579  
      4448       4449       4460       4459       4569       4570       4581       4580  
      4449       4450       4461       4460       4570       4571       4582       4581  
      4450       4451       4462       4461       4571       4572       4583       4582  
      4451       4452       4463       4462       4572       4573       4584       4583  
      4452       4453       4464       4463       4573       4574       4585       4584  
      4453       4454       4465       4464       4574       4575       4586       4585  
      4454       4455       4466       4465       4575       4576       4587       4586  
      4456       4457       4468       4467       4577       4578       4589       4588  
      4457       4458       4469       4468       4578       4579       4590       4589  
      4458       4459       4470       4469       4579       4580       4591       4590  
      4459       4460       4471       4470       4580       4581       4592       4591  
      4460       4461       4472       4471       4581       4582       4593       4592  
      4461       4462       4473       4472       4582       4583       4594       4593  
      4462       4463       4474       4473       4583       4584       4595       4594  
      4463       4464       4475       4474       4584       4585       4596       4595  
      4464       4465       4476       4475       4585       4586       4597       4596  
      4465       4466       4477       4476       4586       4587       4598       4597  
      4478       4479       4490       4489       4599       4600       4611       4610  
      4479       4480       4491       4490       4600       4601       4612       4611  
      4480       4481       4492       4491       4601       4602       4613       4612  
      4481       4482       4493       4492       4602       4603       4614       4613  
      4482       4483       4494       4493       4603       4604       4615       4614  
      4483       4484       4495       4494       4604       4605       4616       4615  
      4484       4485       4496       4495       4605       4606       4617       4616  
      4485       4486       4497       4496       4606       4607       4618       4617  
      4486       4487       4498       4497       4607       4608       4619       4618  
      4487       4488       4499       4498       4608       4609       4620       4619  
      4489       4490       4501       4500       4610       4611       4622       4621  
      4490       4491       4502       4501       4611       4612       4623       4622  
      4491       4492       4503       4502       4612       4613       4624       4623  
      4492       4493       4504       4503       4613       4614       4625       4624  
      4493       4494       4505       4504       4614       4615       4626       4625  
      4494       4495       4506       4505       4615       4616       4627       4626  
      4495       4496       4507       4506       4616       4617       4628       4627  
      4496       4497       4508       4507       4617       4618       4629       4628  
      4497       4498       4509       4508       4618       4619       4630       4629  
      4498       4499       4510       4509       4619       4620       4631       4630  
      4500       4501       4512       4511       4621       4622       4633       4632  
      4501       4502       4513       4512       4622       4623       4634       4633  
      4502       4503       4514       4513       4623       4624       4635       4634  
      4503       4504       4515       4514       4624       4625       4636       4635  
      4504       4505       4516       4515       4625       4626       4637       4636  
      4505       4506       4517       4516       4626       4627       4638       4637  
      4506       4507       4518       4517       4627       4628       4639       4638  
      4507       4508       4519       4518       4628       4629       4640       4639  
      4508       4509       4520       4519       4629       4630       4641       4640  
      4509       4510       4521       4520       4630       4631       4642       4641  
      4511       4512       4523       4522       4632       4633       4644       4643  
      4512       4513       4524       4523       4633       4634       4645       4644  
      4513       4514       4525       4524       4634       4635       4646       4645  
      4514       4515       4526       4525       4635       4636       4647       4646  
      4515       4516       4527       4526       4636       4637       4648       4647  
      4516       4517       4528       4527       4637       4638       4649       4648  
      4517       4518       4529       4528       4638       4639       4650       4649  
      4518       4519       4530       4529       4639       4640       4651       4650  
      4519       4520       4531       4530       4640       4641       4652       4651  
      4520       4521       4532       4531       4641       4642       4653       4652  
      4522       4523       4534       4533       4643       4644       4655       4654  
      4523       4524       4535       4534       4644       4645       4656       4655  
      4524       4525       4536       4535       4645       4646       4657       4656  
      4525       4526       4537       4536       4646       4647       4658       4657  
      4526       4527       4538       4537       4647       4648       4659       4658  
      4527       4528       4539       4538       4648       4649       4660       4659  
      4528       4529       4540       4539       4649       4650       4661       4660  
      4529       4530       4541       4540       4650       4651       4662       4661  
      4530       4531       4542       4541       4651       4652       4663       4662  
      4531       4532       4543       4542       4652       4653       4664       4663  
      4533       4534       4545       4544       4654       4655       4666       4665  
      4534       4535       4546       4545       4655       4656       4667       4666  
      4535       4536       4547       4546       4656       4657       4668       4667  
      4536       4537       4548       4547       4657       4658       4669       4668  
      4537       4538       4549       4548       4658       4659       4670       4669  
      4538       4539       4550       4549       4659       4660       4671       4670  
      4539       4540       4551       4550       4660       4661       4672       4671  
      4540       4541       4552       4551       4661       4662       4673       4672  
      4541       4542       4553       4552       4662       4663       4674       4673  
      4542       4543       4554       4553       4663       4664       4675       4674  
      4544       4545       4556       4555       4665       4666       4677       4676  
      4545       4546       4557       4556       4666       4667       4678       4677  
      4546       4547       4558       4557       4667       4668       4679       4678  
      4547       4548       4559       4558       4668       4669       4680       4679  
      4548       4549       4560       4559       4669       4670       4681       4680  
      4549       4550       4561       4560       4670       4671       4682       4681  
      4550       4551       4562       4561       4671       4672       4683       4682  
      4551       4552       4563       4562       4672       4673       4684       4683  
      4552       4553       4564       4563       4673       4674       4685       4684  
      4553       4554       4565       4564       4674       4675       4686       4685  
      4555       4556       4567       4566       4676       4677       4688       4687  
      4556       4557       4568       4567       4677       4678       4689       4688  
      4557       4558       4569       4568       4678       4679       4690       4689  
      4558       4559       4570       4569       4679       4680       4691       4690  
      4559       4560       4571       4570       4680       4681       4692       4691  
      4560       4561       4572       4571       4681       4682       4693       4692  
      4561       4562       4573       4572       4682       4683       4694       4693  
      4562       4563       4574       4573       4683       4684       4695       4694  
      4563       4564       4575       4574       4684       4685       4696       4695  
      4564       4565       4576       4575       4685       4686       4697       4696  
      4566       4567       4578       4577       4687       4688       4699       4698  
      4567       4568       4579       4578       4688       4689       4700       4699  
      4568       4569       4580       4579       4689       4690       4701       4700  
      4569       4570       4581       4580       4690       4691       4702       4701  
      4570       4571       4582       4581       4691       4692       4703       4702  
      4571       4572       4583       4582       4692       4693       4704       4703  
      4572       4573       4584       4583       4693       4694       4705       4704  
      4573       4574       4585       4584       4694       4695       4706       4705  
      4574       4575       4586       4585       4695       4696       4707       4706  
      4575       4576       4587       4586       4696       4697       4708       4707  
      4577       4578       4589       4588       4698       4699       4710       4709  
      4578       4579       4590       4589       4699       4700       4711       4710  
      4579       4580       4591       4590       4700       4701       4712       4711  
      4580       4581       4592       4591       4701       4702       4713       4712  
      4581       4582       4593       4592       4702       4703       4714       4713  
      4582       4583       4594       4593       4703       4704       4715       4714  
      4583       4584       4595       4594       4704       4705       4716       4715  
      4584       4585       4596       4595       4705       4706       4717       4716  
      4585       4586       4597       4596       4706       4707       4718       4717  
      4586       4587       4598       4597       4707       4708       4719       4718  
      4599       4600       4611       4610       4720       4721       4732       4731  
      4600       4601       4612       4611       4721       4722       4733       4732  
      4601       4602       4613       4612       4722       4723       4734       4733  
      4602       4603       4614       4613       4723       4724       4735       4734  
      4603       4604       4615       4614       4724       4725       4736       4735  
      4604       4605       4616       4615       4725       4726       4737       4736  
      4605       4606       4617       4616       4726       4727       4738       4737  
      4606       4607       4618       4617       4727       4728       4739       4738  
      4607       4608       4619       4618       4728       4729       4740       4739  
      4608       4609       4620       4619       4729       4730       4741       4740  
      4610       4611       4622       4621       4731       4732       4743       4742  
      4611       4612       4623       4622       4732       4733       4744       4743  
      4612       4613       4624       4623       4733       4734       4745       4744  
      4613       4614       4625       4624       4734       4735       4746       4745  
      4614       4615       4626       4625       4735       4736       4747       4746  
      4615       4616       4627       4626       4736       4737       4748       4747  
      4616       4617       4628       4627       4737       4738       4749       4748  
      4617       4618       4629       4628       4738       4739       4750       4749  
      4618       4619       4630       4629       4739       4740       4751       4750  
      4619       4620       4631       4630       4740       4741       4752       4751  
      4621       4622       4633       4632       4742       4743       4754       4753  
      4622       4623       4634       4633       4743       4744       4755       4754  
      4623       4624       4635       4634       4744       4745       4756       4755  
      4624       4625       4636       4635       4745       4746       4757       4756  
      4625       4626       4637       4636       4746       4747       4758       4757  
      4626       4627       4638       4637       4747       4748       4759       4758  
      4627       4628       4639       4638       4748       4749       4760       4759  
      4628       4629       4640       4639       4749       4750       4761       4760  
      4629       4630       4641       4640       4750       4751       4762       4761  
      4630       4631       4642       4641       4751       4752       4763       4762  
      4632       4633       4644       4643       4753       4754       4765       4764  
      4633       4634       4645       4644       4754       4755       4766       4765  
      4634       4635       4646       4645       4755       4756       4767       4766  
      4635       4636       4647       4646       4756       4757       4768       4767  
      4636       4637       4648       4647       4757       4758       4769       4768  
      4637       4638       4649       4648       4758       4759       4770       4769  
      4638       4639       4650       4649       4759       4760       4771       4770  
      4639       4640       4651       4650       4760       4761       4772       4771  
      4640       4641       4652       4651       4761       4762       4773       4772  
      4641       4642       4653       4652       4762       4763       4774       4773  
      4643       4644       4655       4654       4764       4765       4776       4775  
      4644       4645       4656       4655       4765       4766       4777       4776  
      4645       4646       4657       4656       4766       4767       4778       4777  
      4646       4647       4658       4657       4767       4768       4779       4778  
      4647       4648       4659       4658       4768       4769       4780       4779  
      4648       4649       4660       4659       4769       4770       4781       4780  
      4649       4650       4661       4660       4770       4771       4782       4781  
      4650       4651       4662       4661       4771       4772       4783       4782  
      4651       4652       4663       4662       4772       4773       4784       4783  
      4652       4653       4664       4663       4773       4774       4785       4784  
      4654       4655       4666       4665       4775       4776       4787       4786  
      4655       4656       4667       4666       4776       4777       4788       4787  
      4656       4657       4668       4667       4777       4778       4789       4788  
      4657       4658       4669       4668       4778       4779       4790       4789  
      4658       4659       4670       4669       4779       4780       4791       4790  
      4659       4660       4671       4670       4780       4781       4792       4791  
      4660       4661       4672       4671       4781       4782       4793       4792  
      4661       4662       4673       4672       4782       4783       4794       4793  
      4662       4663       4674       4673       4783       4784       4795       4794  
      4663       4664       4675       4674       4784       4785       4796       4795  
      4665       4666       4677       4676       4786       4787       4798       4797  
      4666       4667       4678       4677       4787       4788       4799       4798  
      4667       4668       4679       4678       4788       4789       4800       4799  
      4668       4669       4680       4679       4789       4790       4801       4800  
      4669       4670       4681       4680       4790       4791       4802       4801  
      4670       4671       4682       4681       4791       4792       4803       4802  
      4671       4672       4683       4682       4792       4793       4804       4803  
      4672       4673       4684       4683       4793       4794       4805       4804  
      4673       4674       4685       4684       4794       4795       4806       4805  
      4674       4675       4686       4685       4795       4796       4807       4806  
      4676       4677       4688       4687       4797       4798       4809       4808  
      4677       4678       4689       4688       4798       4799       4810       4809  
      4678       4679       4690       4689       4799       4800       4811       4810  
      4679       4680       4691       4690       4800       4801       4812       4811  
      4680       4681       4692       4691       4801       4802       4813       4812  
      4681       4682       4693       4692       4802       4803       4814       4813  
      4682       4683       4694       4693       4803       4804       4815       4814  
      4683       4684       4695       4694       4804       4805       4816       4815  
      4684       4685       4696       4695       4805       4806       4817       4816  
      4685       4686       4697       4696       4806       4807       4818       4817  
      4687       4688       4699       4698       4808       4809       4820       4819  
      4688       4689       4700       4699       4809       4810       4821       4820  
      4689       4690       4701       4700       4810       4811       4822       4821  
      4690       4691       4702       4701       4811       4812       4823       4822  
      4691       4692       4703       4702       4812       4813       4824       4823  
      4692       4693       4704       4703       4813       4814       4825       4824  
      4693       4694       4705       4704       4814       4815       4826       4825  
      4694       4695       4706       4705       4815       4816       4827       4826  
      4695       4696       4707       4706       4816       4817       4828       4827  
      4696       4697       4708       4707       4817       4818       4829       4828  
      4698       4699       4710       4709       4819       4820       4831       4830  
      4699       4700       4711       4710       4820       4821       4832       4831  
      4700       4701       4712       4711       4821       4822       4833       4832  
      4701       4702       4713       4712       4822       4823       4834       4833  
      4702       4703       4714       4713       4823       4824       4835       4834  
      4703       4704       4715       4714       4824       4825       4836       4835  
      4704       4705       4716       4715       4825       4826       4837       4836  
      4705       4706       4717       4716       4826       4827       4838       4837  
      4706       4707       4718       4717       4827       4828       4839       4838  
      4707       4708       4719       4718       4828       4829       4840       4839  
      4720       4721       4732       4731       4841       4842       4853       4852  
      4721       4722       4733       4732       4842       4843       4854       4853  
      4722       4723       4734       4733       4843       4844       4855       4854  
      4723       4724       4735       4734       4844       4845       4856       4855  
      4724       4725       4736       4735       4845       4846       4857       4856  
      4725       4726       4737       4736       4846       4847       4858       4857  
      4726       4727       4738       4737       4847       4848       4859       4858  
      4727       4728       4739       4738       4848       4849       4860       4859  
      4728       4729       4740       4739       4849       4850       4861       4860  
      4729       4730       4741       4740       4850       4851       4862       4861  
      4731       4732       4743       4742       4852       4853       4864       4863  
      4732       4733       4744       4743       4853       4854       4865       4864  
      4733       4734       4745       4744       4854       4855       4866       4865  
      4734       4735       4746       4745       4855       4856       4867       4866  
      4735       4736       4747       4746       4856       4857       4868       4867  
      4736       4737       4748       4747       4857       4858       4869       4868  
      4737       4738       4749       4748       4858       4859       4870       4869  
      4738       4739       4750       4749       4859       4860       4871       4870  
      4739       4740       4751       4750       4860       4861       4872       4871  
      4740       4741       4752       4751       4861       4862       4873       4872  
      4742       4743       4754       4753       4863       4864       4875       4874  
      4743       4744       4755       4754       4864       4865       4876       4875  
      4744       4745       4756       4755       4865       4866       4877       4876  
      4745       4746       4757       4756       4866       4867       4878       4877  
      4746       4747       4758       4757       4867       4868       4879       4878  
      4747       4748       4759       4758       4868       4869       4880       4879  
      4748       4749       4760       4759       4869       4870       4881       4880  
      4749       4750       4761       4760       4870       4871       4882       4881  
      4750       4751       4762       4761       4871       4872       4883       4882  
      4751       4752       4763       4762       4872       4873       4884       4883  
      4753       4754       4765       4764       4874       4875       4886       4885  
      4754       4755       4766       4765       4875       4876       4887       4886  
      4755       4756       4767       4766       4876       4877       4888       4887  
      4756       4757       4768       4767       4877       4878       4889       4888  
      4757       4758       4769       4768       4878       4879       4890       4889  
      4758       4759       4770       4769       4879       4880       4891       4890  
      4759       4760       4771       4770       4880       4881       4892       4891  
      4760       4761       4772       4771       4881       4882       4893       4892  
      4761       4762       4773       4772       4882       4883       4894       4893  
      4762       4763       4774       4773       4883       4884       4895       4894  
      4764       4765       4776       4775       4885       4886       4897       4896  
      4765       4766       4777       4776       4886       4887       4898       4897  
      4766       4767       4778       4777       4887       4888       4899       4898  
      4767       4768       4779       4778       4888       4889       4900       4899  
      4768       4769       4780       4779       4889       4890       4901       4900  
      4769       4770       4781       4780       4890       4891       4902       4901  
      4770       4771       4782       4781       4891       4892       4903       4902  
      4771       4772       4783       4782       4892       4893       4904       4903  
      4772       4773       4784       4783       4893       4894       4905       4904  
      4773       4774       4785       4784       4894       4895       4906       4905  
      4775       4776       4787       4786       4896       4897       4908       4907  
      4776       4777       4788       4787       4897       4898       4909       4908  
      4777       4778       4789       4788       4898       4899       4910       4909  
      4778       4779       4790       4789       4899       4900       4911       4910  
      4779       4780       4791       4790       4900       4901       4912       4911  
      4780       4781       4792       4791       4901       4902       4913       4912  
      4781       4782       4793       4792       4902       4903       4914       4913  
      4782       4783       4794       4793       4903       4904       4915       4914  
      4783       4784       4795       4794       4904       4905       4916       4915  
      4784       4785       4796       4795       4905       4906       4917       4916  
      4786       4787       4798       4797       4907       4908       4919       4918  
      4787       4788       4799       4798       4908       4909       4920       4919  
      4788       4789       4800       4799       4909       4910       4921       4920  
      4789       4790       4801       4800       4910       4911       4922       4921  
      4790       4791       4802       4801       4911       4912       4923       4922  
      4791       4792       4803       4802       4912       4913       4924       4923  
      4792       4793       4804       4803       4913       4914       4925       4924  
      4793       4794       4805       4804       4914       4915       4926       4925  
      4794       4795       4806       4805       4915       4916       4927       4926  
      4795       4796       4807       4806       4916       4917       4928       4927  
      4797       4798       4809       4808       4918       4919       4930       4929  
      4798       4799       4810       4809       4919       4920       4931       4930  
      4799       4800       4811       4810       4920       4921       4932       4931  
      4800       4801       4812       4811       4921       4922       4933       4932  
      4801       4802       4813       4812       4922       4923       4934       4933  
      4802       4803       4814       4813       4923       4924       4935       4934  
      4803       4804       4815       4814       4924       4925       4936       4935  
      4804       4805       4816       4815       4925       4926       4937       4936  
      4805       4806       4817       4816       4926       4927       4938       4937  
      4806       4807       4818       4817       4927       4928       4939       4938  
      4808       4809       4820       4819       4929       4930       4941       4940  
      4809       4810       4821       4820       4930       4931       4942       4941  
      4810       4811       4822       4821       4931       4932       4943       4942  
      4811       4812       4823       4822       4932       4933       4944       4943  
      4812       4813       4824       4823       4933       4934       4945       4944  
      4813       4814       4825       4824       4934       4935       4946       4945  
      4814       4815       4826       4825       4935       4936       4947       4946  
      4815       4816       4827       4826       4936       4937       4948       4947  
      4816       4817       4828       4827       4937       4938       4949       4948  
      4817       4818       4829       4828       4938       4939       4950       4949  
      4819       4820       4831       4830       4940       4941       4952       4951  
      4820       4821       4832       4831       4941       4942       4953       4952  
      4821       4822       4833       4832       4942       4943       4954       4953  
      4822       4823       4834       4833       4943       4944       4955       4954  
      4823       4824       4835       4834       4944       4945       4956       4955  
      4824       4825       4836       4835       4945       4946       4957       4956  
      4825       4826       4837       4836       4946       4947       4958       4957  
      4826       4827       4838       4837       4947       4948       4959       4958  
      4827       4828       4839       4838       4948       4949       4960       4959  
      4828       4829       4840       4839       4949       4950       4961       4960  
      4841       4842       4853       4852       4962       4963       4974       4973  
      4842       4843       4854       4853       4963       4964       4975       4974  
      4843       4844       4855       4854       4964       4965       4976       4975  
      4844       4845       4856       4855       4965       4966       4977       4976  
      4845       4846       4857       4856       4966       4967       4978       4977  
      4846       4847       4858       4857       4967       4968       4979       4978  
      4847       4848       4859       4858       4968       4969       4980       4979  
      4848       4849       4860       4859       4969       4970       4981       4980  
      4849       4850       4861       4860       4970       4971       4982       4981  
      4850       4851       4862       4861       4971       4972       4983       4982  
      4852       4853       4864       4863       4973       4974       4985       4984  
      4853       4854       4865       4864       4974       4975       4986       4985  
      4854       4855       4866       4865       4975       4976       4987       4986  
      4855       4856       4867       4866       4976       4977       4988       4987  
      4856       4857       4868       4867       4977       4978       4989       4988  
      4857       4858       4869       4868       4978       4979       4990       4989  
      4858       4859       4870       4869       4979       4980       4991       4990  
      4859       4860       4871       4870       4980       4981       4992       4991  
      4860       4861       4872       4871       4981       4982       4993       4992  
      4861       4862       4873       4872       4982       4983       4994       4993  
      4863       4864       4875       4874       4984       4985       4996       4995  
      4864       4865       4876       4875       4985       4986       4997       4996  
      4865       4866       4877       4876       4986       4987       4998       4997  
      4866       4867       4878       4877       4987       4988       4999       4998  
      4867       4868       4879       4878       4988       4989       5000       4999  
      4868       4869       4880       4879       4989       4990       5001       5000  
      4869       4870       4881       4880       4990       4991       5002       5001  
      4870       4871       4882       4881       4991       4992       5003       5002  
      4871       4872       4883       4882       4992       4993       5004       5003  
      4872       4873       4884       4883       4993       4994       5005       5004  
      4874       4875       4886       4885       4995       4996       5007       5006  
      4875       4876       4887       4886       4996       4997       5008       5007  
      4876       4877       4888       4887       4997       4998       5009       5008  
      4877       4878       4889       4888       4998       4999       5010       5009  
      4878       4879       4890       4889       4999       5000       5011       5010  
      4879       4880       4891       4890       5000       5001       5012       5011  
      4880       4881       4892       4891       5001       5002       5013       5012  
      4881       4882       4893       4892       5002       5003       5014       5013  
      4882       4883       4894       4893       5003       5004       5015       5014  
      4883       4884       4895       4894       5004       5005       5016       5015  
      4885       4886       4897       4896       5006       5007       5018       5017  
      4886       4887       4898       4897       5007       5008       5019       5018  
      4887       4888       4899       4898       5008       5009       5020       5019  
      4888       4889       4900       4899       5009       5010       5021       5020  
      4889       4890       4901       4900       5010       5011       5022       5021  
      4890       4891       4902       4901       5011       5012       5023       5022  
      4891       4892       4903       4902       5012       5013       5024       5023  
      4892       4893       4904       4903       5013       5014       5025       5024  
      4893       4894       4905       4904       5014       5015       5026       5025  
      4894       4895       4906       4905       5015       5016       5027       5026  
      4896       4897       4908       4907       5017       5018       5029       5028  
      4897       4898       4909       4908       5018       5019       5030       5029  
      4898       4899       4910       4909       5019       5020       5031       5030  
      4899       4900       4911       4910       5020       5021       5032       5031  
      4900       4901       4912       4911       5021       5022       5033       5032  
      4901       4902       4913       4912       5022       5023       5034       5033  
      4902       4903       4914       4913       5023       5024       5035       5034  
      4903       4904       4915       4914       5024       5025       5036       5035  
      4904       4905       4916       4915       5025       5026       5037       5036  
      4905       4906       4917       4916       5026       5027       5038       5037  
      4907       4908       4919       4918       5028       5029       5040       5039  
      4908       4909       4920       4919       5029       5030       5041       5040  
      4909       4910       4921       4920       5030       5031       5042       5041  
      4910       4911       4922       4921       5031       5032       5043       5042  
      4911       4912       4923       4922       5032       5033       5044       5043  
      4912       4913       4924       4923       5033       5034       5045       5044  
      4913       4914       4925       4924       5034       5035       5046       5045  
      4914       4915       4926       4925       5035       5036       5047       5046  
      4915       4916       4927       4926       5036       5037       5048       5047  
      4916       4917       4928       4927       5037       5038       5049       5048  
      4918       4919       4930       4929       5039       5040       5051       5050  
      4919       4920       4931       4930       5040       5041       5052       5051  
      4920       4921       4932       4931       5041       5042       5053       5052  
      4921       4922       4933       4932       5042       5043       5054       5053  
      4922       4923       4934       4933       5043       5044       5055       5054  
      4923       4924       4935       4934       5044       5045       5056       5055  
      4924       4925       4936       4935       5045       5046       5057       5056  
      4925       4926       4937       4936       5046       5047       5058       5057  
      4926       4927       4938       4937       5047       5048       5059       5058  
      4927       4928       4939       4938       5048       5049       5060       5059  
      4929       4930       4941       4940       5050       5051       5062       5061  
      4930       4931       4942       4941       5051       5052       5063       5062  
      4931       4932       4943       4942       5052       5053       5064       5063  
      4932       4933       4944       4943       5053       5054       5065       5064  
      4933       4934       4945       4944       5054       5055       5066       5065  
      4934       4935       4946       4945       5055       5056       5067       5066  
      4935       4936       4947       4946       5056       5057       5068       5067  
      4936       4937       4948       4947       5057       5058       5069       5068  
      4937       4938       4949       4948       5058       5059       5070       5069  
      4938       4939       4950       4949       5059       5060       5071       5070  
      4940       4941       4952       4951       5061       5062       5073       5072  
      4941       4942       4953       4952       5062       5063       5074       5073  
      4942       4943       4954       4953       5063       5064       5075       5074  
      4943       4944       4955       4954       5064       5065       5076       5075  
      4944       4945       4956       4955       5065       5066       5077       5076  
      4945       4946       4957       4956       5066       5067       5078       5077  
      4946       4947       4958       4957       5067       5068       5079       5078  
      4947       4948       4959       4958       5068       5069       5080       5079  
      4948       4949       4960       4959       5069       5070       5081       5080  
      4949       4950       4961       4960       5070       5071       5082       5081  
      4962       4963       4974       4973       5083       5084       5095       5094  
      4963       4964       4975       4974       5084       5085       5096       5095  
      4964       4965       4976       4975       5085       5086       5097       5096  
      4965       4966       4977       4976       5086       5087       5098       5097  
      4966       4967       4978       4977       5087       5088       5099       5098  
      4967       4968       4979       4978       5088       5089       5100       5099  
      4968       4969       4980       4979       5089       5090       5101       5100  
      4969       4970       4981       4980       5090       5091       5102       5101  
      4970       4971       4982       4981       5091       5092       5103       5102  
      4971       4972       4983       4982       5092       5093       5104       5103  
      4973       4974       4985       4984       5094       5095       5106       5105  
      4974       4975       4986       4985       5095       5096       5107       5106  
      4975       4976       4987       4986       5096       5097       5108       5107  
      4976       4977       4988       4987       5097       5098       5109       5108  
      4977       4978       4989       4988       5098       5099       5110       5109  
      4978       4979       4990       4989       5099       5100       5111       5110  
      4979       4980       4991       4990       5100       5101       5112       5111  
      4980       4981       4992       4991       5101       5102       5113       5112  
      4981       4982       4993       4992       5102       5103       5114       5113  
      4982       4983       4994       4993       5103       5104       5115       5114  
      4984       4985       4996       4995       5105       5106       5117       5116  
      4985       4986       4997       4996       5106       5107       5118       5117  
      4986       4987       4998       4997       5107       5108       5119       5118  
      4987       4988       4999       4998       5108       5109       5120       5119  
      4988       4989       5000       4999       5109       5110       5121       5120  
      4989       4990       5001       5000       5110       5111       5122       5121  
      4990       4991       5002       5001       5111       5112       5123       5122  
      4991       4992       5003       5002       5112       5113       5124       5123  
      4992       4993       5004       5003       5113       5114       5125       5124  
      4993       4994       5005       5004       5114       5115       5126       5125  
      4995       4996       5007       5006       5116       5117       5128       5127  
      4996       4997       5008       5007       5117       5118       5129       5128  
      4997       4998       5009       5008       5118       5119       5130       5129  
      4998       4999       5010       5009       5119       5120       5131       5130  
      4999       5000       5011       5010       5120       5121       5132       5131  
      5000       5001       5012       5011       5121       5122       5133       5132  
      5001       5002       5013       5012       5122       5123       5134       5133  
      5002       5003       5014       5013       5123       5124       5135       5134  
      5003       5004       5015       5014       5124       5125       5136       5135  
      5004       5005       5016       5015       5125       5126       5137       5136  
      5006       5007       5018       5017       5127       5128       5139       5138  
      5007       5008       5019       5018       5128       5129       5140       5139  
      5008       5009       5020       5019       5129       5130       5141       5140  
      5009       5010       5021       5020       5130       5131       5142       5141  
      5010       5011       5022       5021       5131       5132       5143       5142  
      5011       5012       5023       5022       5132       5133       5144       5143  
      5012       5013       5024       5023       5133       5134       5145       5144  
      5013       5014       5025       5024       5134       5135       5146       5145  
      5014       5015       5026       5025       5135       5136       5147       5146  
      5015       5016       5027       5026       5136       5137       5148       5147  
      5017       5018       5029       5028       5138       5139       5150       5149  
      5018       5019       5030       5029       5139       5140       5151       5150  
      5019       5020       5031       5030       5140       5141       5152       5151  
      5020       5021       5032       5031       5141       5142       5153       5152  
      5021       5022       5033       5032       5142       5143       5154       5153  
      5022       5023       5034       5033       5143       5144       5155       5154  
      5023       5024       5035       5034       5144       5145       5156       5155  
      5024       5025       5036       5035       5145       5146       5157       5156  
      5025       5026       5037       5036       5146       5147       5158       5157  
      5026       5027       5038       5037       5147       5148       5159       5158  
      5028       5029       5040       5039       5149       5150       5161       5160  
      5029       5030       5041       5040       5150       5151       5162       5161  
      5030       5031       5042       5041       5151       5152       5163       5162  
      5031       5032       5043       5042       5152       5153       5164       5163  
      5032       5033       5044       5043       5153       5154       5165       5164  
      5033       5034       5045       5044       5154       5155       5166       5165  
      5034       5035       5046       5045       5155       5156       5167       5166  
      5035       5036       5047       5046       5156       5157       5168       5167  
      5036       5037       5048       5047       5157       5158       5169       5168  
      5037       5038       5049       5048       5158       5159       5170       5169  
      5039       5040       5051       5050       5160       5161       5172       5171  
      5040       5041       5052       5051       5161       5162       5173       5172  
      5041       5042       5053       5052       5162       5163       5174       5173  
      5042       5043       5054       5053       5163       5164       5175       5174  
      5043       5044       5055       5054       5164       5165       5176       5175  
      5044       5045       5056       5055       5165       5166       5177       5176  
      5045       5046       5057       5056       5166       5167       5178       5177  
      5046       5047       5058       5057       5167       5168       5179       5178  
      5047       5048       5059       5058       5168       5169       5180       5179  
      5048       5049       5060       5059       5169       5170       5181       5180  
      5050       5051       5062       5061       5171       5172       5183       5182  
      5051       5052       5063       5062       5172       5173       5184       5183  
      5052       5053       5064       5063       5173       5174       5185       5184  
      5053       5054       5065       5064       5174       5175       5186       5185  
      5054       5055       5066       5065       5175       5176       5187       5186  
      5055       5056       5067       5066       5176       5177       5188       5187  
      5056       5057       5068       5067       5177       5178       5189       5188  
      5057       5058       5069       5068       5178       5179       5190       5189  
      5058       5059       5070       5069       5179       5180       5191       5190  
      5059       5060       5071       5070       5180       5181       5192       5191  
      5061       5062       5073       5072       5182       5183       5194       5193  
      5062       5063       5074       5073       5183       5184       5195       5194  
      5063       5064       5075       5074       5184       5185       5196       5195  
      5064       5065       5076       5075       5185       5186       5197       5196  
      5065       5066       5077       5076       5186       5187       5198       5197  
      5066       5067       5078       5077       5187       5188       5199       5198  
      5067       5068       5079       5078       5188       5189       5200       5199  
      5068       5069       5080       5079       5189       5190       5201       5200  
      5069       5070       5081       5080       5190       5191       5202       5201  
      5070       5071       5082       5081       5191       5192       5203       5202  
      5083       5084       5095       5094       5204       5205       5216       5215  
      5084       5085       5096       5095       5205       5206       5217       5216  
      5085       5086       5097       5096       5206       5207       5218       5217  
      5086       5087       5098       5097       5207       5208       5219       5218  
      5087       5088       5099       5098       5208       5209       5220       5219  
      5088       5089       5100       5099       5209       5210       5221       5220  
      5089       5090       5101       5100       5210       5211       5222       5221  
      5090       5091       5102       5101       5211       5212       5223       5222  
      5091       5092       5103       5102       5212       5213       5224       5223  
      5092       5093       5104       5103       5213       5214       5225       5224  
      5094       5095       5106       5105       5215       5216       5227       5226  
      5095       5096       5107       5106       5216       5217       5228       5227  
      5096       5097       5108       5107       5217       5218       5229       5228  
      5097       5098       5109       5108       5218       5219       5230       5229  
      5098       5099       5110       5109       5219       5220       5231       5230  
      5099       5100       5111       5110       5220       5221       5232       5231  
      5100       5101       5112       5111       5221       5222       5233       5232  
      5101       5102       5113       5112       5222       5223       5234       5233  
      5102       5103       5114       5113       5223       5224       5235       5234  
      5103       5104       5115       5114       5224       5225       5236       5235  
      5105       5106       5117       5116       5226       5227       5238       5237  
      5106       5107       5118       5117       5227       5228       5239       5238  
      5107       5108       5119       5118       5228       5229       5240       5239  
      5108       5109       5120       5119       5229       5230       5241       5240  
      5109       5110       5121       5120       5230       5231       5242       5241  
      5110       5111       5122       5121       5231       5232       5243       5242  
      5111       5112       5123       5122       5232       5233       5244       5243  
      5112       5113       5124       5123       5233       5234       5245       5244  
      5113       5114       5125       5124       5234       5235       5246       5245  
      5114       5115       5126       5125       5235       5236       5247       5246  
      5116       5117       5128       5127       5237       5238       5249       5248  
      5117       5118       5129       5128       5238       5239       5250       5249  
      5118       5119       5130       5129       5239       5240       5251       5250  
      5119       5120       5131       5130       5240       5241       5252       5251  
      5120       5121       5132       5131       5241       5242       5253       5252  
      5121       5122       5133       5132       5242       5243       5254       5253  
      5122       5123       5134       5133       5243       5244       5255       5254  
      5123       5124       5135       5134       5244       5245       5256       5255  
      5124       5125       5136       5135       5245       5246       5257       5256  
      5125       5126       5137       5136       5246       5247       5258       5257  
      5127       5128       5139       5138       5248       5249       5260       5259  
      5128       5129       5140       5139       5249       5250       5261       5260  
      5129       5130       5141       5140       5250       5251       5262       5261  
      5130       5131       5142       5141       5251       5252       5263       5262  
      5131       5132       5143       5142       5252       5253       5264       5263  
      5132       5133       5144       5143       5253       5254       5265       5264  
      5133       5134       5145       5144       5254       5255       5266       5265  
      5134       5135       5146       5145       5255       5256       5267       5266  
      5135       5136       5147       5146       5256       5257       5268       5267  
      5136       5137       5148       5147       5257       5258       5269       5268  
      5138       5139       5150       5149       5259       5260       5271       5270  
      5139       5140       5151       5150       5260       5261       5272       5271  
      5140       5141       5152       5151       5261       5262       5273       5272  
      5141       5142       5153       5152       5262       5263       5274       5273  
      5142       5143       5154       5153       5263       5264       5275       5274  
      5143       5144       5155       5154       5264       5265       5276       5275  
      5144       5145       5156       5155       5265       5266       5277       5276  
      5145       5146       5157       5156       5266       5267       5278       5277  
      5146       5147       5158       5157       5267       5268       5279       5278  
      5147       5148       5159       5158       5268       5269       5280       5279  
      5149       5150       5161       5160       5270       5271       5282       5281  
      5150       5151       5162       5161       5271       5272       5283       5282  
      5151       5152       5163       5162       5272       5273       5284       5283  
      5152       5153       5164       5163       5273       5274       5285       5284  
      5153       5154       5165       5164       5274       5275       5286       5285  
      5154       5155       5166       5165       5275       5276       5287       5286  
      5155       5156       5167       5166       5276       5277       5288       5287  
      5156       5157       5168       5167       5277       5278       5289       5288  
      5157       5158       5169       5168       5278       5279       5290       5289  
      5158       5159       5170       5169       5279       5280       5291       5290  
      5160       5161       5172       5171       5281       5282       5293       5292  
      5161       5162       5173       5172       5282       5283       5294       5293  
      5162       5163       5174       5173       5283       5284       5295       5294  
      5163       5164       5175       5174       5284       5285       5296       5295  
      5164       5165       5176       5175       5285       5286       5297       5296  
      5165       5166       5177       5176       5286       5287       5298       5297  
      5166       5167       5178       5177       5287       5288       5299       5298  
      5167       5168       5179       5178       5288       5289       5300       5299  
      5168       5169       5180       5179       5289       5290       5301       5300  
      5169       5170       5181       5180       5290       5291       5302       5301  
      5171       5172       5183       5182       5292       5293       5304       5303  
      5172       5173       5184       5183       5293       5294       5305       5304  
      5173       5174       5185       5184       5294       5295       5306       5305  
      5174       5175       5186       5185       5295       5296       5307       5306  
      5175       5176       5187       5186       5296       5297       5308       5307  
      5176       5177       5188       5187       5297       5298       5309       5308  
      5177       5178       5189       5188       5298       5299       5310       5309  
      5178       5179       5190       5189       5299       5300       5311       5310  
      5179       5180       5191       5190       5300       5301       5312       5311  
      5180       5181       5192       5191       5301       5302       5313       5312  
      5182       5183       5194       5193       5303       5304       5315       5314  
      5183       5184       5195       5194       5304       5305       5316       5315  
      5184       5185       5196       5195       5305       5306       5317       5316  
      5185       5186       5197       5196       5306       5307       5318       5317  
      5186       5187       5198       5197       5307       5308       5319       5318  
      5187       5188       5199       5198       5308       5309       5320       5319  
      5188       5189       5200       5199       5309       5310       5321       5320  
      5189       5190       5201       5200       5310       5311       5322       5321  
      5190       5191       5202       5201       5311       5312       5323       5322  
      5191       5192       5203       5202       5312       5313       5324       5323  
      5204       5205       5216       5215       5325       5326       5337       5336  
      5205       5206       5217       5216       5326       5327       5338       5337  
      5206       5207       5218       5217       5327       5328       5339       5338  
      5207       5208       5219       5218       5328       5329       5340       5339  
      5208       5209       5220       5219       5329       5330       5341       5340  
      5209       5210       5221       5220       5330       5331       5342       5341  
      5210       5211       5222       5221       5331       5332       5343       5342  
      5211       5212       5223       5222       5332       5333       5344       5343  
      5212       5213       5224       5223       5333       5334       5345       5344  
      5213       5214       5225       5224       5334       5335       5346       5345  
      5215       5216       5227       5226       5336       5337       5348       5347  
      5216       5217       5228       5227       5337       5338       5349       5348  
      5217       5218       5229       5228       5338       5339       5350       5349  
      5218       5219       5230       5229       5339       5340       5351       5350  
      5219       5220       5231       5230       5340       5341       5352       5351  
      5220       5221       5232       5231       5341       5342       5353       5352  
      5221       5222       5233       5232       5342       5343       5354       5353  
      5222       5223       5234       5233       5343       5344       5355       5354  
      5223       5224       5235       5234       5344       5345       5356       5355  
      5224       5225       5236       5235       5345       5346       5357       5356  
      5226       5227       5238       5237       5347       5348       5359       5358  
      5227       5228       5239       5238       5348       5349       5360       5359  
      5228       5229       5240       5239       5349       5350       5361       5360  
      5229       5230       5241       5240       5350       5351       5362       5361  
      5230       5231       5242       5241       5351       5352       5363       5362  
      5231       5232       5243       5242       5352       5353       5364       5363  
      5232       5233       5244       5243       5353       5354       5365       5364  
      5233       5234       5245       5244       5354       5355       5366       5365  
      5234       5235       5246       5245       5355       5356       5367       5366  
      5235       5236       5247       5246       5356       5357       5368       5367  
      5237       5238       5249       5248       5358       5359       5370       5369  
      5238       5239       5250       5249       5359       5360       5371       5370  
      5239       5240       5251       5250       5360       5361       5372       5371  
      5240       5241       5252       5251       5361       5362       5373       5372  
      5241       5242       5253       5252       5362       5363       5374       5373  
      5242       5243       5254       5253       5363       5364       5375       5374  
      5243       5244       5255       5254       5364       5365       5376       5375  
      5244       5245       5256       5255       5365       5366       5377       5376  
      5245       5246       5257       5256       5366       5367       5378       5377  
      5246       5247       5258       5257       5367       5368       5379       5378  
      5248       5249       5260       5259       5369       5370       5381       5380  
      5249       5250       5261       5260       5370       5371       5382       5381  
      5250       5251       5262       5261       5371       5372       5383       5382  
      5251       5252       5263       5262       5372       5373       5384       5383  
      5252       5253       5264       5263       5373       5374       5385       5384  
      5253       5254       5265       5264       5374       5375       5386       5385  
      5254       5255       5266       5265       5375       5376       5387       5386  
      5255       5256       5267       5266       5376       5377       5388       5387  
      5256       5257       5268       5267       5377       5378       5389       5388  
      5257       5258       5269       5268       5378       5379       5390       5389  
      5259       5260       5271       5270       5380       5381       5392       5391  
      5260       5261       5272       5271       5381       5382       5393       5392  
      5261       5262       5273       5272       5382       5383       5394       5393  
      5262       5263       5274       5273       5383       5384       5395       5394  
      5263       5264       5275       5274       5384       5385       5396       5395  
      5264       5265       5276       5275       5385       5386       5397       5396  
      5265       5266       5277       5276       5386       5387       5398       5397  
      5266       5267       5278       5277       5387       5388       5399       5398  
      5267       5268       5279       5278       5388       5389       5400       5399  
      5268       5269       5280       5279       5389       5390       5401       5400  
      5270       5271       5282       5281       5391       5392       5403       5402  
      5271       5272       5283       5282       5392       5393       5404       5403  
      5272       5273       5284       5283       5393       5394       5405       5404  
      5273       5274       5285       5284       5394       5395       5406       5405  
      5274       5275       5286       5285       5395       5396       5407       5406  
      5275       5276       5287       5286       5396       5397       5408       5407  
      5276       5277       5288       5287       5397       5398       5409       5408  
      5277       5278       5289       5288       5398       5399       5410       5409  
      5278       5279       5290       5289       5399       5400       5411       5410  
      5279       5280       5291       5290       5400       5401       5412       5411  
      5281       5282       5293       5292       5402       5403       5414       5413  
      5282       5283       5294       5293       5403       5404       5415       5414  
      5283       5284       5295       5294       5404       5405       5416       5415  
      5284       5285       5296       5295       5405       5406       5417       5416  
      5285       5286       5297       5296       5406       5407       5418       5417  
      5286       5287       5298       5297       5407       5408       5419       5418  
      5287       5288       5299       5298       5408       5409       5420       5419  
      5288       5289       5300       5299       5409       5410       5421       5420  
      5289       5290       5301       5300       5410       5411       5422       5421  
      5290       5291       5302       5301       5411       5412       5423       5422  
      5292       5293       5304       5303       5413       5414       5425       5424  
      5293       5294       5305       5304       5414       5415       5426       5425  
      5294       5295       5306       5305       5415       5416       5427       5426  
      5295       5296       5307       5306       5416       5417       5428       5427  
      5296       5297       5308       5307       5417       5418       5429       5428  
      5297       5298       5309       5308       5418       5419       5430       5429  
      5298       5299       5310       5309       5419       5420       5431       5430  
      5299       5300       5311       5310       5420       5421       5432       5431  
      5300       5301       5312       5311       5421       5422       5433       5432  
      5301       5302       5313       5312       5422       5423       5434       5433  
      5303       5304       5315       5314       5424       5425       5436       5435  
      5304       5305       5316       5315       5425       5426       5437       5436  
      5305       5306       5317       5316       5426       5427       5438       5437  
      5306       5307       5318       5317       5427       5428       5439       5438  
      5307       5308       5319       5318       5428       5429       5440       5439  
      5308       5309       5320       5319       5429       5430       5441       5440  
      5309       5310       5321       5320       5430       5431       5442       5441  
      5310       5311       5322       5321       5431       5432       5443       5442  
      5311       5312       5323       5322       5432       5433       5444       5443  
      5312       5313       5324       5323       5433       5434       5445       5444  
      5325       5326       5337       5336       5446       5447       5458       5457  
      5326       5327       5338       5337       5447       5448       5459       5458  
      5327       5328       5339       5338       5448       5449       5460       5459  
      5328       5329       5340       5339       5449       5450       5461       5460  
      5329       5330       5341       5340       5450       5451       5462       5461  
      5330       5331       5342       5341       5451       5452       5463       5462  
      5331       5332       5343       5342       5452       5453       5464       5463  
      5332       5333       5344       5343       5453       5454       5465       5464  
      5333       5334       5345       5344       5454       5455       5466       5465  
      5334       5335       5346       5345       5455       5456       5467       5466  
      5336       5337       5348       5347       5457       5458       5469       5468  
      5337       5338       5349       5348       5458       5459       5470       5469  
      5338       5339       5350       5349       5459       5460       5471       5470  
      5339       5340       5351       5350       5460       5461       5472       5471  
      5340       5341       5352       5351       5461       5462       5473       5472  
      5341       5342       5353       5352       5462       5463       5474       5473  
      5342       5343       5354       5353       5463       5464       5475       5474  
      5343       5344       5355       5354       5464       5465       5476       5475  
      5344       5345       5356       5355       5465       5466       5477       5476  
      5345       5346       5357       5356       5466       5467       5478       5477  
      5347       5348       5359       5358       5468       5469       5480       5479  
      5348       5349       5360       5359       5469       5470       5481       5480  
      5349       5350       5361       5360       5470       5471       5482       5481  
      5350       5351       5362       5361       5471       5472       5483       5482  
      5351       5352       5363       5362       5472       5473       5484       5483  
      5352       5353       5364       5363       5473       5474       5485       5484  
      5353       5354       5365       5364       5474       5475       5486       5485  
      5354       5355       5366       5365       5475       5476       5487       5486  
      5355       5356       5367       5366       5476       5477       5488       5487  
      5356       5357       5368       5367       5477       5478       5489       5488  
      5358       5359       5370       5369       5479       5480       5491       5490  
      5359       5360       5371       5370       5480       5481       5492       5491  
      5360       5361       5372       5371       5481       5482       5493       5492  
      5361       5362       5373       5372       5482       5483       5494       5493  
      5362       5363       5374       5373       5483       5484       5495       5494  
      5363       5364       5375       5374       5484       5485       5496       5495  
      5364       5365       5376       5375       5485       5486       5497       5496  
      5365       5366       5377       5376       5486       5487       5498       5497  
      5366       5367       5378       5377       5487       5488       5499       5498  
      5367       5368       5379       5378       5488       5489       5500       5499  
      5369       5370       5381       5380       5490       5491       5502       5501  
      5370       5371       5382       5381       5491       5492       5503       5502  
      5371       5372       5383       5382       5492       5493       5504       5503  
      5372       5373       5384       5383       5493       5494       5505       5504  
      5373       5374       5385       5384       5494       5495       5506       5505  
      5374       5375       5386       5385       5495       5496       5507       5506  
      5375       5376       5387       5386       5496       5497       5508       5507  
      5376       5377       5388       5387       5497       5498       5509       5508  
      5377       5378       5389       5388       5498       5499       5510       5509  
      5378       5379       5390       5389       5499       5500       5511       5510  
      5380       5381       5392       5391       5501       5502       5513       5512  
      5381       5382       5393       5392       5502       5503       5514       5513  
      5382       5383       5394       5393       5503       5504       5515       5514  
      5383       5384       5395       5394       5504       5505       5516       5515  
      5384       5385       5396       5395       5505       5506       5517       5516  
      5385       5386       5397       5396       5506       5507       5518       5517  
      5386       5387       5398       5397       5507       5508       5519       5518  
      5387       5388       5399       5398       5508       5509       5520       5519  
      5388       5389       5400       5399       5509       5510       5521       5520  
      5389       5390       5401       5400       5510       5511       5522       5521  
      5391       5392       5403       5402       5512       5513       5524       5523  
      5392       5393       5404       5403       5513       5514       5525       5524  
      5393       5394       5405       5404       5514       5515       5526       5525  
      5394       5395       5406       5405       5515       5516       5527       5526  
      5395       5396       5407       5406       5516       5517       5528       5527  
      5396       5397       5408       5407       5517       5518       5529       5528  
      5397       5398       5409       5408       5518       5519       5530       5529  
      5398       5399       5410       5409       5519       5520       5531       5530  
      5399       5400       5411       5410       5520       5521       5532       5531  
      5400       5401       5412       5411       5521       5522       5533       5532  
      5402       5403       5414       5413       5523       5524       5535       5534  
      5403       5404       5415       5414       5524       5525       5536       5535  
      5404       5405       5416       5415       5525       5526       5537       5536  
      5405       5406       5417       5416       5526       5527       5538       5537  
      5406       5407       5418       5417       5527       5528       5539       5538  
      5407       5408       5419       5418       5528       5529       5540       5539  
      5408       5409       5420       5419       5529       5530       5541       5540  
      5409       5410       5421       5420       5530       5531       5542       5541  
      5410       5411       5422       5421       5531       5532       5543       5542  
      5411       5412       5423       5422       5532       5533       5544       5543  
      5413       5414       5425       5424       5534       5535       5546       5545  
      5414       5415       5426       5425       5535       5536       5547       5546  
      5415       5416       5427       5426       5536       5537       5548       5547  
      5416       5417       5428       5427       5537       5538       5549       5548  
      5417       5418       5429       5428       5538       5539       5550       5549  
      5418       5419       5430       5429       5539       5540       5551       5550  
      5419       5420       5431       5430       5540       5541       5552       5551  
      5420       5421       5432       5431       5541       5542       5553       5552  
      5421       5422       5433       5432       5542       5543       5554       5553  
      5422       5423       5434       5433       5543       5544       5555       5554  
      5424       5425       5436       5435       5545       5546       5557       5556  
      5425       5426       5437       5436       5546       5547       5558       5557  
      5426       5427       5438       5437       5547       5548       5559       5558  
      5427       5428       5439       5438       5548       5549       5560       5559  
      5428       5429       5440       5439       5549       5550       5561       5560  
      5429       5430       5441       5440       5550       5551       5562       5561  
      5430       5431       5442       5441       5551       5552       5563       5562  
      5431       5432       5443       5442       5552       5553       5564       5563  
      5432       5433       5444       5443       5553       5554       5565       5564  
      5433       5434       5445       5444       5554       5555       5566       5565  
      5446       5447       5458       5457       5567       5568       5579       5578  
      5447       5448       5459       5458       5568       5569       5580       5579  
      5448       5449       5460       5459       5569       5570       5581       5580  
      5449       5450       5461       5460       5570       5571       5582       5581  
      5450       5451       5462       5461       5571       5572       5583       5582  
      5451       5452       5463       5462       5572       5573       5584       5583  
      5452       5453       5464       5463       5573       5574       5585       5584  
      5453       5454       5465       5464       5574       5575       5586       5585  
      5454       5455       5466       5465       5575       5576       5587       5586  
      5455       5456       5467       5466       5576       5577       5588       5587  
      5457       5458       5469       5468       5578       5579       5590       5589  
      5458       5459       5470       5469       5579       5580       5591       5590  
      5459       5460       5471       5470       5580       5581       5592       5591  
      5460       5461       5472       5471       5581       5582       5593       5592  
      5461       5462       5473       5472       5582       5583       5594       5593  
      5462       5463       5474       5473       5583       5584       5595       5594  
      5463       5464       5475       5474       5584       5585       5596       5595  
      5464       5465       5476       5475       5585       5586       5597       5596  
      5465       5466       5477       5476       5586       5587       5598       5597  
      5466       5467       5478       5477       5587       5588       5599       5598  
      5468       5469       5480       5479       5589       5590       5601       5600  
      5469       5470       5481       5480       5590       5591       5602       5601  
      5470       5471       5482       5481       5591       5592       5603       5602  
      5471       5472       5483       5482       5592       5593       5604       5603  
      5472       5473       5484       5483       5593       5594       5605       5604  
      5473       5474       5485       5484       5594       5595       5606       5605  
      5474       5475       5486       5485       5595       5596       5607       5606  
      5475       5476       5487       5486       5596       5597       5608       5607  
      5476       5477       5488       5487       5597       5598       5609       5608  
      5477       5478       5489       5488       5598       5599       5610       5609  
      5479       5480       5491       5490       5600       5601       5612       5611  
      5480       5481       5492       5491       5601       5602       5613       5612  
      5481       5482       5493       5492       5602       5603       5614       5613  
      5482       5483       5494       5493       5603       5604       5615       5614  
      5483       5484       5495       5494       5604       5605       5616       5615  
      5484       5485       5496       5495       5605       5606       5617       5616  
      5485       5486       5497       5496       5606       5607       5618       5617  
      5486       5487       5498       5497       5607       5608       5619       5618  
      5487       5488       5499       5498       5608       5609       5620       5619  
      5488       5489       5500       5499       5609       5610       5621       5620  
      5490       5491       5502       5501       5611       5612       5623       5622  
      5491       5492       5503       5502       5612       5613       5624       5623  
      5492       5493       5504       5503       5613       5614       5625       5624  
      5493       5494       5505       5504       5614       5615       5626       5625  
      5494       5495       5506       5505       5615       5616       5627       5626  
      5495       5496       5507       5506       5616       5617       5628       5627  
      5496       5497       5508       5507       5617       5618       5629       5628  
      5497       5498       5509       5508       5618       5619       5630       5629  
      5498       5499       5510       5509       5619       5620       5631       5630  
      5499       5500       5511       5510       5620       5621       5632       5631  
      5501       5502       5513       5512       5622       5623       5634       5633  
      5502       5503       5514       5513       5623       5624       5635       5634  
      5503       5504       5515       5514       5624       5625       5636       5635  
      5504       5505       5516       5515       5625       5626       5637       5636  
      5505       5506       5517       5516       5626       5627       5638       5637  
      5506       5507       5518       5517       5627       5628       5639       5638  
      5507       5508       5519       5518       5628       5629       5640       5639  
      5508       5509       5520       5519       5629       5630       5641       5640  
      5509       5510       5521       5520       5630       5631       5642       5641  
      5510       5511       5522       5521       5631       5632       5643       5642  
      5512       5513       5524       5523       5633       5634       5645       5644  
      5513       5514       5525       5524       5634       5635       5646       5645  
      5514       5515       5526       5525       5635       5636       5647       5646  
      5515       5516       5527       5526       5636       5637       5648       5647  
      5516       5517       5528       5527       5637       5638       5649       5648  
      5517       5518       5529       5528       5638       5639       5650       5649  
      5518       5519       5530       5529       5639       5640       5651       5650  
      5519       5520       5531       5530       5640       5641       5652       5651  
      5520       5521       5532       5531       5641       5642       5653       5652  
      5521       5522       5533       5532       5642       5643       5654       5653  
      5523       5524       5535       5534       5644       5645       5656       5655  
      5524       5525       5536       5535       5645       5646       5657       5656  
      5525       5526       5537       5536       5646       5647       5658       5657  
      5526       5527       5538       5537       5647       5648       5659       5658  
      5527       5528       5539       5538       5648       5649       5660       5659  
      5528       5529       5540       5539       5649       5650       5661       5660  
      5529       5530       5541       5540       5650       5651       5662       5661  
      5530       5531       5542       5541       5651       5652       5663       5662  
      5531       5532       5543       5542       5652       5653       5664       5663  
      5532       5533       5544       5543       5653       5654       5665       5664  
      5534       5535       5546       5545       5655       5656       5667       5666  
      5535       5536       5547       5546       5656       5657       5668       5667  
      5536       5537       5548       5547       5657       5658       5669       5668  
      5537       5538       5549       5548       5658       5659       5670       5669  
      5538       5539       5550       5549       5659       5660       5671       5670  
      5539       5540       5551       5550       5660       5661       5672       5671  
      5540       5541       5552       5551       5661       5662       5673       5672  
      5541       5542       5553       5552       5662       5663       5674       5673  
      5542       5543       5554       5553       5663       5664       5675       5674  
      5543       5544       5555       5554       5664       5665       5676       5675  
      5545       5546       5557       5556       5666       5667       5678       5677  
      5546       5547       5558       5557       5667       5668       5679       5678  
      5547       5548       5559       5558       5668       5669       5680       5679  
      5548       5549       5560       5559       5669       5670       5681       5680  
      5549       5550       5561       5560       5670       5671       5682       5681  
      5550       5551       5562       5561       5671       5672       5683       5682  
      5551       5552       5563       5562       5672       5673       5684       5683  
      5552       5553       5564       5563       5673       5674       5685       5684  
      5553       5554       5565       5564       5674       5675       5686       5685  
      5554       5555       5566       5565       5675       5676       5687       5686  
      5567       5568       5579       5578       5688       5689       5700       5699  
      5568       5569       5580       5579       5689       5690       5701       5700  
      5569       5570       5581       5580       5690       5691       5702       5701  
      5570       5571       5582       5581       5691       5692       5703       5702  
      5571       5572       5583       5582       5692       5693       5704       5703  
      5572       5573       5584       5583       5693       5694       5705       5704  
      5573       5574       5585       5584       5694       5695       5706       5705  
      5574       5575       5586       5585       5695       5696       5707       5706  
      5575       5576       5587       5586       5696       5697       5708       5707  
      5576       5577       5588       5587       5697       5698       5709       5708  
      5578       5579       5590       5589       5699       5700       5711       5710  
      5579       5580       5591       5590       5700       5701       5712       5711  
      5580       5581       5592       5591       5701       5702       5713       5712  
      5581       5582       5593       5592       5702       5703       5714       5713  
      5582       5583       5594       5593       5703       5704       5715       5714  
      5583       5584       5595       5594       5704       5705       5716       5715  
      5584       5585       5596       5595       5705       5706       5717       5716  
      5585       5586       5597       5596       5706       5707       5718       5717  
      5586       5587       5598       5597       5707       5708       5719       5718  
      5587       5588       5599       5598       5708       5709       5720       5719  
      5589       5590       5601       5600       5710       5711       5722       5721  
      5590       5591       5602       5601       5711       5712       5723       5722  
      5591       5592       5603       5602       5712       5713       5724       5723  
      5592       5593       5604       5603       5713       5714       5725       5724  
      5593       5594       5605       5604       5714       5715       5726       5725  
      5594       5595       5606       5605       5715       5716       5727       5726  
      5595       5596       5607       5606       5716       5717       5728       5727  
      5596       5597       5608       5607       5717       5718       5729       5728  
      5597       5598       5609       5608       5718       5719       5730       5729  
      5598       5599       5610       5609       5719       5720       5731       5730  
      5600       5601       5612       5611       5721       5722       5733       5732  
      5601       5602       5613       5612       5722       5723       5734       5733  
      5602       5603       5614       5613       5723       5724       5735       5734  
      5603       5604       5615       5614       5724       5725       5736       5735  
      5604       5605       5616       5615       5725       5726       5737       5736  
      5605       5606       5617       5616       5726       5727       5738       5737  
      5606       5607       5618       5617       5727       5728       5739       5738  
      5607       5608       5619       5618       5728       5729       5740       5739  
      5608       5609       5620       5619       5729       5730       5741       5740  
      5609       5610       5621       5620       5730       5731       5742       5741  
      5611       5612       5623       5622       5732       5733       5744       5743  
      5612       5613       5624       5623       5733       5734       5745       5744  
      5613       5614       5625       5624       5734       5735       5746       5745  
      5614       5615       5626       5625       5735       5736       5747       5746  
      5615       5616       5627       5626       5736       5737       5748       5747  
      5616       5617       5628       5627       5737       5738       5749       5748  
      5617       5618       5629       5628       5738       5739       5750       5749  
      5618       5619       5630       5629       5739       5740       5751       5750  
      5619       5620       5631       5630       5740       5741       5752       5751  
      5620       5621       5632       5631       5741       5742       5753       5752  
      5622       5623       5634       5633       5743       5744       5755       5754  
      5623       5624       5635       5634       5744       5745       5756       5755  
      5624       5625       5636       5635       5745       5746       5757       5756  
      5625       5626       5637       5636       5746       5747       5758       5757  
      5626       5627       5638       5637       5747       5748       5759       5758  
      5627       5628       5639       5638       5748       5749       5760       5759  
      5628       5629       5640       5639       5749       5750       5761       5760  
      5629       5630       5641       5640       5750       5751       5762       5761  
      5630       5631       5642       5641       5751       5752       5763       5762  
      5631       5632       5643       5642       5752       5753       5764       5763  
      5633       5634       5645       5644       5754       5755       5766       5765  
      5634       5635       5646       5645       5755       5756       5767       5766  
      5635       5636       5647       5646       5756       5757       5768       5767  
      5636       5637       5648       5647       5757       5758       5769       5768  
      5637       5638       5649       5648       5758       5759       5770       5769  
      5638       5639       5650       5649       5759       5760       5771       5770  
      5639       5640       5651       5650       5760       5761       5772       5771  
      5640       5641       5652       5651       5761       5762       5773       5772  
      5641       5642       5653       5652       5762       5763       5774       5773  
      5642       5643       5654       5653       5763       5764       5775       5774  
      5644       5645       5656       5655       5765       5766       5777       5776  
      5645       5646       5657       5656       5766       5767       5778       5777  
      5646       5647       5658       5657       5767       5768       5779       5778  
      5647       5648       5659       5658       5768       5769       5780       5779  
      5648       5649       5660       5659       5769       5770       5781       5780  
      5649       5650       5661       5660       5770       5771       5782       5781  
      5650       5651       5662       5661       5771       5772       5783       5782  
      5651       5652       5663       5662       5772       5773       5784       5783  
      5652       5653       5664       5663       5773       5774       5785       5784  
      5653       5654       5665       5664       5774       5775       5786       5785  
      5655       5656       5667       5666       5776       5777       5788       5787  
      5656       5657       5668       5667       5777       5778       5789       5788  
      5657       5658       5669       5668       5778       5779       5790       5789  
      5658       5659       5670       5669       5779       5780       5791       5790  
      5659       5660       5671       5670       5780       5781       5792       5791  
      5660       5661       5672       5671       5781       5782       5793       5792  
      5661       5662       5673       5672       5782       5783       5794       5793  
      5662       5663       5674       5673       5783       5784       5795       5794  
      5663       5664       5675       5674       5784       5785       5796       5795  
      5664       5665       5676       5675       5785       5786       5797       5796  
      5666       5667       5678       5677       5787       5788       5799       5798  
      5667       5668       5679       5678       5788       5789       5800       5799  
      5668       5669       5680       5679       5789       5790       5801       5800  
      5669       5670       5681       5680       5790       5791       5802       5801  
      5670       5671       5682       5681       5791       5792       5803       5802  
      5671       5672       5683       5682       5792       5793       5804       5803  
      5672       5673       5684       5683       5793       5794       5805       5804  
      5673       5674       5685       5684       5794       5795       5806       5805  
      5674       5675       5686       5685       5795       5796       5807       5806  
      5675       5676       5687       5686       5796       5797       5808       5807  
      5688       5689       5700       5699       5809       5810       5821       5820  
      5689       5690       5701       5700       5810       5811       5822       5821  
      5690       5691       5702       5701       5811       5812       5823       5822  
      5691       5692       5703       5702       5812       5813       5824       5823  
      5692       5693       5704       5703       5813       5814       5825       5824  
      5693       5694       5705       5704       5814       5815       5826       5825  
      5694       5695       5706       5705       5815       5816       5827       5826  
      5695       5696       5707       5706       5816       5817       5828       5827  
      5696       5697       5708       5707       5817       5818       5829       5828  
      5697       5698       5709       5708       5818       5819       5830       5829  
      5699       5700       5711       5710       5820       5821       5832       5831  
      5700       5701       5712       5711       5821       5822       5833       5832  
      5701       5702       5713       5712       5822       5823       5834       5833  
      5702       5703       5714       5713       5823       5824       5835       5834  
      5703       5704       5715       5714       5824       5825       5836       5835  
      5704       5705       5716       5715       5825       5826       5837       5836  
      5705       5706       5717       5716       5826       5827       5838       5837  
      5706       5707       5718       5717       5827       5828       5839       5838  
      5707       5708       5719       5718       5828       5829       5840       5839  
      5708       5709       5720       5719       5829       5830       5841       5840  
      5710       5711       5722       5721       5831       5832       5843       5842  
      5711       5712       5723       5722       5832       5833       5844       5843  
      5712       5713       5724       5723       5833       5834       5845       5844  
      5713       5714       5725       5724       5834       5835       5846       5845  
      5714       5715       5726       5725       5835       5836       5847       5846  
      5715       5716       5727       5726       5836       5837       5848       5847  
      5716       5717       5728       5727       5837       5838       5849       5848  
      5717       5718       5729       5728       5838       5839       5850       5849  
      5718       5719       5730       5729       5839       5840       5851       5850  
      5719       5720       5731       5730       5840       5841       5852       5851  
      5721       5722       5733       5732       5842       5843       5854       5853  
      5722       5723       5734       5733       5843       5844       5855       5854  
      5723       5724       5735       5734       5844       5845       5856       5855  
      5724       5725       5736       5735       5845       5846       5857       5856  
      5725       5726       5737       5736       5846       5847       5858       5857  
      5726       5727       5738       5737       5847       5848       5859       5858  
      5727       5728       5739       5738       5848       5849       5860       5859  
      5728       5729       5740       5739       5849       5850       5861       5860  
      5729       5730       5741       5740       5850       5851       5862       5861  
      5730       5731       5742       5741       5851       5852       5863       5862  
      5732       5733       5744       5743       5853       5854       5865       5864  
      5733       5734       5745       5744       5854       5855       5866       5865  
      5734       5735       5746       5745       5855       5856       5867       5866  
      5735       5736       5747       5746       5856       5857       5868       5867  
      5736       5737       5748       5747       5857       5858       5869       5868  
      5737       5738       5749       5748       5858       5859       5870       5869  
      5738       5739       5750       5749       5859       5860       5871       5870  
      5739       5740       5751       5750       5860       5861       5872       5871  
      5740       5741       5752       5751       5861       5862       5873       5872  
      5741       5742       5753       5752       5862       5863       5874       5873  
      5743       5744       5755       5754       5864       5865       5876       5875  
      5744       5745       5756       5755       5865       5866       5877       5876  
      5745       5746       5757       5756       5866       5867       5878       5877  
      5746       5747       5758       5757       5867       5868       5879       5878  
      5747       5748       5759       5758       5868       5869       5880       5879  
      5748       5749       5760       5759       5869       5870       5881       5880  
      5749       5750       5761       5760       5870       5871       5882       5881  
      5750       5751       5762       5761       5871       5872       5883       5882  
      5751       5752       5763       5762       5872       5873       5884       5883  
      5752       5753       5764       5763       5873       5874       5885       5884  
      5754       5755       5766       5765       5875       5876       5887       5886  
      5755       5756       5767       5766       5876       5877       5888       5887  
      5756       5757       5768       5767       5877       5878       5889       5888  
      5757       5758       5769       5768       5878       5879       5890       5889  
      5758       5759       5770       5769       5879       5880       5891       5890  
      5759       5760       5771       5770       5880       5881       5892       5891  
      5760       5761       5772       5771       5881       5882       5893       5892  
      5761       5762       5773       5772       5882       5883       5894       5893  
      5762       5763       5774       5773       5883       5884       5895       5894  
      5763       5764       5775       5774       5884       5885       5896       5895  
      5765       5766       5777       5776       5886       5887       5898       5897  
      5766       5767       5778       5777       5887       5888       5899       5898  
      5767       5768       5779       5778       5888       5889       5900       5899  
      5768       5769       5780       5779       5889       5890       5901       5900  
      5769       5770       5781       5780       5890       5891       5902       5901  
      5770       5771       5782       5781       5891       5892       5903       5902  
      5771       5772       5783       5782       5892       5893       5904       5903  
      5772       5773       5784       5783       5893       5894       5905       5904  
      5773       5774       5785       5784       5894       5895       5906       5905  
      5774       5775       5786       5785       5895       5896       5907       5906  
      5776       5777       5788       5787       5897       5898       5909       5908  
      5777       5778       5789       5788       5898       5899       5910       5909  
      5778       5779       5790       5789       5899       5900       5911       5910  
      5779       5780       5791       5790       5900       5901       5912       5911  
      5780       5781       5792       5791       5901       5902       5913       5912  
      5781       5782       5793       5792       5902       5903       5914       5913  
      5782       5783       5794       5793       5903       5904       5915       5914  
      5783       5784       5795       5794       5904       5905       5916       5915  
      5784       5785       5796       5795       5905       5906       5917       5916  
      5785       5786       5797       5796       5906       5907       5918       5917  
      5787       5788       5799       5798       5908       5909       5920       5919  
      5788       5789       5800       5799       5909       5910       5921       5920  
      5789       5790       5801       5800       5910       5911       5922       5921  
      5790       5791       5802       5801       5911       5912       5923       5922  
      5791       5792       5803       5802       5912       5913       5924       5923  
      5792       5793       5804       5803       5913       5914       5925       5924  
      5793       5794       5805       5804       5914       5915       5926       5925  
      5794       5795       5806       5805       5915       5916       5927       5926  
      5795       5796       5807       5806       5916       5917       5928       5927  
      5796       5797       5808       5807       5917       5918       5929       5928  
      5809       5810       5821       5820       5930       5931       5942       5941  
      5810       5811       5822       5821       5931       5932       5943       5942  
      5811       5812       5823       5822       5932       5933       5944       5943  
      5812       5813       5824       5823       5933       5934       5945       5944  
      5813       5814       5825       5824       5934       5935       5946       5945  
      5814       5815       5826       5825       5935       5936       5947       5946  
      5815       5816       5827       5826       5936       5937       5948       5947  
      5816       5817       5828       5827       5937       5938       5949       5948  
      5817       5818       5829       5828       5938       5939       5950       5949  
      5818       5819       5830       5829       5939       5940       5951       5950  
      5820       5821       5832       5831       5941       5942       5953       5952  
      5821       5822       5833       5832       5942       5943       5954       5953  
      5822       5823       5834       5833       5943       5944       5955       5954  
      5823       5824       5835       5834       5944       5945       5956       5955  
      5824       5825       5836       5835       5945       5946       5957       5956  
      5825       5826       5837       5836       5946       5947       5958       5957  
      5826       5827       5838       5837       5947       5948       5959       5958  
      5827       5828       5839       5838       5948       5949       5960       5959  
      5828       5829       5840       5839       5949       5950       5961       5960  
      5829       5830       5841       5840       5950       5951       5962       5961  
      5831       5832       5843       5842       5952       5953       5964       5963  
      5832       5833       5844       5843       5953       5954       5965       5964  
      5833       5834       5845       5844       5954       5955       5966       5965  
      5834       5835       5846       5845       5955       5956       5967       5966  
      5835       5836       5847       5846       5956       5957       5968       5967  
      5836       5837       5848       5847       5957       5958       5969       5968  
      5837       5838       5849       5848       5958       5959       5970       5969  
      5838       5839       5850       5849       5959       5960       5971       5970  
      5839       5840       5851       5850       5960       5961       5972       5971  
      5840       5841       5852       5851       5961       5962       5973       5972  
      5842       5843       5854       5853       5963       5964       5975       5974  
      5843       5844       5855       5854       5964       5965       5976       5975  
      5844       5845       5856       5855       5965       5966       5977       5976  
      5845       5846       5857       5856       5966       5967       5978       5977  
      5846       5847       5858       5857       5967       5968       5979       5978  
      5847       5848       5859       5858       5968       5969       5980       5979  
      5848       5849       5860       5859       5969       5970       5981       5980  
      5849       5850       5861       5860       5970       5971       5982       5981  
      5850       5851       5862       5861       5971       5972       5983       5982  
      5851       5852       5863       5862       5972       5973       5984       5983  
      5853       5854       5865       5864       5974       5975       5986       5985  
      5854       5855       5866       5865       5975       5976       5987       5986  
      5855       5856       5867       5866       5976       5977       5988       5987  
      5856       5857       5868       5867       5977       5978       5989       5988  
      5857       5858       5869       5868       5978       5979       5990       5989  
      5858       5859       5870       5869       5979       5980       5991       5990  
      5859       5860       5871       5870       5980       5981       5992       5991  
      5860       5861       5872       5871       5981       5982       5993       5992  
      5861       5862       5873       5872       5982       5983       5994       5993  
      5862       5863       5874       5873       5983       5984       5995       5994  
      5864       5865       5876       5875       5985       5986       5997       5996  
      5865       5866       5877       5876       5986       5987       5998       5997  
      5866       5867       5878       5877       5987       5988       5999       5998  
      5867       5868       5879       5878       5988       5989       6000       5999  
      5868       5869       5880       5879       5989       5990       6001       6000  
      5869       5870       5881       5880       5990       5991       6002       6001  
      5870       5871       5882       5881       5991       5992       6003       6002  
      5871       5872       5883       5882       5992       5993       6004       6003  
      5872       5873       5884       5883       5993       5994       6005       6004  
      5873       5874       5885       5884       5994       5995       6006       6005  
      5875       5876       5887       5886       5996       5997       6008       6007  
      5876       5877       5888       5887       5997       5998       6009       6008  
      5877       5878       5889       5888       5998       5999       6010       6009  
      5878       5879       5890       5889       5999       6000       6011       6010  
      5879       5880       5891       5890       6000       6001       6012       6011  
      5880       5881       5892       5891       6001       6002       6013       6012  
      5881       5882       5893       5892       6002       6003       6014       6013  
      5882       5883       5894       5893       6003       6004       6015       6014  
      5883       5884       5895       5894       6004       6005       6016       6015  
      5884       5885       5896       5895       6005       6006       6017       6016  
      5886       5887       5898       5897       6007       6008       6019       6018  
      5887       5888       5899       5898       6008       6009       6020       6019  
      5888       5889       5900       5899       6009       6010       6021       6020  
      5889       5890       5901       5900       6010       6011       6022       6021  
      5890       5891       5902       5901       6011       6012       6023       6022  
      5891       5892       5903       5902       6012       6013       6024       6023  
      5892       5893       5904       5903       6013       6014       6025       6024  
      5893       5894       5905       5904       6014       6015       6026       6025  
      5894       5895       5906       5905       6015       6016       6027       6026  
      5895       5896       5907       5906       6016       6017       6028       6027  
      5897       5898       5909       5908       6018       6019       6030       6029  
      5898       5899       5910       5909       6019       6020       6031       6030  
      5899       5900       5911       5910       6020       6021       6032       6031  
      5900       5901       5912       5911       6021       6022       6033       6032  
      5901       5902       5913       5912       6022       6023       6034       6033  
      5902       5903       5914       5913       6023       6024       6035       6034  
      5903       5904       5915       5914       6024       6025       6036       6035  
      5904       5905       5916       5915       6025       6026       6037       6036  
      5905       5906       5917       5916       6026       6027       6038       6037  
      5906       5907       5918       5917       6027       6028       6039       6038  
      5908       5909       5920       5919       6029       6030       6041       6040  
      5909       5910       5921       5920       6030       6031       6042       6041  
      5910       5911       5922       5921       6031       6032       6043       6042  
      5911       5912       5923       5922       6032       6033       6044       6043  
      5912       5913       5924       5923       6033       6034       6045       6044  
      5913       5914       5925       5924       6034       6035       6046       6045  
      5914       5915       5926       5925       6035       6036       6047       6046  
      5915       5916       5927       5926       6036       6037       6048       6047  
      5916       5917       5928       5927       6037       6038       6049       6048  
      5917       5918       5929       5928       6038       6039       6050       6049  
      5930       5931       5942       5941       6051       6052       6063       6062  
      5931       5932       5943       5942       6052       6053       6064       6063  
      5932       5933       5944       5943       6053       6054       6065       6064  
      5933       5934       5945       5944       6054       6055       6066       6065  
      5934       5935       5946       5945       6055       6056       6067       6066  
      5935       5936       5947       5946       6056       6057       6068       6067  
      5936       5937       5948       5947       6057       6058       6069       6068  
      5937       5938       5949       5948       6058       6059       6070       6069  
      5938       5939       5950       5949       6059       6060       6071       6070  
      5939       5940       5951       5950       6060       6061       6072       6071  
      5941       5942       5953       5952       6062       6063       6074       6073  
      5942       5943       5954       5953       6063       6064       6075       6074  
      5943       5944       5955       5954       6064       6065       6076       6075  
      5944       5945       5956       5955       6065       6066       6077       6076  
      5945       5946       5957       5956       6066       6067       6078       6077  
      5946       5947       5958       5957       6067       6068       6079       6078  
      5947       5948       5959       5958       6068       6069       6080       6079  
      5948       5949       5960       5959       6069       6070       6081       6080  
      5949       5950       5961       5960       6070       6071       6082       6081  
      5950       5951       5962       5961       6071       6072       6083       6082  
      5952       5953       5964       5963       6073       6074       6085       6084  
      5953       5954       5965       5964       6074       6075       6086       6085  
      5954       5955       5966       5965       6075       6076       6087       6086  
      5955       5956       5967       5966       6076       6077       6088       6087  
      5956       5957       5968       5967       6077       6078       6089       6088  
      5957       5958       5969       5968       6078       6079       6090       6089  
      5958       5959       5970       5969       6079       6080       6091       6090  
      5959       5960       5971       5970       6080       6081       6092       6091  
      5960       5961       5972       5971       6081       6082       6093       6092  
      5961       5962       5973       5972       6082       6083       6094       6093  
      5963       5964       5975       5974       6084       6085       6096       6095  
      5964       5965       5976       5975       6085       6086       6097       6096  
      5965       5966       5977       5976       6086       6087       6098       6097  
      5966       5967       5978       5977       6087       6088       6099       6098  
      5967       5968       5979       5978       6088       6089       6100       6099  
      5968       5969       5980       5979       6089       6090       6101       6100  
      5969       5970       5981       5980       6090       6091       6102       6101  
      5970       5971       5982       5981       6091       6092       6103       6102  
      5971       5972       5983       5982       6092       6093       6104       6103  
      5972       5973       5984       5983       6093       6094       6105       6104  
      5974       5975       5986       5985       6095       6096       6107       6106  
      5975       5976       5987       5986       6096       6097       6108       6107  
      5976       5977       5988       5987       6097       6098       6109       6108  
      5977       5978       5989       5988       6098       6099       6110       6109  
      5978       5979       5990       5989       6099       6100       6111       6110  
      5979       5980       5991       5990       6100       6101       6112       6111  
      5980       5981       5992       5991       6101       6102       6113       6112  
      5981       5982       5993       5992       6102       6103       6114       6113  
      5982       5983       5994       5993       6103       6104       6115       6114  
      5983       5984       5995       5994       6104       6105       6116       6115  
      5985       5986       5997       5996       6106       6107       6118       6117  
      5986       5987       5998       5997       6107       6108       6119       6118  
      5987       5988       5999       5998       6108       6109       6120       6119  
      5988       5989       6000       5999       6109       6110       6121       6120  
      5989       5990       6001       6000       6110       6111       6122       6121  
      5990       5991       6002       6001       6111       6112       6123       6122  
      5991       5992       6003       6002       6112       6113       6124       6123  
      5992       5993       6004       6003       6113       6114       6125       6124  
      5993       5994       6005       6004       6114       6115       6126       6125  
      5994       5995       6006       6005       6115       6116       6127       6126  
      5996       5997       6008       6007       6117       6118       6129       6128  
      5997       5998       6009       6008       6118       6119       6130       6129  
      5998       5999       6010       6009       6119       6120       6131       6130  
      5999       6000       6011       6010       6120       6121       6132       6131  
      6000       6001       6012       6011       6121       6122       6133       6132  
      6001       6002       6013       6012       6122       6123       6134       6133  
      6002       6003       6014       6013       6123       6124       6135       6134  
      6003       6004       6015       6014       6124       6125       6136       6135  
      6004       6005       6016       6015       6125       6126       6137       6136  
      6005       6006       6017       6016       6126       6127       6138       6137  
      6007       6008       6019       6018       6128       6129       6140       6139  
      6008       6009       6020       6019       6129       6130       6141       6140  
      6009       6010       6021       6020       6130       6131       6142       6141  
      6010       6011       6022       6021       6131       6132       6143       6142  
      6011       6012       6023       6022       6132       6133       6144       6143  
      6012       6013       6024       6023       6133       6134       6145       6144  
      6013       6014       6025       6024       6134       6135       6146       6145  
      6014       6015       6026       6025       6135       6136       6147       6146  
      6015       6016       6027       6026       6136       6137       6148       6147  
      6016       6017       6028       6027       6137       6138       6149       6148  
      6018       6019       6030       6029       6139       6140       6151       6150  
      6019       6020       6031       6030       6140       6141       6152       6151  
      6020       6021       6032       6031       6141       6142       6153       6152  
      6021       6022       6033       6032       6142       6143       6154       6153  
      6022       6023       6034       6033       6143       6144       6155       6154  
      6023       6024       6035       6034       6144       6145       6156       6155  
      6024       6025       6036       6035       6145       6146       6157       6156  
      6025       6026       6037       6036       6146       6147       6158       6157  
      6026       6027       6038       6037       6147       6148       6159       6158  
      6027       6028       6039       6038       6148       6149       6160       6159  
      6029       6030       6041       6040       6150       6151       6162       6161  
      6030       6031       6042       6041       6151       6152       6163       6162  
      6031       6032       6043       6042       6152       6153       6164       6163  
      6032       6033       6044       6043       6153       6154       6165       6164  
      6033       6034       6045       6044       6154       6155       6166       6165  
      6034       6035       6046       6045       6155       6156       6167       6166  
      6035       6036       6047       6046       6156       6157       6168       6167  
      6036       6037       6048       6047       6157       6158       6169       6168  
      6037       6038       6049       6048       6158       6159       6170       6169  
      6038       6039       6050       6049       6159       6160       6171       6170  
      6051       6052       6063       6062       6172       6173       6184       6183  
      6052       6053       6064       6063       6173       6174       6185       6184  
      6053       6054       6065       6064       6174       6175       6186       6185  
      6054       6055       6066       6065       6175       6176       6187       6186  
      6055       6056       6067       6066       6176       6177       6188       6187  
      6056       6057       6068       6067       6177       6178       6189       6188  
      6057       6058       6069       6068       6178       6179       6190       6189  
      6058       6059       6070       6069       6179       6180       6191       6190  
      6059       6060       6071       6070       6180       6181       6192       6191  
      6060       6061       6072       6071       6181       6182       6193       6192  
      6062       6063       6074       6073       6183       6184       6195       6194  
      6063       6064       6075       6074       6184       6185       6196       6195  
      6064       6065       6076       6075       6185       6186       6197       6196  
      6065       6066       6077       6076       6186       6187       6198       6197  
      6066       6067       6078       6077       6187       6188       6199       6198  
      6067       6068       6079       6078       6188       6189       6200       6199  
      6068       6069       6080       6079       6189       6190       6201       6200  
      6069       6070       6081       6080       6190       6191       6202       6201  
      6070       6071       6082       6081       6191       6192       6203       6202  
      6071       6072       6083       6082       6192       6193       6204       6203  
      6073       6074       6085       6084       6194       6195       6206       6205  
      6074       6075       6086       6085       6195       6196       6207       6206  
      6075       6076       6087       6086       6196       6197       6208       6207  
      6076       6077       6088       6087       6197       6198       6209       6208  
      6077       6078       6089       6088       6198       6199       6210       6209  
      6078       6079       6090       6089       6199       6200       6211       6210  
      6079       6080       6091       6090       6200       6201       6212       6211  
      6080       6081       6092       6091       6201       6202       6213       6212  
      6081       6082       6093       6092       6202       6203       6214       6213  
      6082       6083       6094       6093       6203       6204       6215       6214  
      6084       6085       6096       6095       6205       6206       6217       6216  
      6085       6086       6097       6096       6206       6207       6218       6217  
      6086       6087       6098       6097       6207       6208       6219       6218  
      6087       6088       6099       6098       6208       6209       6220       6219  
      6088       6089       6100       6099       6209       6210       6221       6220  
      6089       6090       6101       6100       6210       6211       6222       6221  
      6090       6091       6102       6101       6211       6212       6223       6222  
      6091       6092       6103       6102       6212       6213       6224       6223  
      6092       6093       6104       6103       6213       6214       6225       6224  
      6093       6094       6105       6104       6214       6215       6226       6225  
      6095       6096       6107       6106       6216       6217       6228       6227  
      6096       6097       6108       6107       6217       6218       6229       6228  
      6097       6098       6109       6108       6218       6219       6230       6229  
      6098       6099       6110       6109       6219       6220       6231       6230  
      6099       6100       6111       6110       6220       6221       6232       6231  
      6100       6101       6112       6111       6221       6222       6233       6232  
      6101       6102       6113       6112       6222       6223       6234       6233  
      6102       6103       6114       6113       6223       6224       6235       6234  
      6103       6104       6115       6114       6224       6225       6236       6235  
      6104       6105       6116       6115       6225       6226       6237       6236  
      6106       6107       6118       6117       6227       6228       6239       6238  
      6107       6108       6119       6118       6228       6229       6240       6239  
      6108       6109       6120       6119       6229       6230       6241       6240  
      6109       6110       6121       6120       6230       6231       6242       6241  
      6110       6111       6122       6121       6231       6232       6243       6242  
      6111       6112       6123       6122       6232       6233       6244       6243  
      6112       6113       6124       6123       6233       6234       6245       6244  
      6113       6114       6125       6124       6234       6235       6246       6245  
      6114       6115       6126       6125       6235       6236       6247       6246  
      6115       6116       6127       6126       6236       6237       6248       6247  
      6117       6118       6129       6128       6238       6239       6250       6249  
      6118       6119       6130       6129       6239       6240       6251       6250  
      6119       6120       6131       6130       6240       6241       6252       6251  
      6120       6121       6132       6131       6241       6242       6253       6252  
      6121       6122       6133       6132       6242       6243       6254       6253  
      6122       6123       6134       6133       6243       6244       6255       6254  
      6123       6124       6135       6134       6244       6245       6256       6255  
      6124       6125       6136       6135       6245       6246       6257       6256  
      6125       6126       6137       6136       6246       6247       6258       6257  
      6126       6127       6138       6137       6247       6248       6259       6258  
      6128       6129       6140       6139       6249       6250       6261       6260  
      6129       6130       6141       6140       6250       6251       6262       6261  
      6130       6131       6142       6141       6251       6252       6263       6262  
      6131       6132       6143       6142       6252       6253       6264       6263  
      6132       6133       6144       6143       6253       6254       6265       6264  
      6133       6134       6145       6144       6254       6255       6266       6265  
      6134       6135       6146       6145       6255       6256       6267       6266  
      6135       6136       6147       6146       6256       6257       6268       6267  
      6136       6137       6148       6147       6257       6258       6269       6268  
      6137       6138       6149       6148       6258       6259       6270       6269  
      6139       6140       6151       6150       6260       6261       6272       6271  
      6140       6141       6152       6151       6261       6262       6273       6272  
      6141       6142       6153       6152       6262       6263       6274       6273  
      6142       6143       6154       6153       6263       6264       6275       6274  
      6143       6144       6155       6154       6264       6265       6276       6275  
      6144       6145       6156       6155       6265       6266       6277       6276  
      6145       6146       6157       6156       6266       6267       6278       6277  
      6146       6147       6158       6157       6267       6268       6279       6278  
      6147       6148       6159       6158       6268       6269       6280       6279  
      6148       6149       6160       6159       6269       6270       6281       6280  
      6150       6151       6162       6161       6271       6272       6283       6282  
      6151       6152       6163       6162       6272       6273       6284       6283  
      6152       6153       6164       6163       6273       6274       6285       6284  
      6153       6154       6165       6164       6274       6275       6286       6285  
      6154       6155       6166       6165       6275       6276       6287       6286  
      6155       6156       6167       6166       6276       6277       6288       6287  
      6156       6157       6168       6167       6277       6278       6289       6288  
      6157       6158       6169       6168       6278       6279       6290       6289  
      6158       6159       6170       6169       6279       6280       6291       6290  
      6159       6160       6171       6170       6280       6281       6292       6291  
      6172       6173       6184       6183       6293       6294       6305       6304  
      6173       6174       6185       6184       6294       6295       6306       6305  
      6174       6175       6186       6185       6295       6296       6307       6306  
      6175       6176       6187       6186       6296       6297       6308       6307  
      6176       6177       6188       6187       6297       6298       6309       6308  
      6177       6178       6189       6188       6298       6299       6310       6309  
      6178       6179       6190       6189       6299       6300       6311       6310  
      6179       6180       6191       6190       6300       6301       6312       6311  
      6180       6181       6192       6191       6301       6302       6313       6312  
      6181       6182       6193       6192       6302       6303       6314       6313  
      6183       6184       6195       6194       6304       6305       6316       6315  
      6184       6185       6196       6195       6305       6306       6317       6316  
      6185       6186       6197       6196       6306       6307       6318       6317  
      6186       6187       6198       6197       6307       6308       6319       6318  
      6187       6188       6199       6198       6308       6309       6320       6319  
      6188       6189       6200       6199       6309       6310       6321       6320  
      6189       6190       6201       6200       6310       6311       6322       6321  
      6190       6191       6202       6201       6311       6312       6323       6322  
      6191       6192       6203       6202       6312       6313       6324       6323  
      6192       6193       6204       6203       6313       6314       6325       6324  
      6194       6195       6206       6205       6315       6316       6327       6326  
      6195       6196       6207       6206       6316       6317       6328       6327  
      6196       6197       6208       6207       6317       6318       6329       6328  
      6197       6198       6209       6208       6318       6319       6330       6329  
      6198       6199       6210       6209       6319       6320       6331       6330  
      6199       6200       6211       6210       6320       6321       6332       6331  
      6200       6201       6212       6211       6321       6322       6333       6332  
      6201       6202       6213       6212       6322       6323       6334       6333  
      6202       6203       6214       6213       6323       6324       6335       6334  
      6203       6204       6215       6214       6324       6325       6336       6335  
      6205       6206       6217       6216       6326       6327       6338       6337  
      6206       6207       6218       6217       6327       6328       6339       6338  
      6207       6208       6219       6218       6328       6329       6340       6339  
      6208       6209       6220       6219       6329       6330       6341       6340  
      6209       6210       6221       6220       6330       6331       6342       6341  
      6210       6211       6222       6221       6331       6332       6343       6342  
      6211       6212       6223       6222       6332       6333       6344       6343  
      6212       6213       6224       6223       6333       6334       6345       6344  
      6213       6214       6225       6224       6334       6335       6346       6345  
      6214       6215       6226       6225       6335       6336       6347       6346  
      6216       6217       6228       6227       6337       6338       6349       6348  
      6217       6218       6229       6228       6338       6339       6350       6349  
      6218       6219       6230       6229       6339       6340       6351       6350  
      6219       6220       6231       6230       6340       6341       6352       6351  
      6220       6221       6232       6231       6341       6342       6353       6352  
      6221       6222       6233       6232       6342       6343       6354       6353  
      6222       6223       6234       6233       6343       6344       6355       6354  
      6223       6224       6235       6234       6344       6345       6356       6355  
      6224       6225       6236       6235       6345       6346       6357       6356  
      6225       6226       6237       6236       6346       6347       6358       6357  
      6227       6228       6239       6238       6348       6349       6360       6359  
      6228       6229       6240       6239       6349       6350       6361       6360  
      6229       6230       6241       6240       6350       6351       6362       6361  
      6230       6231       6242       6241       6351       6352       6363       6362  
      6231       6232       6243       6242       6352       6353       6364       6363  
      6232       6233       6244       6243       6353       6354       6365       6364  
      6233       6234       6245       6244       6354       6355       6366       6365  
      6234       6235       6246       6245       6355       6356       6367       6366  
      6235       6236       6247       6246       6356       6357       6368       6367  
      6236       6237       6248       6247       6357       6358       6369       6368  
      6238       6239       6250       6249       6359       6360       6371       6370  
      6239       6240       6251       6250       6360       6361       6372       6371  
      6240       6241       6252       6251       6361       6362       6373       6372  
      6241       6242       6253       6252       6362       6363       6374       6373  
      6242       6243       6254       6253       6363       6364       6375       6374  
      6243       6244       6255       6254       6364       6365       6376       6375  
      6244       6245       6256       6255       6365       6366       6377       6376  
      6245       6246       6257       6256       6366       6367       6378       6377  
      6246       6247       6258       6257       6367       6368       6379       6378  
      6247       6248       6259       6258       6368       6369       6380       6379  
      6249       6250       6261       6260       6370       6371       6382       6381  
      6250       6251       6262       6261       6371       6372       6383       6382  
      6251       6252       6263       6262       6372       6373       6384       6383  
      6252       6253       6264       6263       6373       6374       6385       6384  
      6253       6254       6265       6264       6374       6375       6386       6385  
      6254       6255       6266       6265       6375       6376       6387       6386  
      6255       6256       6267       6266       6376       6377       6388       6387  
      6256       6257       6268       6267       6377       6378       6389       6388  
      6257       6258       6269       6268       6378       6379       6390       6389  
      6258       6259       6270       6269       6379       6380       6391       6390  
      6260       6261       6272       6271       6381       6382       6393       6392  
      6261       6262       6273       6272       6382       6383       6394       6393  
      6262       6263       6274       6273       6383       6384       6395       6394  
      6263       6264       6275       6274       6384       6385       6396       6395  
      6264       6265       6276       6275       6385       6386       6397       6396  
      6265       6266       6277       6276       6386       6387       6398       6397  
      6266       6267       6278       6277       6387       6388       6399       6398  
      6267       6268       6279       6278       6388       6389       6400       6399  
      6268       6269       6280       6279       6389       6390       6401       6400  
      6269       6270       6281       6280       6390       6391       6402       6401  
      6271       6272       6283       6282       6392       6393       6404       6403  
      6272       6273       6284       6283       6393       6394       6405       6404  
      6273       6274       6285       6284       6394       6395       6406       6405  
      6274       6275       6286       6285       6395       6396       6407       6406  
      6275       6276       6287       6286       6396       6397       6408       6407  
      6276       6277       6288       6287       6397       6398       6409       6408  
      6277       6278       6289       6288       6398       6399       6410       6409  
      6278       6279       6290       6289       6399       6400       6411       6410  
      6279       6280       6291       6290       6400       6401       6412       6411  
      6280       6281       6292       6291       6401       6402       6413       6412  
      6293       6294       6305       6304       6414       6415       6426       6425  
      6294       6295       6306       6305       6415       6416       6427       6426  
      6295       6296       6307       6306       6416       6417       6428       6427  
      6296       6297       6308       6307       6417       6418       6429       6428  
      6297       6298       6309       6308       6418       6419       6430       6429  
      6298       6299       6310       6309       6419       6420       6431       6430  
      6299       6300       6311       6310       6420       6421       6432       6431  
      6300       6301       6312       6311       6421       6422       6433       6432  
      6301       6302       6313       6312       6422       6423       6434       6433  
      6302       6303       6314       6313       6423       6424       6435       6434  
      6304       6305       6316       6315       6425       6426       6437       6436  
      6305       6306       6317       6316       6426       6427       6438       6437  
      6306       6307       6318       6317       6427       6428       6439       6438  
      6307       6308       6319       6318       6428       6429       6440       6439  
      6308       6309       6320       6319       6429       6430       6441       6440  
      6309       6310       6321       6320       6430       6431       6442       6441  
      6310       6311       6322       6321       6431       6432       6443       6442  
      6311       6312       6323       6322       6432       6433       6444       6443  
      6312       6313       6324       6323       6433       6434       6445       6444  
      6313       6314       6325       6324       6434       6435       6446       6445  
      6315       6316       6327       6326       6436       6437       6448       6447  
      6316       6317       6328       6327       6437       6438       6449       6448  
      6317       6318       6329       6328       6438       6439       6450       6449  
      6318       6319       6330       6329       6439       6440       6451       6450  
      6319       6320       6331       6330       6440       6441       6452       6451  
      6320       6321       6332       6331       6441       6442       6453       6452  
      6321       6322       6333       6332       6442       6443       6454       6453  
      6322       6323       6334       6333       6443       6444       6455       6454  
      6323       6324       6335       6334       6444       6445       6456       6455  
      6324       6325       6336       6335       6445       6446       6457       6456  
      6326       6327       6338       6337       6447       6448       6459       6458  
      6327       6328       6339       6338       6448       6449       6460       6459  
      6328       6329       6340       6339       6449       6450       6461       6460  
      6329       6330       6341       6340       6450       6451       6462       6461  
      6330       6331       6342       6341       6451       6452       6463       6462  
      6331       6332       6343       6342       6452       6453       6464       6463  
      6332       6333       6344       6343       6453       6454       6465       6464  
      6333       6334       6345       6344       6454       6455       6466       6465  
      6334       6335       6346       6345       6455       6456       6467       6466  
      6335       6336       6347       6346       6456       6457       6468       6467  
      6337       6338       6349       6348       6458       6459       6470       6469  
      6338       6339       6350       6349       6459       6460       6471       6470  
      6339       6340       6351       6350       6460       6461       6472       6471  
      6340       6341       6352       6351       6461       6462       6473       6472  
      6341       6342       6353       6352       6462       6463       6474       6473  
      6342       6343       6354       6353       6463       6464       6475       6474  
      6343       6344       6355       6354       6464       6465       6476       6475  
      6344       6345       6356       6355       6465       6466       6477       6476  
      6345       6346       6357       6356       6466       6467       6478       6477  
      6346       6347       6358       6357       6467       6468       6479       6478  
      6348       6349       6360       6359       6469       6470       6481       6480  
      6349       6350       6361       6360       6470       6471       6482       6481  
      6350       6351       6362       6361       6471       6472       6483       6482  
      6351       6352       6363       6362       6472       6473       6484       6483  
      6352       6353       6364       6363       6473       6474       6485       6484  
      6353       6354       6365       6364       6474       6475       6486       6485  
      6354       6355       6366       6365       6475       6476       6487       6486  
      6355       6356       6367       6366       6476       6477       6488       6487  
      6356       6357       6368       6367       6477       6478       6489       6488  
      6357       6358       6369       6368       6478       6479       6490       6489  
      6359       6360       6371       6370       6480       6481       6492       6491  
      6360       6361       6372       6371       6481       6482       6493       6492  
      6361       6362       6373       6372       6482       6483       6494       6493  
      6362       6363       6374       6373       6483       6484       6495       6494  
      6363       6364       6375       6374       6484       6485       6496       6495  
      6364       6365       6376       6375       6485       6486       6497       6496  
      6365       6366       6377       6376       6486       6487       6498       6497  
      6366       6367       6378       6377       6487       6488       6499       6498  
      6367       6368       6379       6378       6488       6489       6500       6499  
      6368       6369       6380       6379       6489       6490       6501       6500  
      6370       6371       6382       6381       6491       6492       6503       6502  
      6371       6372       6383       6382       6492       6493       6504       6503  
      6372       6373       6384       6383       6493       6494       6505       6504  
      6373       6374       6385       6384       6494       6495       6506       6505  
      6374       6375       6386       6385       6495       6496       6507       6506  
      6375       6376       6387       6386       6496       6497       6508       6507  
      6376       6377       6388       6387       6497       6498       6509       6508  
      6377       6378       6389       6388       6498       6499       6510       6509  
      6378       6379       6390       6389       6499       6500       6511       6510  
      6379       6380       6391       6390       6500       6501       6512       6511  
      6381       6382       6393       6392       6502       6503       6514       6513  
      6382       6383       6394       6393       6503       6504       6515       6514  
      6383       6384       6395       6394       6504       6505       6516       6515  
      6384       6385       6396       6395       6505       6506       6517       6516  
      6385       6386       6397       6396       6506       6507       6518       6517  
      6386       6387       6398       6397       6507       6508       6519       6518  
      6387       6388       6399       6398       6508       6509       6520       6519  
      6388       6389       6400       6399       6509       6510       6521       6520  
      6389       6390       6401       6400       6510       6511       6522       6521  
      6390       6391       6402       6401       6511       6512       6523       6522  
      6392       6393       6404       6403       6513       6514       6525       6524  
      6393       6394       6405       6404       6514       6515       6526       6525  
      6394       6395       6406       6405       6515       6516       6527       6526  
      6395       6396       6407       6406       6516       6517       6528       6527  
      6396       6397       6408       6407       6517       6518       6529       6528  
      6397       6398       6409       6408       6518       6519       6530       6529  
      6398       6399       6410       6409       6519       6520       6531       6530  
      6399       6400       6411       6410       6520       6521       6532       6531  
      6400       6401       6412       6411       6521       6522       6533       6532  
      6401       6402       6413       6412       6522       6523       6534       6533  
      6414       6415       6426       6425       6535       6536       6547       6546  
      6415       6416       6427       6426       6536       6537       6548       6547  
      6416       6417       6428       6427       6537       6538       6549       6548  
      6417       6418       6429       6428       6538       6539       6550       6549  
      6418       6419       6430       6429       6539       6540       6551       6550  
      6419       6420       6431       6430       6540       6541       6552       6551  
      6420       6421       6432       6431       6541       6542       6553       6552  
      6421       6422       6433       6432       6542       6543       6554       6553  
      6422       6423       6434       6433       6543       6544       6555       6554  
      6423       6424       6435       6434       6544       6545       6556       6555  
      6425       6426       6437       6436       6546       6547       6558       6557  
      6426       6427       6438       6437       6547       6548       6559       6558  
      6427       6428       6439       6438       6548       6549       6560       6559  
      6428       6429       6440       6439       6549       6550       6561       6560  
      6429       6430       6441       6440       6550       6551       6562       6561  
      6430       6431       6442       6441       6551       6552       6563       6562  
      6431       6432       6443       6442       6552       6553       6564       6563  
      6432       6433       6444       6443       6553       6554       6565       6564  
      6433       6434       6445       6444       6554       6555       6566       6565  
      6434       6435       6446       6445       6555       6556       6567       6566  
      6436       6437       6448       6447       6557       6558       6569       6568  
      6437       6438       6449       6448       6558       6559       6570       6569  
      6438       6439       6450       6449       6559       6560       6571       6570  
      6439       6440       6451       6450       6560       6561       6572       6571  
      6440       6441       6452       6451       6561       6562       6573       6572  
      6441       6442       6453       6452       6562       6563       6574       6573  
      6442       6443       6454       6453       6563       6564       6575       6574  
      6443       6444       6455       6454       6564       6565       6576       6575  
      6444       6445       6456       6455       6565       6566       6577       6576  
      6445       6446       6457       6456       6566       6567       6578       6577  
      6447       6448       6459       6458       6568       6569       6580       6579  
      6448       6449       6460       6459       6569       6570       6581       6580  
      6449       6450       6461       6460       6570       6571       6582       6581  
      6450       6451       6462       6461       6571       6572       6583       6582  
      6451       6452       6463       6462       6572       6573       6584       6583  
      6452       6453       6464       6463       6573       6574       6585       6584  
      6453       6454       6465       6464       6574       6575       6586       6585  
      6454       6455       6466       6465       6575       6576       6587       6586  
      6455       6456       6467       6466       6576       6577       6588       6587  
      6456       6457       6468       6467       6577       6578       6589       6588  
      6458       6459       6470       6469       6579       6580       6591       6590  
      6459       6460       6471       6470       6580       6581       6592       6591  
      6460       6461       6472       6471       6581       6582       6593       6592  
      6461       6462       6473       6472       6582       6583       6594       6593  
      6462       6463       6474       6473       6583       6584       6595       6594  
      6463       6464       6475       6474       6584       6585       6596       6595  
      6464       6465       6476       6475       6585       6586       6597       6596  
      6465       6466       6477       6476       6586       6587       6598       6597  
      6466       6467       6478       6477       6587       6588       6599       6598  
      6467       6468       6479       6478       6588       6589       6600       6599  
      6469       6470       6481       6480       6590       6591       6602       6601  
      6470       6471       6482       6481       6591       6592       6603       6602  
      6471       6472       6483       6482       6592       6593       6604       6603  
      6472       6473       6484       6483       6593       6594       6605       6604  
      6473       6474       6485       6484       6594       6595       6606       6605  
      6474       6475       6486       6485       6595       6596       6607       6606  
      6475       6476       6487       6486       6596       6597       6608       6607  
      6476       6477       6488       6487       6597       6598       6609       6608  
      6477       6478       6489       6488       6598       6599       6610       6609  
      6478       6479       6490       6489       6599       6600       6611       6610  
      6480       6481       6492       6491       6601       6602       6613       6612  
      6481       6482       6493       6492       6602       6603       6614       6613  
      6482       6483       6494       6493       6603       6604       6615       6614  
      6483       6484       6495       6494       6604       6605       6616       6615  
      6484       6485       6496       6495       6605       6606       6617       6616  
      6485       6486       6497       6496       6606       6607       6618       6617  
      6486       6487       6498       6497       6607       6608       6619       6618  
      6487       6488       6499       6498       6608       6609       6620       6619  
      6488       6489       6500       6499       6609       6610       6621       6620  
      6489       6490       6501       6500       6610       6611       6622       6621  
      6491       6492       6503       6502       6612       6613       6624       6623  
      6492       6493       6504       6503       6613       6614       6625       6624  
      6493       6494       6505       6504       6614       6615       6626       6625  
      6494       6495       6506       6505       6615       6616       6627       6626  
      6495       6496       6507       6506       6616       6617       6628       6627  
      6496       6497       6508       6507       6617       6618       6629       6628  
      6497       6498       6509       6508       6618       6619       6630       6629  
      6498       6499       6510       6509       6619       6620       6631       6630  
      6499       6500       6511       6510       6620       6621       6632       6631  
      6500       6501       6512       6511       6621       6622       6633       6632  
      6502       6503       6514       6513       6623       6624       6635       6634  
      6503       6504       6515       6514       6624       6625       6636       6635  
      6504       6505       6516       6515       6625       6626       6637       6636  
      6505       6506       6517       6516       6626       6627       6638       6637  
      6506       6507       6518       6517       6627       6628       6639       6638  
      6507       6508       6519       6518       6628       6629       6640       6639  
      6508       6509       6520       6519       6629       6630       6641       6640  
      6509       6510       6521       6520       6630       6631       6642       6641  
      6510       6511       6522       6521       6631       6632       6643       6642  
      6511       6512       6523       6522       6632       6633       6644       6643  
      6513       6514       6525       6524       6634       6635       6646       6645  
      6514       6515       6526       6525       6635       6636       6647       6646  
      6515       6516       6527       6526       6636       6637       6648       6647  
      6516       6517       6528       6527       6637       6638       6649       6648  
      6517       6518       6529       6528       6638       6639       6650       6649  
      6518       6519       6530       6529       6639       6640       6651       6650  
      6519       6520       6531       6530       6640       6641       6652       6651  
      6520       6521       6532       6531       6641       6642       6653       6652  
      6521       6522       6533       6532       6642       6643       6654       6653  
      6522       6523       6534       6533       6643       6644       6655       6654  
      6535       6536       6547       6546       6656       6657       6668       6667  
      6536       6537       6548       6547       6657       6658       6669       6668  
      6537       6538       6549       6548       6658       6659       6670       6669  
      6538       6539       6550       6549       6659       6660       6671       6670  
      6539       6540       6551       6550       6660       6661       6672       6671  
      6540       6541       6552       6551       6661       6662       6673       6672  
      6541       6542       6553       6552       6662       6663       6674       6673  
      6542       6543       6554       6553       6663       6664       6675       6674  
      6543       6544       6555       6554       6664       6665       6676       6675  
      6544       6545       6556       6555       6665       6666       6677       6676  
      6546       6547       6558       6557       6667       6668       6679       6678  
      6547       6548       6559       6558       6668       6669       6680       6679  
      6548       6549       6560       6559       6669       6670       6681       6680  
      6549       6550       6561       6560       6670       6671       6682       6681  
      6550       6551       6562       6561       6671       6672       6683       6682  
      6551       6552       6563       6562       6672       6673       6684       6683  
      6552       6553       6564       6563       6673       6674       6685       6684  
      6553       6554       6565       6564       6674       6675       6686       6685  
      6554       6555       6566       6565       6675       6676       6687       6686  
      6555       6556       6567       6566       6676       6677       6688       6687  
      6557       6558       6569       6568       6678       6679       6690       6689  
      6558       6559       6570       6569       6679       6680       6691       6690  
      6559       6560       6571       6570       6680       6681       6692       6691  
      6560       6561       6572       6571       6681       6682       6693       6692  
      6561       6562       6573       6572       6682       6683       6694       6693  
      6562       6563       6574       6573       6683       6684       6695       6694  
      6563       6564       6575       6574       6684       6685       6696       6695  
      6564       6565       6576       6575       6685       6686       6697       6696  
      6565       6566       6577       6576       6686       6687       6698       6697  
      6566       6567       6578       6577       6687       6688       6699       6698  
      6568       6569       6580       6579       6689       6690       6701       6700  
      6569       6570       6581       6580       6690       6691       6702       6701  
      6570       6571       6582       6581       6691       6692       6703       6702  
      6571       6572       6583       6582       6692       6693       6704       6703  
      6572       6573       6584       6583       6693       6694       6705       6704  
      6573       6574       6585       6584       6694       6695       6706       6705  
      6574       6575       6586       6585       6695       6696       6707       6706  
      6575       6576       6587       6586       6696       6697       6708       6707  
      6576       6577       6588       6587       6697       6698       6709       6708  
      6577       6578       6589       6588       6698       6699       6710       6709  
      6579       6580       6591       6590       6700       6701       6712       6711  
      6580       6581       6592       6591       6701       6702       6713       6712  
      6581       6582       6593       6592       6702       6703       6714       6713  
      6582       6583       6594       6593       6703       6704       6715       6714  
      6583       6584       6595       6594       6704       6705       6716       6715  
      6584       6585       6596       6595       6705       6706       6717       6716  
      6585       6586       6597       6596       6706       6707       6718       6717  
      6586       6587       6598       6597       6707       6708       6719       6718  
      6587       6588       6599       6598       6708       6709       6720       6719  
      6588       6589       6600       6599       6709       6710       6721       6720  
      6590       6591       6602       6601       6711       6712       6723       6722  
      6591       6592       6603       6602       6712       6713       6724       6723  
      6592       6593       6604       6603       6713       6714       6725       6724  
      6593       6594       6605       6604       6714       6715       6726       6725  
      6594       6595       6606       6605       6715       6716       6727       6726  
      6595       6596       6607       6606       6716       6717       6728       6727  
      6596       6597       6608       6607       6717       6718       6729       6728  
      6597       6598       6609       6608       6718       6719       6730       6729  
      6598       6599       6610       6609       6719       6720       6731       6730  
      6599       6600       6611       6610       6720       6721       6732       6731  
      6601       6602       6613       6612       6722       6723       6734       6733  
      6602       6603       6614       6613       6723       6724       6735       6734  
      6603       6604       6615       6614       6724       6725       6736       6735  
      6604       6605       6616       6615       6725       6726       6737       6736  
      6605       6606       6617       6616       6726       6727       6738       6737  
      6606       6607       6618       6617       6727       6728       6739       6738  
      6607       6608       6619       6618       6728       6729       6740       6739  
      6608       6609       6620       6619       6729       6730       6741       6740  
      6609       6610       6621       6620       6730       6731       6742       6741  
      6610       6611       6622       6621       6731       6732       6743       6742  
      6612       6613       6624       6623       6733       6734       6745       6744  
      6613       6614       6625       6624       6734       6735       6746       6745  
      6614       6615       6626       6625       6735       6736       6747       6746  
      6615       6616       6627       6626       6736       6737       6748       6747  
      6616       6617       6628       6627       6737       6738       6749       6748  
      6617       6618       6629       6628       6738       6739       6750       6749  
      6618       6619       6630       6629       6739       6740       6751       6750  
      6619       6620       6631       6630       6740       6741       6752       6751  
      6620       6621       6632       6631       6741       6742       6753       6752  
      6621       6622       6633       6632       6742       6743       6754       6753  
      6623       6624       6635       6634       6744       6745       6756       6755  
      6624       6625       6636       6635       6745       6746       6757       6756  
      6625       6626       6637       6636       6746       6747       6758       6757  
      6626       6627       6638       6637       6747       6748       6759       6758  
      6627       6628       6639       6638       6748       6749       6760       6759  
      6628       6629       6640       6639       6749       6750       6761       6760  
      6629       6630       6641       6640       6750       6751       6762       6761  
      6630       6631       6642       6641       6751       6752       6763       6762  
      6631       6632       6643       6642       6752       6753       6764       6763  
      6632       6633       6644       6643       6753       6754       6765       6764  
      6634       6635       6646       6645       6755       6756       6767       6766  
      6635       6636       6647       6646       6756       6757       6768       6767  
      6636       6637       6648       6647       6757       6758       6769       6768  
      6637       6638       6649       6648       6758       6759       6770       6769  
      6638       6639       6650       6649       6759       6760       6771       6770  
      6639       6640       6651       6650       6760       6761       6772       6771  
      6640       6641       6652       6651       6761       6762       6773       6772  
      6641       6642       6653       6652       6762       6763       6774       6773  
      6642       6643       6654       6653       6763       6764       6775       6774  
      6643       6644       6655       6654       6764       6765       6776       6775  
      6656       6657       6668       6667       6777       6778       6789       6788  
      6657       6658       6669       6668       6778       6779       6790       6789  
      6658       6659       6670       6669       6779       6780       6791       6790  
      6659       6660       6671       6670       6780       6781       6792       6791  
      6660       6661       6672       6671       6781       6782       6793       6792  
      6661       6662       6673       6672       6782       6783       6794       6793  
      6662       6663       6674       6673       6783       6784       6795       6794  
      6663       6664       6675       6674       6784       6785       6796       6795  
      6664       6665       6676       6675       6785       6786       6797       6796  
      6665       6666       6677       6676       6786       6787       6798       6797  
      6667       6668       6679       6678       6788       6789       6800       6799  
      6668       6669       6680       6679       6789       6790       6801       6800  
      6669       6670       6681       6680       6790       6791       6802       6801  
      6670       6671       6682       6681       6791       6792       6803       6802  
      6671       6672       6683       6682       6792       6793       6804       6803  
      6672       6673       6684       6683       6793       6794       6805       6804  
      6673       6674       6685       6684       6794       6795       6806       6805  
      6674       6675       6686       6685       6795       6796       6807       6806  
      6675       6676       6687       6686       6796       6797       6808       6807  
      6676       6677       6688       6687       6797       6798       6809       6808  
      6678       6679       6690       6689       6799       6800       6811       6810  
      6679       6680       6691       6690       6800       6801       6812       6811  
      6680       6681       6692       6691       6801       6802       6813       6812  
      6681       6682       6693       6692       6802       6803       6814       6813  
      6682       6683       6694       6693       6803       6804       6815       6814  
      6683       6684       6695       6694       6804       6805       6816       6815  
      6684       6685       6696       6695       6805       6806       6817       6816  
      6685       6686       6697       6696       6806       6807       6818       6817  
      6686       6687       6698       6697       6807       6808       6819       6818  
      6687       6688       6699       6698       6808       6809       6820       6819  
      6689       6690       6701       6700       6810       6811       6822       6821  
      6690       6691       6702       6701       6811       6812       6823       6822  
      6691       6692       6703       6702       6812       6813       6824       6823  
      6692       6693       6704       6703       6813       6814       6825       6824  
      6693       6694       6705       6704       6814       6815       6826       6825  
      6694       6695       6706       6705       6815       6816       6827       6826  
      6695       6696       6707       6706       6816       6817       6828       6827  
      6696       6697       6708       6707       6817       6818       6829       6828  
      6697       6698       6709       6708       6818       6819       6830       6829  
      6698       6699       6710       6709       6819       6820       6831       6830  
      6700       6701       6712       6711       6821       6822       6833       6832  
      6701       6702       6713       6712       6822       6823       6834       6833  
      6702       6703       6714       6713       6823       6824       6835       6834  
      6703       6704       6715       6714       6824       6825       6836       6835  
      6704       6705       6716       6715       6825       6826       6837       6836  
      6705       6706       6717       6716       6826       6827       6838       6837  
      6706       6707       6718       6717       6827       6828       6839       6838  
      6707       6708       6719       6718       6828       6829       6840       6839  
      6708       6709       6720       6719       6829       6830       6841       6840  
      6709       6710       6721       6720       6830       6831       6842       6841  
      6711       6712       6723       6722       6832       6833       6844       6843  
      6712       6713       6724       6723       6833       6834       6845       6844  
      6713       6714       6725       6724       6834       6835       6846       6845  
      6714       6715       6726       6725       6835       6836       6847       6846  
      6715       6716       6727       6726       6836       6837       6848       6847  
      6716       6717       6728       6727       6837       6838       6849       6848  
      6717       6718       6729       6728       6838       6839       6850       6849  
      6718       6719       6730       6729       6839       6840       6851       6850  
      6719       6720       6731       6730       6840       6841       6852       6851  
      6720       6721       6732       6731       6841       6842       6853       6852  
      6722       6723       6734       6733       6843       6844       6855       6854  
      6723       6724       6735       6734       6844       6845       6856       6855  
      6724       6725       6736       6735       6845       6846       6857       6856  
      6725       6726       6737       6736       6846       6847       6858       6857  
      6726       6727       6738       6737       6847       6848       6859       6858  
      6727       6728       6739       6738       6848       6849       6860       6859  
      6728       6729       6740       6739       6849       6850       6861       6860  
      6729       6730       6741       6740       6850       6851       6862       6861  
      6730       6731       6742       6741       6851       6852       6863       6862  
      6731       6732       6743       6742       6852       6853       6864       6863  
      6733       6734       6745       6744       6854       6855       6866       6865  
      6734       6735       6746       6745       6855       6856       6867       6866  
      6735       6736       6747       6746       6856       6857       6868       6867  
      6736       6737       6748       6747       6857       6858       6869       6868  
      6737       6738       6749       6748       6858       6859       6870       6869  
      6738       6739       6750       6749       6859       6860       6871       6870  
      6739       6740       6751       6750       6860       6861       6872       6871  
      6740       6741       6752       6751       6861       6862       6873       6872  
      6741       6742       6753       6752       6862       6863       6874       6873  
      6742       6743       6754       6753       6863       6864       6875       6874  
      6744       6745       6756       6755       6865       6866       6877       6876  
      6745       6746       6757       6756       6866       6867       6878       6877  
      6746       6747       6758       6757       6867       6868       6879       6878  
      6747       6748       6759       6758       6868       6869       6880       6879  
      6748       6749       6760       6759       6869       6870       6881       6880  
      6749       6750       6761       6760       6870       6871       6882       6881  
      6750       6751       6762       6761       6871       6872       6883       6882  
      6751       6752       6763       6762       6872       6873       6884       6883  
      6752       6753       6764       6763       6873       6874       6885       6884  
      6753       6754       6765       6764       6874       6875       6886       6885  
      6755       6756       6767       6766       6876       6877       6888       6887  
      6756       6757       6768       6767       6877       6878       6889       6888  
      6757       6758       6769       6768       6878       6879       6890       6889  
      6758       6759       6770       6769       6879       6880       6891       6890  
      6759       6760       6771       6770       6880       6881       6892       6891  
      6760       6761       6772       6771       6881       6882       6893       6892  
      6761       6762       6773       6772       6882       6883       6894       6893  
      6762       6763       6774       6773       6883       6884       6895       6894  
      6763       6764       6775       6774       6884       6885       6896       6895  
      6764       6765       6776       6775       6885       6886       6897       6896  
      6777       6778       6789       6788       6898       6899       6910       6909  
      6778       6779       6790       6789       6899       6900       6911       6910  
      6779       6780       6791       6790       6900       6901       6912       6911  
      6780       6781       6792       6791       6901       6902       6913       6912  
      6781       6782       6793       6792       6902       6903       6914       6913  
      6782       6783       6794       6793       6903       6904       6915       6914  
      6783       6784       6795       6794       6904       6905       6916       6915  
      6784       6785       6796       6795       6905       6906       6917       6916  
      6785       6786       6797       6796       6906       6907       6918       6917  
      6786       6787       6798       6797       6907       6908       6919       6918  
      6788       6789       6800       6799       6909       6910       6921       6920  
      6789       6790       6801       6800       6910       6911       6922       6921  
      6790       6791       6802       6801       6911       6912       6923       6922  
      6791       6792       6803       6802       6912       6913       6924       6923  
      6792       6793       6804       6803       6913       6914       6925       6924  
      6793       6794       6805       6804       6914       6915       6926       6925  
      6794       6795       6806       6805       6915       6916       6927       6926  
      6795       6796       6807       6806       6916       6917       6928       6927  
      6796       6797       6808       6807       6917       6918       6929       6928  
      6797       6798       6809       6808       6918       6919       6930       6929  
      6799       6800       6811       6810       6920       6921       6932       6931  
      6800       6801       6812       6811       6921       6922       6933       6932  
      6801       6802       6813       6812       6922       6923       6934       6933  
      6802       6803       6814       6813       6923       6924       6935       6934  
      6803       6804       6815       6814       6924       6925       6936       6935  
      6804       6805       6816       6815       6925       6926       6937       6936  
      6805       6806       6817       6816       6926       6927       6938       6937  
      6806       6807       6818       6817       6927       6928       6939       6938  
      6807       6808       6819       6818       6928       6929       6940       6939  
      6808       6809       6820       6819       6929       6930       6941       6940  
      6810       6811       6822       6821       6931       6932       6943       6942  
      6811       6812       6823       6822       6932       6933       6944       6943  
      6812       6813       6824       6823       6933       6934       6945       6944  
      6813       6814       6825       6824       6934       6935       6946       6945  
      6814       6815       6826       6825       6935       6936       6947       6946  
      6815       6816       6827       6826       6936       6937       6948       6947  
      6816       6817       6828       6827       6937       6938       6949       6948  
      6817       6818       6829       6828       6938       6939       6950       6949  
      6818       6819       6830       6829       6939       6940       6951       6950  
      6819       6820       6831       6830       6940       6941       6952       6951  
      6821       6822       6833       6832       6942       6943       6954       6953  
      6822       6823       6834       6833       6943       6944       6955       6954  
      6823       6824       6835       6834       6944       6945       6956       6955  
      6824       6825       6836       6835       6945       6946       6957       6956  
      6825       6826       6837       6836       6946       6947       6958       6957  
      6826       6827       6838       6837       6947       6948       6959       6958  
      6827       6828       6839       6838       6948       6949       6960       6959  
      6828       6829       6840       6839       6949       6950       6961       6960  
      6829       6830       6841       6840       6950       6951       6962       6961  
      6830       6831       6842       6841       6951       6952       6963       6962  
      6832       6833       6844       6843       6953       6954       6965       6964  
      6833       6834       6845       6844       6954       6955       6966       6965  
      6834       6835       6846       6845       6955       6956       6967       6966  
      6835       6836       6847       6846       6956       6957       6968       6967  
      6836       6837       6848       6847       6957       6958       6969       6968  
      6837       6838       6849       6848       6958       6959       6970       6969  
      6838       6839       6850       6849       6959       6960       6971       6970  
      6839       6840       6851       6850       6960       6961       6972       6971  
      6840       6841       6852       6851       6961       6962       6973       6972  
      6841       6842       6853       6852       6962       6963       6974       6973  
      6843       6844       6855       6854       6964       6965       6976       6975  
      6844       6845       6856       6855       6965       6966       6977       6976  
      6845       6846       6857       6856       6966       6967       6978       6977  
      6846       6847       6858       6857       6967       6968       6979       6978  
      6847       6848       6859       6858       6968       6969       6980       6979  
      6848       6849       6860       6859       6969       6970       6981       6980  
      6849       6850       6861       6860       6970       6971       6982       6981  
      6850       6851       6862       6861       6971       6972       6983       6982  
      6851       6852       6863       6862       6972       6973       6984       6983  
      6852       6853       6864       6863       6973       6974       6985       6984  
      6854       6855       6866       6865       6975       6976       6987       6986  
      6855       6856       6867       6866       6976       6977       6988       6987  
      6856       6857       6868       6867       6977       6978       6989       6988  
      6857       6858       6869       6868       6978       6979       6990       6989  
      6858       6859       6870       6869       6979       6980       6991       6990  
      6859       6860       6871       6870       6980       6981       6992       6991  
      6860       6861       6872       6871       6981       6982       6993       6992  
      6861       6862       6873       6872       6982       6983       6994       6993  
      6862       6863       6874       6873       6983       6984       6995       6994  
      6863       6864       6875       6874       6984       6985       6996       6995  
      6865       6866       6877       6876       6986       6987       6998       6997  
      6866       6867       6878       6877       6987       6988       6999       6998  
      6867       6868       6879       6878       6988       6989       7000       6999  
      6868       6869       6880       6879       6989       6990       7001       7000  
      6869       6870       6881       6880       6990       6991       7002       7001  
      6870       6871       6882       6881       6991       6992       7003       7002  
      6871       6872       6883       6882       6992       6993       7004       7003  
      6872       6873       6884       6883       6993       6994       7005       7004  
      6873       6874       6885       6884       6994       6995       7006       7005  
      6874       6875       6886       6885       6995       6996       7007       7006  
      6876       6877       6888       6887       6997       6998       7009       7008  
      6877       6878       6889       6888       6998       6999       7010       7009  
      6878       6879       6890       6889       6999       7000       7011       7010  
      6879       6880       6891       6890       7000       7001       7012       7011  
      6880       6881       6892       6891       7001       7002       7013       7012  
      6881       6882       6893       6892       7002       7003       7014       7013  
      6882       6883       6894       6893       7003       7004       7015       7014  
      6883       6884       6895       6894       7004       7005       7016       7015  
      6884       6885       6896       6895       7005       7006       7017       7016  
      6885       6886       6897       6896       7006       7007       7018       7017  
      6898       6899       6910       6909       7019       7020       7031       7030  
      6899       6900       6911       6910       7020       7021       7032       7031  
      6900       6901       6912       6911       7021       7022       7033       7032  
      6901       6902       6913       6912       7022       7023       7034       7033  
      6902       6903       6914       6913       7023       7024       7035       7034  
      6903       6904       6915       6914       7024       7025       7036       7035  
      6904       6905       6916       6915       7025       7026       7037       7036  
      6905       6906       6917       6916       7026       7027       7038       7037  
      6906       6907       6918       6917       7027       7028       7039       7038  
      6907       6908       6919       6918       7028       7029       7040       7039  
      6909       6910       6921       6920       7030       7031       7042       7041  
      6910       6911       6922       6921       7031       7032       7043       7042  
      6911       6912       6923       6922       7032       7033       7044       7043  
      6912       6913       6924       6923       7033       7034       7045       7044  
      6913       6914       6925       6924       7034       7035       7046       7045  
      6914       6915       6926       6925       7035       7036       7047       7046  
      6915       6916       6927       6926       7036       7037       7048       7047  
      6916       6917       6928       6927       7037       7038       7049       7048  
      6917       6918       6929       6928       7038       7039       7050       7049  
      6918       6919       6930       6929       7039       7040       7051       7050  
      6920       6921       6932       6931       7041       7042       7053       7052  
      6921       6922       6933       6932       7042       7043       7054       7053  
      6922       6923       6934       6933       7043       7044       7055       7054  
      6923       6924       6935       6934       7044       7045       7056       7055  
      6924       6925       6936       6935       7045       7046       7057       7056  
      6925       6926       6937       6936       7046       7047       7058       7057  
      6926       6927       6938       6937       7047       7048       7059       7058  
      6927       6928       6939       6938       7048       7049       7060       7059  
      6928       6929       6940       6939       7049       7050       7061       7060  
      6929       6930       6941       6940       7050       7051       7062       7061  
      6931       6932       6943       6942       7052       7053       7064       7063  
      6932       6933       6944       6943       7053       7054       7065       7064  
      6933       6934       6945       6944       7054       7055       7066       7065  
      6934       6935       6946       6945       7055       7056       7067       7066  
      6935       6936       6947       6946       7056       7057       7068       7067  
      6936       6937       6948       6947       7057       7058       7069       7068  
      6937       6938       6949       6948       7058       7059       7070       7069  
      6938       6939       6950       6949       7059       7060       7071       7070  
      6939       6940       6951       6950       7060       7061       7072       7071  
      6940       6941       6952       6951       7061       7062       7073       7072  
      6942       6943       6954       6953       7063       7064       7075       7074  
      6943       6944       6955       6954       7064       7065       7076       7075  
      6944       6945       6956       6955       7065       7066       7077       7076  
      6945       6946       6957       6956       7066       7067       7078       7077  
      6946       6947       6958       6957       7067       7068       7079       7078  
      6947       6948       6959       6958       7068       7069       7080       7079  
      6948       6949       6960       6959       7069       7070       7081       7080  
      6949       6950       6961       6960       7070       7071       7082       7081  
      6950       6951       6962       6961       7071       7072       7083       7082  
      6951       6952       6963       6962       7072       7073       7084       7083  
      6953       6954       6965       6964       7074       7075       7086       7085  
      6954       6955       6966       6965       7075       7076       7087       7086  
      6955       6956       6967       6966       7076       7077       7088       7087  
      6956       6957       6968       6967       7077       7078       7089       7088  
      6957       6958       6969       6968       7078       7079       7090       7089  
      6958       6959       6970       6969       7079       7080       7091       7090  
      6959       6960       6971       6970       7080       7081       7092       7091  
      6960       6961       6972       6971       7081       7082       7093       7092  
      6961       6962       6973       6972       7082       7083       7094       7093  
      6962       6963       6974       6973       7083       7084       7095       7094  
      6964       6965       6976       6975       7085       7086       7097       7096  
      6965       6966       6977       6976       7086       7087       7098       7097  
      6966       6967       6978       6977       7087       7088       7099       7098  
      6967       6968       6979       6978       7088       7089       7100       7099  
      6968       6969       6980       6979       7089       7090       7101       7100  
      6969       6970       6981       6980       7090       7091       7102       7101  
      6970       6971       6982       6981       7091       7092       7103       7102  
      6971       6972       6983       6982       7092       7093       7104       7103  
      6972       6973       6984       6983       7093       7094       7105       7104  
      6973       6974       6985       6984       7094       7095       7106       7105  
      6975       6976       6987       6986       7096       7097       7108       7107  
      6976       6977       6988       6987       7097       7098       7109       7108  
      6977       6978       6989       6988       7098       7099       7110       7109  
      6978       6979       6990       6989       7099       7100       7111       7110  
      6979       6980       6991       6990       7100       7101       7112       7111  
      6980       6981       6992       6991       7101       7102       7113       7112  
      6981       6982       6993       6992       7102       7103       7114       7113  
      6982       6983       6994       6993       7103       7104       7115       7114  
      6983       6984       6995       6994       7104       7105       7116       7115  
      6984       6985       6996       6995       7105       7106       7117       7116  
      6986       6987       6998       6997       7107       7108       7119       7118  
      6987       6988       6999       6998       7108       7109       7120       7119  
      6988       6989       7000       6999       7109       7110       7121       7120  
      6989       6990       7001       7000       7110       7111       7122       7121  
      6990       6991       7002       7001       7111       7112       7123       7122  
      6991       6992       7003       7002       7112       7113       7124       7123  
      6992       6993       7004       7003       7113       7114       7125       7124  
      6993       6994       7005       7004       7114       7115       7126       7125  
      6994       6995       7006       7005       7115       7116       7127       7126  
      6995       6996       7007       7006       7116       7117       7128       7127  
      6997       6998       7009       7008       7118       7119       7130       7129  
      6998       6999       7010       7009       7119       7120       7131       7130  
      6999       7000       7011       7010       7120       7121       7132       7131  
      7000       7001       7012       7011       7121       7122       7133       7132  
      7001       7002       7013       7012       7122       7123       7134       7133  
      7002       7003       7014       7013       7123       7124       7135       7134  
      7003       7004       7015       7014       7124       7125       7136       7135  
      7004       7005       7016       7015       7125       7126       7137       7136  
      7005       7006       7017       7016       7126       7127       7138       7137  
      7006       7007       7018       7017       7127       7128       7139       7138  
      7019       7020       7031       7030       7140       7141       7152       7151  
      7020       7021       7032       7031       7141       7142       7153       7152  
      7021       7022       7033       7032       7142       7143       7154       7153  
      7022       7023       7034       7033       7143       7144       7155       7154  
      7023       7024       7035       7034       7144       7145       7156       7155  
      7024       7025       7036       7035       7145       7146       7157       7156  
      7025       7026       7037       7036       7146       7147       7158       7157  
      7026       7027       7038       7037       7147       7148       7159       7158  
      7027       7028       7039       7038       7148       7149       7160       7159  
      7028       7029       7040       7039       7149       7150       7161       7160  
      7030       7031       7042       7041       7151       7152       7163       7162  
      7031       7032       7043       7042       7152       7153       7164       7163  
      7032       7033       7044       7043       7153       7154       7165       7164  
      7033       7034       7045       7044       7154       7155       7166       7165  
      7034       7035       7046       7045       7155       7156       7167       7166  
      7035       7036       7047       7046       7156       7157       7168       7167  
      7036       7037       7048       7047       7157       7158       7169       7168  
      7037       7038       7049       7048       7158       7159       7170       7169  
      7038       7039       7050       7049       7159       7160       7171       7170  
      7039       7040       7051       7050       7160       7161       7172       7171  
      7041       7042       7053       7052       7162       7163       7174       7173  
      7042       7043       7054       7053       7163       7164       7175       7174  
      7043       7044       7055       7054       7164       7165       7176       7175  
      7044       7045       7056       7055       7165       7166       7177       7176  
      7045       7046       7057       7056       7166       7167       7178       7177  
      7046       7047       7058       7057       7167       7168       7179       7178  
      7047       7048       7059       7058       7168       7169       7180       7179  
      7048       7049       7060       7059       7169       7170       7181       7180  
      7049       7050       7061       7060       7170       7171       7182       7181  
      7050       7051       7062       7061       7171       7172       7183       7182  
      7052       7053       7064       7063       7173       7174       7185       7184  
      7053       7054       7065       7064       7174       7175       7186       7185  
      7054       7055       7066       7065       7175       7176       7187       7186  
      7055       7056       7067       7066       7176       7177       7188       7187  
      7056       7057       7068       7067       7177       7178       7189       7188  
      7057       7058       7069       7068       7178       7179       7190       7189  
      7058       7059       7070       7069       7179       7180       7191       7190  
      7059       7060       7071       7070       7180       7181       7192       7191  
      7060       7061       7072       7071       7181       7182       7193       7192  
      7061       7062       7073       7072       7182       7183       7194       7193  
      7063       7064       7075       7074       7184       7185       7196       7195  
      7064       7065       7076       7075       7185       7186       7197       7196  
      7065       7066       7077       7076       7186       7187       7198       7197  
      7066       7067       7078       7077       7187       7188       7199       7198  
      7067       7068       7079       7078       7188       7189       7200       7199  
      7068       7069       7080       7079       7189       7190       7201       7200  
      7069       7070       7081       7080       7190       7191       7202       7201  
      7070       7071       7082       7081       7191       7192       7203       7202  
      7071       7072       7083       7082       7192       7193       7204       7203  
      7072       7073       7084       7083       7193       7194       7205       7204  
      7074       7075       7086       7085       7195       7196       7207       7206  
      7075       7076       7087       7086       7196       7197       7208       7207  
      7076       7077       7088       7087       7197       7198       7209       7208  
      7077       7078       7089       7088       7198       7199       7210       7209  
      7078       7079       7090       7089       7199       7200       7211       7210  
      7079       7080       7091       7090       7200       7201       7212       7211  
      7080       7081       7092       7091       7201       7202       7213       7212  
      7081       7082       7093       7092       7202       7203       7214       7213  
      7082       7083       7094       7093       7203       7204       7215       7214  
      7083       7084       7095       7094       7204       7205       7216       7215  
      7085       7086       7097       7096       7206       7207       7218       7217  
      7086       7087       7098       7097       7207       7208       7219       7218  
      7087       7088       7099       7098       7208       7209       7220       7219  
      7088       7089       7100       7099       7209       7210       7221       7220  
      7089       7090       7101       7100       7210       7211       7222       7221  
      7090       7091       7102       7101       7211       7212       7223       7222  
      7091       7092       7103       7102       7212       7213       7224       7223  
      7092       7093       7104       7103       7213       7214       7225       7224  
      7093       7094       7105       7104       7214       7215       7226       7225  
      7094       7095       7106       7105       7215       7216       7227       7226  
      7096       7097       7108       7107       7217       7218       7229       7228  
      7097       7098       7109       7108       7218       7219       7230       7229  
      7098       7099       7110       7109       7219       7220       7231       7230  
      7099       7100       7111       7110       7220       7221       7232       7231  
      7100       7101       7112       7111       7221       7222       7233       7232  
      7101       7102       7113       7112       7222       7223       7234       7233  
      7102       7103       7114       7113       7223       7224       7235       7234  
      7103       7104       7115       7114       7224       7225       7236       7235  
      7104       7105       7116       7115       7225       7226       7237       7236  
      7105       7106       7117       7116       7226       7227       7238       7237  
      7107       7108       7119       7118       7228       7229       7240       7239  
      7108       7109       7120       7119       7229       7230       7241       7240  
      7109       7110       7121       7120       7230       7231       7242       7241  
      7110       7111       7122       7121       7231       7232       7243       7242  
      7111       7112       7123       7122       7232       7233       7244       7243  
      7112       7113       7124       7123       7233       7234       7245       7244  
      7113       7114       7125       7124       7234       7235       7246       7245  
      7114       7115       7126       7125       7235       7236       7247       7246  
      7115       7116       7127       7126       7236       7237       7248       7247  
      7116       7117       7128       7127       7237       7238       7249       7248  
      7118       7119       7130       7129       7239       7240       7251       7250  
      7119       7120       7131       7130       7240       7241       7252       7251  
      7120       7121       7132       7131       7241       7242       7253       7252  
      7121       7122       7133       7132       7242       7243       7254       7253  
      7122       7123       7134       7133       7243       7244       7255       7254  
      7123       7124       7135       7134       7244       7245       7256       7255  
      7124       7125       7136       7135       7245       7246       7257       7256  
      7125       7126       7137       7136       7246       7247       7258       7257  
      7126       7127       7138       7137       7247       7248       7259       7258  
      7127       7128       7139       7138       7248       7249       7260       7259  
      7140       7141       7152       7151       7261       7262       7273       7272  
      7141       7142       7153       7152       7262       7263       7274       7273  
      7142       7143       7154       7153       7263       7264       7275       7274  
      7143       7144       7155       7154       7264       7265       7276       7275  
      7144       7145       7156       7155       7265       7266       7277       7276  
      7145       7146       7157       7156       7266       7267       7278       7277  
      7146       7147       7158       7157       7267       7268       7279       7278  
      7147       7148       7159       7158       7268       7269       7280       7279  
      7148       7149       7160       7159       7269       7270       7281       7280  
      7149       7150       7161       7160       7270       7271       7282       7281  
      7151       7152       7163       7162       7272       7273       7284       7283  
      7152       7153       7164       7163       7273       7274       7285       7284  
      7153       7154       7165       7164       7274       7275       7286       7285  
      7154       7155       7166       7165       7275       7276       7287       7286  
      7155       7156       7167       7166       7276       7277       7288       7287  
      7156       7157       7168       7167       7277       7278       7289       7288  
      7157       7158       7169       7168       7278       7279       7290       7289  
      7158       7159       7170       7169       7279       7280       7291       7290  
      7159       7160       7171       7170       7280       7281       7292       7291  
      7160       7161       7172       7171       7281       7282       7293       7292  
      7162       7163       7174       7173       7283       7284       7295       7294  
      7163       7164       7175       7174       7284       7285       7296       7295  
      7164       7165       7176       7175       7285       7286       7297       7296  
      7165       7166       7177       7176       7286       7287       7298       7297  
      7166       7167       7178       7177       7287       7288       7299       7298  
      7167       7168       7179       7178       7288       7289       7300       7299  
      7168       7169       7180       7179       7289       7290       7301       7300  
      7169       7170       7181       7180       7290       7291       7302       7301  
      7170       7171       7182       7181       7291       7292       7303       7302  
      7171       7172       7183       7182       7292       7293       7304       7303  
      7173       7174       7185       7184       7294       7295       7306       7305  
      7174       7175       7186       7185       7295       7296       7307       7306  
      7175       7176       7187       7186       7296       7297       7308       7307  
      7176       7177       7188       7187       7297       7298       7309       7308  
      7177       7178       7189       7188       7298       7299       7310       7309  
      7178       7179       7190       7189       7299       7300       7311       7310  
      7179       7180       7191       7190       7300       7301       7312       7311  
      7180       7181       7192       7191       7301       7302       7313       7312  
      7181       7182       7193       7192       7302       7303       7314       7313  
      7182       7183       7194       7193       7303       7304       7315       7314  
      7184       7185       7196       7195       7305       7306       7317       7316  
      7185       7186       7197       7196       7306       7307       7318       7317  
      7186       7187       7198       7197       7307       7308       7319       7318  
      7187       7188       7199       7198       7308       7309       7320       7319  
      7188       7189       7200       7199       7309       7310       7321       7320  
      7189       7190       7201       7200       7310       7311       7322       7321  
      7190       7191       7202       7201       7311       7312       7323       7322  
      7191       7192       7203       7202       7312       7313       7324       7323  
      7192       7193       7204       7203       7313       7314       7325       7324  
      7193       7194       7205       7204       7314       7315       7326       7325  
      7195       7196       7207       7206       7316       7317       7328       7327  
      7196       7197       7208       7207       7317       7318       7329       7328  
      7197       7198       7209       7208       7318       7319       7330       7329  
      7198       7199       7210       7209       7319       7320       7331       7330  
      7199       7200       7211       7210       7320       7321       7332       7331  
      7200       7201       7212       7211       7321       7322       7333       7332  
      7201       7202       7213       7212       7322       7323       7334       7333  
      7202       7203       7214       7213       7323       7324       7335       7334  
      7203       7204       7215       7214       7324       7325       7336       7335  
      7204       7205       7216       7215       7325       7326       7337       7336  
      7206       7207       7218       7217       7327       7328       7339       7338  
      7207       7208       7219       7218       7328       7329       7340       7339  
      7208       7209       7220       7219       7329       7330       7341       7340  
      7209       7210       7221       7220       7330       7331       7342       7341  
      7210       7211       7222       7221       7331       7332       7343       7342  
      7211       7212       7223       7222       7332       7333       7344       7343  
      7212       7213       7224       7223       7333       7334       7345       7344  
      7213       7214       7225       7224       7334       7335       7346       7345  
      7214       7215       7226       7225       7335       7336       7347       7346  
      7215       7216       7227       7226       7336       7337       7348       7347  
      7217       7218       7229       7228       7338       7339       7350       7349  
      7218       7219       7230       7229       7339       7340       7351       7350  
      7219       7220       7231       7230       7340       7341       7352       7351  
      7220       7221       7232       7231       7341       7342       7353       7352  
      7221       7222       7233       7232       7342       7343       7354       7353  
      7222       7223       7234       7233       7343       7344       7355       7354  
      7223       7224       7235       7234       7344       7345       7356       7355  
      7224       7225       7236       7235       7345       7346       7357       7356  
      7225       7226       7237       7236       7346       7347       7358       7357  
      7226       7227       7238       7237       7347       7348       7359       7358  
      7228       7229       7240       7239       7349       7350       7361       7360  
      7229       7230       7241       7240       7350       7351       7362       7361  
      7230       7231       7242       7241       7351       7352       7363       7362  
      7231       7232       7243       7242       7352       7353       7364       7363  
      7232       7233       7244       7243       7353       7354       7365       7364  
      7233       7234       7245       7244       7354       7355       7366       7365  
      7234       7235       7246       7245       7355       7356       7367       7366  
      7235       7236       7247       7246       7356       7357       7368       7367  
      7236       7237       7248       7247       7357       7358       7369       7368  
      7237       7238       7249       7248       7358       7359       7370       7369  
      7239       7240       7251       7250       7360       7361       7372       7371  
      7240       7241       7252       7251       7361       7362       7373       7372  
      7241       7242       7253       7252       7362       7363       7374       7373  
      7242       7243       7254       7253       7363       7364       7375       7374  
      7243       7244       7255       7254       7364       7365       7376       7375  
      7244       7245       7256       7255       7365       7366       7377       7376  
      7245       7246       7257       7256       7366       7367       7378       7377  
      7246       7247       7258       7257       7367       7368       7379       7378  
      7247       7248       7259       7258       7368       7369       7380       7379  
      7248       7249       7260       7259       7369       7370       7381       7380  
      7261       7262       7273       7272       7382       7383       7394       7393  
      7262       7263       7274       7273       7383       7384       7395       7394  
      7263       7264       7275       7274       7384       7385       7396       7395  
      7264       7265       7276       7275       7385       7386       7397       7396  
      7265       7266       7277       7276       7386       7387       7398       7397  
      7266       7267       7278       7277       7387       7388       7399       7398  
      7267       7268       7279       7278       7388       7389       7400       7399  
      7268       7269       7280       7279       7389       7390       7401       7400  
      7269       7270       7281       7280       7390       7391       7402       7401  
      7270       7271       7282       7281       7391       7392       7403       7402  
      7272       7273       7284       7283       7393       7394       7405       7404  
      7273       7274       7285       7284       7394       7395       7406       7405  
      7274       7275       7286       7285       7395       7396       7407       7406  
      7275       7276       7287       7286       7396       7397       7408       7407  
      7276       7277       7288       7287       7397       7398       7409       7408  
      7277       7278       7289       7288       7398       7399       7410       7409  
      7278       7279       7290       7289       7399       7400       7411       7410  
      7279       7280       7291       7290       7400       7401       7412       7411  
      7280       7281       7292       7291       7401       7402       7413       7412  
      7281       7282       7293       7292       7402       7403       7414       7413  
      7283       7284       7295       7294       7404       7405       7416       7415  
      7284       7285       7296       7295       7405       7406       7417       7416  
      7285       7286       7297       7296       7406       7407       7418       7417  
      7286       7287       7298       7297       7407       7408       7419       7418  
      7287       7288       7299       7298       7408       7409       7420       7419  
      7288       7289       7300       7299       7409       7410       7421       7420  
      7289       7290       7301       7300       7410       7411       7422       7421  
      7290       7291       7302       7301       7411       7412       7423       7422  
      7291       7292       7303       7302       7412       7413       7424       7423  
      7292       7293       7304       7303       7413       7414       7425       7424  
      7294       7295       7306       7305       7415       7416       7427       7426  
      7295       7296       7307       7306       7416       7417       7428       7427  
      7296       7297       7308       7307       7417       7418       7429       7428  
      7297       7298       7309       7308       7418       7419       7430       7429  
      7298       7299       7310       7309       7419       7420       7431       7430  
      7299       7300       7311       7310       7420       7421       7432       7431  
      7300       7301       7312       7311       7421       7422       7433       7432  
      7301       7302       7313       7312       7422       7423       7434       7433  
      7302       7303       7314       7313       7423       7424       7435       7434  
      7303       7304       7315       7314       7424       7425       7436       7435  
      7305       7306       7317       7316       7426       7427       7438       7437  
      7306       7307       7318       7317       7427       7428       7439       7438  
      7307       7308       7319       7318       7428       7429       7440       7439  
      7308       7309       7320       7319       7429       7430       7441       7440  
      7309       7310       7321       7320       7430       7431       7442       7441  
      7310       7311       7322       7321       7431       7432       7443       7442  
      7311       7312       7323       7322       7432       7433       7444       7443  
      7312       7313       7324       7323       7433       7434       7445       7444  
      7313       7314       7325       7324       7434       7435       7446       7445  
      7314       7315       7326       7325       7435       7436       7447       7446  
      7316       7317       7328       7327       7437       7438       7449       7448  
      7317       7318       7329       7328       7438       7439       7450       7449  
      7318       7319       7330       7329       7439       7440       7451       7450  
      7319       7320       7331       7330       7440       7441       7452       7451  
      7320       7321       7332       7331       7441       7442       7453       7452  
      7321       7322       7333       7332       7442       7443       7454       7453  
      7322       7323       7334       7333       7443       7444       7455       7454  
      7323       7324       7335       7334       7444       7445       7456       7455  
      7324       7325       7336       7335       7445       7446       7457       7456  
      7325       7326       7337       7336       7446       7447       7458       7457  
      7327       7328       7339       7338       7448       7449       7460       7459  
      7328       7329       7340       7339       7449       7450       7461       7460  
      7329       7330       7341       7340       7450       7451       7462       7461  
      7330       7331       7342       7341       7451       7452       7463       7462  
      7331       7332       7343       7342       7452       7453       7464       7463  
      7332       7333       7344       7343       7453       7454       7465       7464  
      7333       7334       7345       7344       7454       7455       7466       7465  
      7334       7335       7346       7345       7455       7456       7467       7466  
      7335       7336       7347       7346       7456       7457       7468       7467  
      7336       7337       7348       7347       7457       7458       7469       7468  
      7338       7339       7350       7349       7459       7460       7471       7470  
      7339       7340       7351       7350       7460       7461       7472       7471  
      7340       7341       7352       7351       7461       7462       7473       7472  
      7341       7342       7353       7352       7462       7463       7474       7473  
      7342       7343       7354       7353       7463       7464       7475       7474  
      7343       7344       7355       7354       7464       7465       7476       7475  
      7344       7345       7356       7355       7465       7466       7477       7476  
      7345       7346       7357       7356       7466       7467       7478       7477  
      7346       7347       7358       7357       7467       7468       7479       7478  
      7347       7348       7359       7358       7468       7469       7480       7479  
      7349       7350       7361       7360       7470       7471       7482       7481  
      7350       7351       7362       7361       7471       7472       7483       7482  
      7351       7352       7363       7362       7472       7473       7484       7483  
      7352       7353       7364       7363       7473       7474       7485       7484  
      7353       7354       7365       7364       7474       7475       7486       7485  
      7354       7355       7366       7365       7475       7476       7487       7486  
      7355       7356       7367       7366       7476       7477       7488       7487  
      7356       7357       7368       7367       7477       7478       7489       7488  
      7357       7358       7369       7368       7478       7479       7490       7489  
      7358       7359       7370       7369       7479       7480       7491       7490  
      7360       7361       7372       7371       7481       7482       7493       7492  
      7361       7362       7373       7372       7482       7483       7494       7493  
      7362       7363       7374       7373       7483       7484       7495       7494  
      7363       7364       7375       7374       7484       7485       7496       7495  
      7364       7365       7376       7375       7485       7486       7497       7496  
      7365       7366       7377       7376       7486       7487       7498       7497  
      7366       7367       7378       7377       7487       7488       7499       7498  
      7367       7368       7379       7378       7488       7489       7500       7499  
      7368       7369       7380       7379       7489       7490       7501       7500  
      7369       7370       7381       7380       7490       7491       7502       7501  
      7382       7383       7394       7393       7503       7504       7515       7514  
      7383       7384       7395       7394       7504       7505       7516       7515  
      7384       7385       7396       7395       7505       7506       7517       7516  
      7385       7386       7397       7396       7506       7507       7518       7517  
      7386       7387       7398       7397       7507       7508       7519       7518  
      7387       7388       7399       7398       7508       7509       7520       7519  
      7388       7389       7400       7399       7509       7510       7521       7520  
      7389       7390       7401       7400       7510       7511       7522       7521  
      7390       7391       7402       7401       7511       7512       7523       7522  
      7391       7392       7403       7402       7512       7513       7524       7523  
      7393       7394       7405       7404       7514       7515       7526       7525  
      7394       7395       7406       7405       7515       7516       7527       7526  
      7395       7396       7407       7406       7516       7517       7528       7527  
      7396       7397       7408       7407       7517       7518       7529       7528  
      7397       7398       7409       7408       7518       7519       7530       7529  
      7398       7399       7410       7409       7519       7520       7531       7530  
      7399       7400       7411       7410       7520       7521       7532       7531  
      7400       7401       7412       7411       7521       7522       7533       7532  
      7401       7402       7413       7412       7522       7523       7534       7533  
      7402       7403       7414       7413       7523       7524       7535       7534  
      7404       7405       7416       7415       7525       7526       7537       7536  
      7405       7406       7417       7416       7526       7527       7538       7537  
      7406       7407       7418       7417       7527       7528       7539       7538  
      7407       7408       7419       7418       7528       7529       7540       7539  
      7408       7409       7420       7419       7529       7530       7541       7540  
      7409       7410       7421       7420       7530       7531       7542       7541  
      7410       7411       7422       7421       7531       7532       7543       7542  
      7411       7412       7423       7422       7532       7533       7544       7543  
      7412       7413       7424       7423       7533       7534       7545       7544  
      7413       7414       7425       7424       7534       7535       7546       7545  
      7415       7416       7427       7426       7536       7537       7548       7547  
      7416       7417       7428       7427       7537       7538       7549       7548  
      7417       7418       7429       7428       7538       7539       7550       7549  
      7418       7419       7430       7429       7539       7540       7551       7550  
      7419       7420       7431       7430       7540       7541       7552       7551  
      7420       7421       7432       7431       7541       7542       7553       7552  
      7421       7422       7433       7432       7542       7543       7554       7553  
      7422       7423       7434       7433       7543       7544       7555       7554  
      7423       7424       7435       7434       7544       7545       7556       7555  
      7424       7425       7436       7435       7545       7546       7557       7556  
      7426       7427       7438       7437       7547       7548       7559       7558  
      7427       7428       7439       7438       7548       7549       7560       7559  
      7428       7429       7440       7439       7549       7550       7561       7560  
      7429       7430       7441       7440       7550       7551       7562       7561  
      7430       7431       7442       7441       7551       7552       7563       7562  
      7431       7432       7443       7442       7552       7553       7564       7563  
      7432       7433       7444       7443       7553       7554       7565       7564  
      7433       7434       7445       7444       7554       7555       7566       7565  
      7434       7435       7446       7445       7555       7556       7567       7566  
      7435       7436       7447       7446       7556       7557       7568       7567  
      7437       7438       7449       7448       7558       7559       7570       7569  
      7438       7439       7450       7449       7559       7560       7571       7570  
      7439       7440       7451       7450       7560       7561       7572       7571  
      7440       7441       7452       7451       7561       7562       7573       7572  
      7441       7442       7453       7452       7562       7563       7574       7573  
      7442       7443       7454       7453       7563       7564       7575       7574  
      7443       7444       7455       7454       7564       7565       7576       7575  
      7444       7445       7456       7455       7565       7566       7577       7576  
      7445       7446       7457       7456       7566       7567       7578       7577  
      7446       7447       7458       7457       7567       7568       7579       7578  
      7448       7449       7460       7459       7569       7570       7581       7580  
      7449       7450       7461       7460       7570       7571       7582       7581  
      7450       7451       7462       7461       7571       7572       7583       7582  
      7451       7452       7463       7462       7572       7573       7584       7583  
      7452       7453       7464       7463       7573       7574       7585       7584  
      7453       7454       7465       7464       7574       7575       7586       7585  
      7454       7455       7466       7465       7575       7576       7587       7586  
      7455       7456       7467       7466       7576       7577       7588       7587  
      7456       7457       7468       7467       7577       7578       7589       7588  
      7457       7458       7469       7468       7578       7579       7590       7589  
      7459       7460       7471       7470       7580       7581       7592       7591  
      7460       7461       7472       7471       7581       7582       7593       7592  
      7461       7462       7473       7472       7582       7583       7594       7593  
      7462       7463       7474       7473       7583       7584       7595       7594  
      7463       7464       7475       7474       7584       7585       7596       7595  
      7464       7465       7476       7475       7585       7586       7597       7596  
      7465       7466       7477       7476       7586       7587       7598       7597  
      7466       7467       7478       7477       7587       7588       7599       7598  
      7467       7468       7479       7478       7588       7589       7600       7599  
      7468       7469       7480       7479       7589       7590       7601       7600  
      7470       7471       7482       7481       7591       7592       7603       7602  
      7471       7472       7483       7482       7592       7593       7604       7603  
      7472       7473       7484       7483       7593       7594       7605       7604  
      7473       7474       7485       7484       7594       7595       7606       7605  
      7474       7475       7486       7485       7595       7596       7607       7606  
      7475       7476       7487       7486       7596       7597       7608       7607  
      7476       7477       7488       7487       7597       7598       7609       7608  
      7477       7478       7489       7488       7598       7599       7610       7609  
      7478       7479       7490       7489       7599       7600       7611       7610  
      7479       7480       7491       7490       7600       7601       7612       7611  
      7481       7482       7493       7492       7602       7603       7614       7613  
      7482       7483       7494       7493       7603       7604       7615       7614  
      7483       7484       7495       7494       7604       7605       7616       7615  
      7484       7485       7496       7495       7605       7606       7617       7616  
      7485       7486       7497       7496       7606       7607       7618       7617  
      7486       7487       7498       7497       7607       7608       7619       7618  
      7487       7488       7499       7498       7608       7609       7620       7619  
      7488       7489       7500       7499       7609       7610       7621       7620  
      7489       7490       7501       7500       7610       7611       7622       7621  
      7490       7491       7502       7501       7611       7612       7623       7622  
      7503       7504       7515       7514       7624       7625       7636       7635  
      7504       7505       7516       7515       7625       7626       7637       7636  
      7505       7506       7517       7516       7626       7627       7638       7637  
      7506       7507       7518       7517       7627       7628       7639       7638  
      7507       7508       7519       7518       7628       7629       7640       7639  
      7508       7509       7520       7519       7629       7630       7641       7640  
      7509       7510       7521       7520       7630       7631       7642       7641  
      7510       7511       7522       7521       7631       7632       7643       7642  
      7511       7512       7523       7522       7632       7633       7644       7643  
      7512       7513       7524       7523       7633       7634       7645       7644  
      7514       7515       7526       7525       7635       7636       7647       7646  
      7515       7516       7527       7526       7636       7637       7648       7647  
      7516       7517       7528       7527       7637       7638       7649       7648  
      7517       7518       7529       7528       7638       7639       7650       7649  
      7518       7519       7530       7529       7639       7640       7651       7650  
      7519       7520       7531       7530       7640       7641       7652       7651  
      7520       7521       7532       7531       7641       7642       7653       7652  
      7521       7522       7533       7532       7642       7643       7654       7653  
      7522       7523       7534       7533       7643       7644       7655       7654  
      7523       7524       7535       7534       7644       7645       7656       7655  
      7525       7526       7537       7536       7646       7647       7658       7657  
      7526       7527       7538       7537       7647       7648       7659       7658  
      7527       7528       7539       7538       7648       7649       7660       7659  
      7528       7529       7540       7539       7649       7650       7661       7660  
      7529       7530       7541       7540       7650       7651       7662       7661  
      7530       7531       7542       7541       7651       7652       7663       7662  
      7531       7532       7543       7542       7652       7653       7664       7663  
      7532       7533       7544       7543       7653       7654       7665       7664  
      7533       7534       7545       7544       7654       7655       7666       7665  
      7534       7535       7546       7545       7655       7656       7667       7666  
      7536       7537       7548       7547       7657       7658       7669       7668  
      7537       7538       7549       7548       7658       7659       7670       7669  
      7538       7539       7550       7549       7659       7660       7671       7670  
      7539       7540       7551       7550       7660       7661       7672       7671  
      7540       7541       7552       7551       7661       7662       7673       7672  
      7541       7542       7553       7552       7662       7663       7674       7673  
      7542       7543       7554       7553       7663       7664       7675       7674  
      7543       7544       7555       7554       7664       7665       7676       7675  
      7544       7545       7556       7555       7665       7666       7677       7676  
      7545       7546       7557       7556       7666       7667       7678       7677  
      7547       7548       7559       7558       7668       7669       7680       7679  
      7548       7549       7560       7559       7669       7670       7681       7680  
      7549       7550       7561       7560       7670       7671       7682       7681  
      7550       7551       7562       7561       7671       7672       7683       7682  
      7551       7552       7563       7562       7672       7673       7684       7683  
      7552       7553       7564       7563       7673       7674       7685       7684  
      7553       7554       7565       7564       7674       7675       7686       7685  
      7554       7555       7566       7565       7675       7676       7687       7686  
      7555       7556       7567       7566       7676       7677       7688       7687  
      7556       7557       7568       7567       7677       7678       7689       7688  
      7558       7559       7570       7569       7679       7680       7691       7690  
      7559       7560       7571       7570       7680       7681       7692       7691  
      7560       7561       7572       7571       7681       7682       7693       7692  
      7561       7562       7573       7572       7682       7683       7694       7693  
      7562       7563       7574       7573       7683       7684       7695       7694  
      7563       7564       7575       7574       7684       7685       7696       7695  
      7564       7565       7576       7575       7685       7686       7697       7696  
      7565       7566       7577       7576       7686       7687       7698       7697  
      7566       7567       7578       7577       7687       7688       7699       7698  
      7567       7568       7579       7578       7688       7689       7700       7699  
      7569       7570       7581       7580       7690       7691       7702       7701  
      7570       7571       7582       7581       7691       7692       7703       7702  
      7571       7572       7583       7582       7692       7693       7704       7703  
      7572       7573       7584       7583       7693       7694       7705       7704  
      7573       7574       7585       7584       7694       7695       7706       7705  
      7574       7575       7586       7585       7695       7696       7707       7706  
      7575       7576       7587       7586       7696       7697       7708       7707  
      7576       7577       7588       7587       7697       7698       7709       7708  
      7577       7578       7589       7588       7698       7699       7710       7709  
      7578       7579       7590       7589       7699       7700       7711       7710  
      7580       7581       7592       7591       7701       7702       7713       7712  
      7581       7582       7593       7592       7702       7703       7714       7713  
      7582       7583       7594       7593       7703       7704       7715       7714  
      7583       7584       7595       7594       7704       7705       7716       7715  
      7584       7585       7596       7595       7705       7706       7717       7716  
      7585       7586       7597       7596       7706       7707       7718       7717  
      7586       7587       7598       7597       7707       7708       7719       7718  
      7587       7588       7599       7598       7708       7709       7720       7719  
      7588       7589       7600       7599       7709       7710       7721       7720  
      7589       7590       7601       7600       7710       7711       7722       7721  
      7591       7592       7603       7602       7712       7713       7724       7723  
      7592       7593       7604       7603       7713       7714       7725       7724  
      7593       7594       7605       7604       7714       7715       7726       7725  
      7594       7595       7606       7605       7715       7716       7727       7726  
      7595       7596       7607       7606       7716       7717       7728       7727  
      7596       7597       7608       7607       7717       7718       7729       7728  
      7597       7598       7609       7608       7718       7719       7730       7729  
      7598       7599       7610       7609       7719       7720       7731       7730  
      7599       7600       7611       7610       7720       7721       7732       7731  
      7600       7601       7612       7611       7721       7722       7733       7732  
      7602       7603       7614       7613       7723       7724       7735       7734  
      7603       7604       7615       7614       7724       7725       7736       7735  
      7604       7605       7616       7615       7725       7726       7737       7736  
      7605       7606       7617       7616       7726       7727       7738       7737  
      7606       7607       7618       7617       7727       7728       7739       7738  
      7607       7608       7619       7618       7728       7729       7740       7739  
      7608       7609       7620       7619       7729       7730       7741       7740  
      7609       7610       7621       7620       7730       7731       7742       7741  
      7610       7611       7622       7621       7731       7732       7743       7742  
      7611       7612       7623       7622       7732       7733       7744       7743  
      7624       7625       7636       7635       7745       7746       7757       7756  
      7625       7626       7637       7636       7746       7747       7758       7757  
      7626       7627       7638       7637       7747       7748       7759       7758  
      7627       7628       7639       7638       7748       7749       7760       7759  
      7628       7629       7640       7639       7749       7750       7761       7760  
      7629       7630       7641       7640       7750       7751       7762       7761  
      7630       7631       7642       7641       7751       7752       7763       7762  
      7631       7632       7643       7642       7752       7753       7764       7763  
      7632       7633       7644       7643       7753       7754       7765       7764  
      7633       7634       7645       7644       7754       7755       7766       7765  
      7635       7636       7647       7646       7756       7757       7768       7767  
      7636       7637       7648       7647       7757       7758       7769       7768  
      7637       7638       7649       7648       7758       7759       7770       7769  
      7638       7639       7650       7649       7759       7760       7771       7770  
      7639       7640       7651       7650       7760       7761       7772       7771  
      7640       7641       7652       7651       7761       7762       7773       7772  
      7641       7642       7653       7652       7762       7763       7774       7773  
      7642       7643       7654       7653       7763       7764       7775       7774  
      7643       7644       7655       7654       7764       7765       7776       7775  
      7644       7645       7656       7655       7765       7766       7777       7776  
      7646       7647       7658       7657       7767       7768       7779       7778  
      7647       7648       7659       7658       7768       7769       7780       7779  
      7648       7649       7660       7659       7769       7770       7781       7780  
      7649       7650       7661       7660       7770       7771       7782       7781  
      7650       7651       7662       7661       7771       7772       7783       7782  
      7651       7652       7663       7662       7772       7773       7784       7783  
      7652       7653       7664       7663       7773       7774       7785       7784  
      7653       7654       7665       7664       7774       7775       7786       7785  
      7654       7655       7666       7665       7775       7776       7787       7786  
      7655       7656       7667       7666       7776       7777       7788       7787  
      7657       7658       7669       7668       7778       7779       7790       7789  
      7658       7659       7670       7669       7779       7780       7791       7790  
      7659       7660       7671       7670       7780       7781       7792       7791  
      7660       7661       7672       7671       7781       7782       7793       7792  
      7661       7662       7673       7672       7782       7783       7794       7793  
      7662       7663       7674       7673       7783       7784       7795       7794  
      7663       7664       7675       7674       7784       7785       7796       7795  
      7664       7665       7676       7675       7785       7786       7797       7796  
      7665       7666       7677       7676       7786       7787       7798       7797  
      7666       7667       7678       7677       7787       7788       7799       7798  
      7668       7669       7680       7679       7789       7790       7801       7800  
      7669       7670       7681       7680       7790       7791       7802       7801  
      7670       7671       7682       7681       7791       7792       7803       7802  
      7671       7672       7683       7682       7792       7793       7804       7803  
      7672       7673       7684       7683       7793       7794       7805       7804  
      7673       7674       7685       7684       7794       7795       7806       7805  
      7674       7675       7686       7685       7795       7796       7807       7806  
      7675       7676       7687       7686       7796       7797       7808       7807  
      7676       7677       7688       7687       7797       7798       7809       7808  
      7677       7678       7689       7688       7798       7799       7810       7809  
      7679       7680       7691       7690       7800       7801       7812       7811  
      7680       7681       7692       7691       7801       7802       7813       7812  
      7681       7682       7693       7692       7802       7803       7814       7813  
      7682       7683       7694       7693       7803       7804       7815       7814  
      7683       7684       7695       7694       7804       7805       7816       7815  
      7684       7685       7696       7695       7805       7806       7817       7816  
      7685       7686       7697       7696       7806       7807       7818       7817  
      7686       7687       7698       7697       7807       7808       7819       7818  
      7687       7688       7699       7698       7808       7809       7820       7819  
      7688       7689       7700       7699       7809       7810       7821       7820  
      7690       7691       7702       7701       7811       7812       7823       7822  
      7691       7692       7703       7702       7812       7813       7824       7823  
      7692       7693       7704       7703       7813       7814       7825       7824  
      7693       7694       7705       7704       7814       7815       7826       7825  
      7694       7695       7706       7705       7815       7816       7827       7826  
      7695       7696       7707       7706       7816       7817       7828       7827  
      7696       7697       7708       7707       7817       7818       7829       7828  
      7697       7698       7709       7708       7818       7819       7830       7829  
      7698       7699       7710       7709       7819       7820       7831       7830  
      7699       7700       7711       7710       7820       7821       7832       7831  
      7701       7702       7713       7712       7822       7823       7834       7833  
      7702       7703       7714       7713       7823       7824       7835       7834  
      7703       7704       7715       7714       7824       7825       7836       7835  
      7704       7705       7716       7715       7825       7826       7837       7836  
      7705       7706       7717       7716       7826       7827       7838       7837  
      7706       7707       7718       7717       7827       7828       7839       7838  
      7707       7708       7719       7718       7828       7829       7840       7839  
      7708       7709       7720       7719       7829       7830       7841       7840  
      7709       7710       7721       7720       7830       7831       7842       7841  
      7710       7711       7722       7721       7831       7832       7843       7842  
      7712       7713       7724       7723       7833       7834       7845       7844  
      7713       7714       7725       7724       7834       7835       7846       7845  
      7714       7715       7726       7725       7835       7836       7847       7846  
      7715       7716       7727       7726       7836       7837       7848       7847  
      7716       7717       7728       7727       7837       7838       7849       7848  
      7717       7718       7729       7728       7838       7839       7850       7849  
      7718       7719       7730       7729       7839       7840       7851       7850  
      7719       7720       7731       7730       7840       7841       7852       7851  
      7720       7721       7732       7731       7841       7842       7853       7852  
      7721       7722       7733       7732       7842       7843       7854       7853  
      7723       7724       7735       7734       7844       7845       7856       7855  
      7724       7725       7736       7735       7845       7846       7857       7856  
      7725       7726       7737       7736       7846       7847       7858       7857  
      7726       7727       7738       7737       7847       7848       7859       7858  
      7727       7728       7739       7738       7848       7849       7860       7859  
      7728       7729       7740       7739       7849       7850       7861       7860  
      7729       7730       7741       7740       7850       7851       7862       7861  
      7730       7731       7742       7741       7851       7852       7863       7862  
      7731       7732       7743       7742       7852       7853       7864       7863  
      7732       7733       7744       7743       7853       7854       7865       7864  
      7745       7746       7757       7756       7866       7867       7878       7877  
      7746       7747       7758       7757       7867       7868       7879       7878  
      7747       7748       7759       7758       7868       7869       7880       7879  
      7748       7749       7760       7759       7869       7870       7881       7880  
      7749       7750       7761       7760       7870       7871       7882       7881  
      7750       7751       7762       7761       7871       7872       7883       7882  
      7751       7752       7763       7762       7872       7873       7884       7883  
      7752       7753       7764       7763       7873       7874       7885       7884  
      7753       7754       7765       7764       7874       7875       7886       7885  
      7754       7755       7766       7765       7875       7876       7887       7886  
      7756       7757       7768       7767       7877       7878       7889       7888  
      7757       7758       7769       7768       7878       7879       7890       7889  
      7758       7759       7770       7769       7879       7880       7891       7890  
      7759       7760       7771       7770       7880       7881       7892       7891  
      7760       7761       7772       7771       7881       7882       7893       7892  
      7761       7762       7773       7772       7882       7883       7894       7893  
      7762       7763       7774       7773       7883       7884       7895       7894  
      7763       7764       7775       7774       7884       7885       7896       7895  
      7764       7765       7776       7775       7885       7886       7897       7896  
      7765       7766       7777       7776       7886       7887       7898       7897  
      7767       7768       7779       7778       7888       7889       7900       7899  
      7768       7769       7780       7779       7889       7890       7901       7900  
      7769       7770       7781       7780       7890       7891       7902       7901  
      7770       7771       7782       7781       7891       7892       7903       7902  
      7771       7772       7783       7782       7892       7893       7904       7903  
      7772       7773       7784       7783       7893       7894       7905       7904  
      7773       7774       7785       7784       7894       7895       7906       7905  
      7774       7775       7786       7785       7895       7896       7907       7906  
      7775       7776       7787       7786       7896       7897       7908       7907  
      7776       7777       7788       7787       7897       7898       7909       7908  
      7778       7779       7790       7789       7899       7900       7911       7910  
      7779       7780       7791       7790       7900       7901       7912       7911  
      7780       7781       7792       7791       7901       7902       7913       7912  
      7781       7782       7793       7792       7902       7903       7914       7913  
      7782       7783       7794       7793       7903       7904       7915       7914  
      7783       7784       7795       7794       7904       7905       7916       7915  
      7784       7785       7796       7795       7905       7906       7917       7916  
      7785       7786       7797       7796       7906       7907       7918       7917  
      7786       7787       7798       7797       7907       7908       7919       7918  
      7787       7788       7799       7798       7908       7909       7920       7919  
      7789       7790       7801       7800       7910       7911       7922       7921  
      7790       7791       7802       7801       7911       7912       7923       7922  
      7791       7792       7803       7802       7912       7913       7924       7923  
      7792       7793       7804       7803       7913       7914       7925       7924  
      7793       7794       7805       7804       7914       7915       7926       7925  
      7794       7795       7806       7805       7915       7916       7927       7926  
      7795       7796       7807       7806       7916       7917       7928       7927  
      7796       7797       7808       7807       7917       7918       7929       7928  
      7797       7798       7809       7808       7918       7919       7930       7929  
      7798       7799       7810       7809       7919       7920       7931       7930  
      7800       7801       7812       7811       7921       7922       7933       7932  
      7801       7802       7813       7812       7922       7923       7934       7933  
      7802       7803       7814       7813       7923       7924       7935       7934  
      7803       7804       7815       7814       7924       7925       7936       7935  
      7804       7805       7816       7815       7925       7926       7937       7936  
      7805       7806       7817       7816       7926       7927       7938       7937  
      7806       7807       7818       7817       7927       7928       7939       7938  
      7807       7808       7819       7818       7928       7929       7940       7939  
      7808       7809       7820       7819       7929       7930       7941       7940  
      7809       7810       7821       7820       7930       7931       7942       7941  
      7811       7812       7823       7822       7932       7933       7944       7943  
      7812       7813       7824       7823       7933       7934       7945       7944  
      7813       7814       7825       7824       7934       7935       7946       7945  
      7814       7815       7826       7825       7935       7936       7947       7946  
      7815       7816       7827       7826       7936       7937       7948       7947  
      7816       7817       7828       7827       7937       7938       7949       7948  
      7817       7818       7829       7828       7938       7939       7950       7949  
      7818       7819       7830       7829       7939       7940       7951       7950  
      7819       7820       7831       7830       7940       7941       7952       7951  
      7820       7821       7832       7831       7941       7942       7953       7952  
      7822       7823       7834       7833       7943       7944       7955       7954  
      7823       7824       7835       7834       7944       7945       7956       7955  
      7824       7825       7836       7835       7945       7946       7957       7956  
      7825       7826       7837       7836       7946       7947       7958       7957  
      7826       7827       7838       7837       7947       7948       7959       7958  
      7827       7828       7839       7838       7948       7949       7960       7959  
      7828       7829       7840       7839       7949       7950       7961       7960  
      7829       7830       7841       7840       7950       7951       7962       7961  
      7830       7831       7842       7841       7951       7952       7963       7962  
      7831       7832       7843       7842       7952       7953       7964       7963  
      7833       7834       7845       7844       7954       7955       7966       7965  
      7834       7835       7846       7845       7955       7956       7967       7966  
      7835       7836       7847       7846       7956       7957       7968       7967  
      7836       7837       7848       7847       7957       7958       7969       7968  
      7837       7838       7849       7848       7958       7959       7970       7969  
      7838       7839       7850       7849       7959       7960       7971       7970  
      7839       7840       7851       7850       7960       7961       7972       7971  
      7840       7841       7852       7851       7961       7962       7973       7972  
      7841       7842       7853       7852       7962       7963       7974       7973  
      7842       7843       7854       7853       7963       7964       7975       7974  
      7844       7845       7856       7855       7965       7966       7977       7976  
      7845       7846       7857       7856       7966       7967       7978       7977  
      7846       7847       7858       7857       7967       7968       7979       7978  
      7847       7848       7859       7858       7968       7969       7980       7979  
      7848       7849       7860       7859       7969       7970       7981       7980  
      7849       7850       7861       7860       7970       7971       7982       7981  
      7850       7851       7862       7861       7971       7972       7983       7982  
      7851       7852       7863       7862       7972       7973       7984       7983  
      7852       7853       7864       7863       7973       7974       7985       7984  
      7853       7854       7865       7864       7974       7975       7986       7985  
      7866       7867       7878       7877       7987       7988       7999       7998  
      7867       7868       7879       7878       7988       7989       8000       7999  
      7868       7869       7880       7879       7989       7990       8001       8000  
      7869       7870       7881       7880       7990       7991       8002       8001  
      7870       7871       7882       7881       7991       7992       8003       8002  
      7871       7872       7883       7882       7992       7993       8004       8003  
      7872       7873       7884       7883       7993       7994       8005       8004  
      7873       7874       7885       7884       7994       7995       8006       8005  
      7874       7875       7886       7885       7995       7996       8007       8006  
      7875       7876       7887       7886       7996       7997       8008       8007  
      7877       7878       7889       7888       7998       7999       8010       8009  
      7878       7879       7890       7889       7999       8000       8011       8010  
      7879       7880       7891       7890       8000       8001       8012       8011  
      7880       7881       7892       7891       8001       8002       8013       8012  
      7881       7882       7893       7892       8002       8003       8014       8013  
      7882       7883       7894       7893       8003       8004       8015       8014  
      7883       7884       7895       7894       8004       8005       8016       8015  
      7884       7885       7896       7895       8005       8006       8017       8016  
      7885       7886       7897       7896       8006       8007       8018       8017  
      7886       7887       7898       7897       8007       8008       8019       8018  
      7888       7889       7900       7899       8009       8010       8021       8020  
      7889       7890       7901       7900       8010       8011       8022       8021  
      7890       7891       7902       7901       8011       8012       8023       8022  
      7891       7892       7903       7902       8012       8013       8024       8023  
      7892       7893       7904       7903       8013       8014       8025       8024  
      7893       7894       7905       7904       8014       8015       8026       8025  
      7894       7895       7906       7905       8015       8016       8027       8026  
      7895       7896       7907       7906       8016       8017       8028       8027  
      7896       7897       7908       7907       8017       8018       8029       8028  
      7897       7898       7909       7908       8018       8019       8030       8029  
      7899       7900       7911       7910       8020       8021       8032       8031  
      7900       7901       7912       7911       8021       8022       8033       8032  
      7901       7902       7913       7912       8022       8023       8034       8033  
      7902       7903       7914       7913       8023       8024       8035       8034  
      7903       7904       7915       7914       8024       8025       8036       8035  
      7904       7905       7916       7915       8025       8026       8037       8036  
      7905       7906       7917       7916       8026       8027       8038       8037  
      7906       7907       7918       7917       8027       8028       8039       8038  
      7907       7908       7919       7918       8028       8029       8040       8039  
      7908       7909       7920       7919       8029       8030       8041       8040  
      7910       7911       7922       7921       8031       8032       8043       8042  
      7911       7912       7923       7922       8032       8033       8044       8043  
      7912       7913       7924       7923       8033       8034       8045       8044  
      7913       7914       7925       7924       8034       8035       8046       8045  
      7914       7915       7926       7925       8035       8036       8047       8046  
      7915       7916       7927       7926       8036       8037       8048       8047  
      7916       7917       7928       7927       8037       8038       8049       8048  
      7917       7918       7929       7928       8038       8039       8050       8049  
      7918       7919       7930       7929       8039       8040       8051       8050  
      7919       7920       7931       7930       8040       8041       8052       8051  
      7921       7922       7933       7932       8042       8043       8054       8053  
      7922       7923       7934       7933       8043       8044       8055       8054  
      7923       7924       7935       7934       8044       8045       8056       8055  
      7924       7925       7936       7935       8045       8046       8057       8056  
      7925       7926       7937       7936       8046       8047       8058       8057  
      7926       7927       7938       7937       8047       8048       8059       8058  
      7927       7928       7939       7938       8048       8049       8060       8059  
      7928       7929       7940       7939       8049       8050       8061       8060  
      7929       7930       7941       7940       8050       8051       8062       8061  
      7930       7931       7942       7941       8051       8052       8063       8062  
      7932       7933       7944       7943       8053       8054       8065       8064  
      7933       7934       7945       7944       8054       8055       8066       8065  
      7934       7935       7946       7945       8055       8056       8067       8066  
      7935       7936       7947       7946       8056       8057       8068       8067  
      7936       7937       7948       7947       8057       8058       8069       8068  
      7937       7938       7949       7948       8058       8059       8070       8069  
      7938       7939       7950       7949       8059       8060       8071       8070  
      7939       7940       7951       7950       8060       8061       8072       8071  
      7940       7941       7952       7951       8061       8062       8073       8072  
      7941       7942       7953       7952       8062       8063       8074       8073  
      7943       7944       7955       7954       8064       8065       8076       8075  
      7944       7945       7956       7955       8065       8066       8077       8076  
      7945       7946       7957       7956       8066       8067       8078       8077  
      7946       7947       7958       7957       8067       8068       8079       8078  
      7947       7948       7959       7958       8068       8069       8080       8079  
      7948       7949       7960       7959       8069       8070       8081       8080  
      7949       7950       7961       7960       8070       8071       8082       8081  
      7950       7951       7962       7961       8071       8072       8083       8082  
      7951       7952       7963       7962       8072       8073       8084       8083  
      7952       7953       7964       7963       8073       8074       8085       8084  
      7954       7955       7966       7965       8075       8076       8087       8086  
      7955       7956       7967       7966       8076       8077       8088       8087  
      7956       7957       7968       7967       8077       8078       8089       8088  
      7957       7958       7969       7968       8078       8079       8090       8089  
      7958       7959       7970       7969       8079       8080       8091       8090  
      7959       7960       7971       7970       8080       8081       8092       8091  
      7960       7961       7972       7971       8081       8082       8093       8092  
      7961       7962       7973       7972       8082       8083       8094       8093  
      7962       7963       7974       7973       8083       8084       8095       8094  
      7963       7964       7975       7974       8084       8085       8096       8095  
      7965       7966       7977       7976       8086       8087       8098       8097  
      7966       7967       7978       7977       8087       8088       8099       8098  
      7967       7968       7979       7978       8088       8089       8100       8099  
      7968       7969       7980       7979       8089       8090       8101       8100  
      7969       7970       7981       7980       8090       8091       8102       8101  
      7970       7971       7982       7981       8091       8092       8103       8102  
      7971       7972       7983       7982       8092       8093       8104       8103  
      7972       7973       7984       7983       8093       8094       8105       8104  
      7973       7974       7985       7984       8094       8095       8106       8105  
      7974       7975       7986       7985       8095       8096       8107       8106  
      7987       7988       7999       7998       8108       8109       8120       8119  
      7988       7989       8000       7999       8109       8110       8121       8120  
      7989       7990       8001       8000       8110       8111       8122       8121  
      7990       7991       8002       8001       8111       8112       8123       8122  
      7991       7992       8003       8002       8112       8113       8124       8123  
      7992       7993       8004       8003       8113       8114       8125       8124  
      7993       7994       8005       8004       8114       8115       8126       8125  
      7994       7995       8006       8005       8115       8116       8127       8126  
      7995       7996       8007       8006       8116       8117       8128       8127  
      7996       7997       8008       8007       8117       8118       8129       8128  
      7998       7999       8010       8009       8119       8120       8131       8130  
      7999       8000       8011       8010       8120       8121       8132       8131  
      8000       8001       8012       8011       8121       8122       8133       8132  
      8001       8002       8013       8012       8122       8123       8134       8133  
      8002       8003       8014       8013       8123       8124       8135       8134  
      8003       8004       8015       8014       8124       8125       8136       8135  
      8004       8005       8016       8015       8125       8126       8137       8136  
      8005       8006       8017       8016       8126       8127       8138       8137  
      8006       8007       8018       8017       8127       8128       8139       8138  
      8007       8008       8019       8018       8128       8129       8140       8139  
      8009       8010       8021       8020       8130       8131       8142       8141  
      8010       8011       8022       8021       8131       8132       8143       8142  
      8011       8012       8023       8022       8132       8133       8144       8143  
      8012       8013       8024       8023       8133       8134       8145       8144  
      8013       8014       8025       8024       8134       8135       8146       8145  
      8014       8015       8026       8025       8135       8136       8147       8146  
      8015       8016       8027       8026       8136       8137       8148       8147  
      8016       8017       8028       8027       8137       8138       8149       8148  
      8017       8018       8029       8028       8138       8139       8150       8149  
      8018       8019       8030       8029       8139       8140       8151       8150  
      8020       8021       8032       8031       8141       8142       8153       8152  
      8021       8022       8033       8032       8142       8143       8154       8153  
      8022       8023       8034       8033       8143       8144       8155       8154  
      8023       8024       8035       8034       8144       8145       8156       8155  
      8024       8025       8036       8035       8145       8146       8157       8156  
      8025       8026       8037       8036       8146       8147       8158       8157  
      8026       8027       8038       8037       8147       8148       8159       8158  
      8027       8028       8039       8038       8148       8149       8160       8159  
      8028       8029       8040       8039       8149       8150       8161       8160  
      8029       8030       8041       8040       8150       8151       8162       8161  
      8031       8032       8043       8042       8152       8153       8164       8163  
      8032       8033       8044       8043       8153       8154       8165       8164  
      8033       8034       8045       8044       8154       8155       8166       8165  
      8034       8035       8046       8045       8155       8156       8167       8166  
      8035       8036       8047       8046       8156       8157       8168       8167  
      8036       8037       8048       8047       8157       8158       8169       8168  
      8037       8038       8049       8048       8158       8159       8170       8169  
      8038       8039       8050       8049       8159       8160       8171       8170  
      8039       8040       8051       8050       8160       8161       8172       8171  
      8040       8041       8052       8051       8161       8162       8173       8172  
      8042       8043       8054       8053       8163       8164       8175       8174  
      8043       8044       8055       8054       8164       8165       8176       8175  
      8044       8045       8056       8055       8165       8166       8177       8176  
      8045       8046       8057       8056       8166       8167       8178       8177  
      8046       8047       8058       8057       8167       8168       8179       8178  
      8047       8048       8059       8058       8168       8169       8180       8179  
      8048       8049       8060       8059       8169       8170       8181       8180  
      8049       8050       8061       8060       8170       8171       8182       8181  
      8050       8051       8062       8061       8171       8172       8183       8182  
      8051       8052       8063       8062       8172       8173       8184       8183  
      8053       8054       8065       8064       8174       8175       8186       8185  
      8054       8055       8066       8065       8175       8176       8187       8186  
      8055       8056       8067       8066       8176       8177       8188       8187  
      8056       8057       8068       8067       8177       8178       8189       8188  
      8057       8058       8069       8068       8178       8179       8190       8189  
      8058       8059       8070       8069       8179       8180       8191       8190  
      8059       8060       8071       8070       8180       8181       8192       8191  
      8060       8061       8072       8071       8181       8182       8193       8192  
      8061       8062       8073       8072       8182       8183       8194       8193  
      8062       8063       8074       8073       8183       8184       8195       8194  
      8064       8065       8076       8075       8185       8186       8197       8196  
      8065       8066       8077       8076       8186       8187       8198       8197  
      8066       8067       8078       8077       8187       8188       8199       8198  
      8067       8068       8079       8078       8188       8189       8200       8199  
      8068       8069       8080       8079       8189       8190       8201       8200  
      8069       8070       8081       8080       8190       8191       8202       8201  
      8070       8071       8082       8081       8191       8192       8203       8202  
      8071       8072       8083       8082       8192       8193       8204       8203  
      8072       8073       8084       8083       8193       8194       8205       8204  
      8073       8074       8085       8084       8194       8195       8206       8205  
      8075       8076       8087       8086       8196       8197       8208       8207  
      8076       8077       8088       8087       8197       8198       8209       8208  
      8077       8078       8089       8088       8198       8199       8210       8209  
      8078       8079       8090       8089       8199       8200       8211       8210  
      8079       8080       8091       8090       8200       8201       8212       8211  
      8080       8081       8092       8091       8201       8202       8213       8212  
      8081       8082       8093       8092       8202       8203       8214       8213  
      8082       8083       8094       8093       8203       8204       8215       8214  
      8083       8084       8095       8094       8204       8205       8216       8215  
      8084       8085       8096       8095       8205       8206       8217       8216  
      8086       8087       8098       8097       8207       8208       8219       8218  
      8087       8088       8099       8098       8208       8209       8220       8219  
      8088       8089       8100       8099       8209       8210       8221       8220  
      8089       8090       8101       8100       8210       8211       8222       8221  
      8090       8091       8102       8101       8211       8212       8223       8222  
      8091       8092       8103       8102       8212       8213       8224       8223  
      8092       8093       8104       8103       8213       8214       8225       8224  
      8093       8094       8105       8104       8214       8215       8226       8225  
      8094       8095       8106       8105       8215       8216       8227       8226  
      8095       8096       8107       8106       8216       8217       8228       8227  
      8108       8109       8120       8119       8229       8230       8241       8240  
      8109       8110       8121       8120       8230       8231       8242       8241  
      8110       8111       8122       8121       8231       8232       8243       8242  
      8111       8112       8123       8122       8232       8233       8244       8243  
      8112       8113       8124       8123       8233       8234       8245       8244  
      8113       8114       8125       8124       8234       8235       8246       8245  
      8114       8115       8126       8125       8235       8236       8247       8246  
      8115       8116       8127       8126       8236       8237       8248       8247  
      8116       8117       8128       8127       8237       8238       8249       8248  
      8117       8118       8129       8128       8238       8239       8250       8249  
      8119       8120       8131       8130       8240       8241       8252       8251  
      8120       8121       8132       8131       8241       8242       8253       8252  
      8121       8122       8133       8132       8242       8243       8254       8253  
      8122       8123       8134       8133       8243       8244       8255       8254  
      8123       8124       8135       8134       8244       8245       8256       8255  
      8124       8125       8136       8135       8245       8246       8257       8256  
      8125       8126       8137       8136       8246       8247       8258       8257  
      8126       8127       8138       8137       8247       8248       8259       8258  
      8127       8128       8139       8138       8248       8249       8260       8259  
      8128       8129       8140       8139       8249       8250       8261       8260  
      8130       8131       8142       8141       8251       8252       8263       8262  
      8131       8132       8143       8142       8252       8253       8264       8263  
      8132       8133       8144       8143       8253       8254       8265       8264  
      8133       8134       8145       8144       8254       8255       8266       8265  
      8134       8135       8146       8145       8255       8256       8267       8266  
      8135       8136       8147       8146       8256       8257       8268       8267  
      8136       8137       8148       8147       8257       8258       8269       8268  
      8137       8138       8149       8148       8258       8259       8270       8269  
      8138       8139       8150       8149       8259       8260       8271       8270  
      8139       8140       8151       8150       8260       8261       8272       8271  
      8141       8142       8153       8152       8262       8263       8274       8273  
      8142       8143       8154       8153       8263       8264       8275       8274  
      8143       8144       8155       8154       8264       8265       8276       8275  
      8144       8145       8156       8155       8265       8266       8277       8276  
      8145       8146       8157       8156       8266       8267       8278       8277  
      8146       8147       8158       8157       8267       8268       8279       8278  
      8147       8148       8159       8158       8268       8269       8280       8279  
      8148       8149       8160       8159       8269       8270       8281       8280  
      8149       8150       8161       8160       8270       8271       8282       8281  
      8150       8151       8162       8161       8271       8272       8283       8282  
      8152       8153       8164       8163       8273       8274       8285       8284  
      8153       8154       8165       8164       8274       8275       8286       8285  
      8154       8155       8166       8165       8275       8276       8287       8286  
      8155       8156       8167       8166       8276       8277       8288       8287  
      8156       8157       8168       8167       8277       8278       8289       8288  
      8157       8158       8169       8168       8278       8279       8290       8289  
      8158       8159       8170       8169       8279       8280       8291       8290  
      8159       8160       8171       8170       8280       8281       8292       8291  
      8160       8161       8172       8171       8281       8282       8293       8292  
      8161       8162       8173       8172       8282       8283       8294       8293  
      8163       8164       8175       8174       8284       8285       8296       8295  
      8164       8165       8176       8175       8285       8286       8297       8296  
      8165       8166       8177       8176       8286       8287       8298       8297  
      8166       8167       8178       8177       8287       8288       8299       8298  
      8167       8168       8179       8178       8288       8289       8300       8299  
      8168       8169       8180       8179       8289       8290       8301       8300  
      8169       8170       8181       8180       8290       8291       8302       8301  
      8170       8171       8182       8181       8291       8292       8303       8302  
      8171       8172       8183       8182       8292       8293       8304       8303  
      8172       8173       8184       8183       8293       8294       8305       8304  
      8174       8175       8186       8185       8295       8296       8307       8306  
      8175       8176       8187       8186       8296       8297       8308       8307  
      8176       8177       8188       8187       8297       8298       8309       8308  
      8177       8178       8189       8188       8298       8299       8310       8309  
      8178       8179       8190       8189       8299       8300       8311       8310  
      8179       8180       8191       8190       8300       8301       8312       8311  
      8180       8181       8192       8191       8301       8302       8313       8312  
      8181       8182       8193       8192       8302       8303       8314       8313  
      8182       8183       8194       8193       8303       8304       8315       8314  
      8183       8184       8195       8194       8304       8305       8316       8315  
      8185       8186       8197       8196       8306       8307       8318       8317  
      8186       8187       8198       8197       8307       8308       8319       8318  
      8187       8188       8199       8198       8308       8309       8320       8319  
      8188       8189       8200       8199       8309       8310       8321       8320  
      8189       8190       8201       8200       8310       8311       8322       8321  
      8190       8191       8202       8201       8311       8312       8323       8322  
      8191       8192       8203       8202       8312       8313       8324       8323  
      8192       8193       8204       8203       8313       8314       8325       8324  
      8193       8194       8205       8204       8314       8315       8326       8325  
      8194       8195       8206       8205       8315       8316       8327       8326  
      8196       8197       8208       8207       8317       8318       8329       8328  
      8197       8198       8209       8208       8318       8319       8330       8329  
      8198       8199       8210       8209       8319       8320       8331       8330  
      8199       8200       8211       8210       8320       8321       8332       8331  
      8200       8201       8212       8211       8321       8322       8333       8332  
      8201       8202       8213       8212       8322       8323       8334       8333  
      8202       8203       8214       8213       8323       8324       8335       8334  
      8203       8204       8215       8214       8324       8325       8336       8335  
      8204       8205       8216       8215       8325       8326       8337       8336  
      8205       8206       8217       8216       8326       8327       8338       8337  
      8207       8208       8219       8218       8328       8329       8340       8339  
      8208       8209       8220       8219       8329       8330       8341       8340  
      8209       8210       8221       8220       8330       8331       8342       8341  
      8210       8211       8222       8221       8331       8332       8343       8342  
      8211       8212       8223       8222       8332       8333       8344       8343  
      8212       8213       8224       8223       8333       8334       8345       8344  
      8213       8214       8225       8224       8334       8335       8346       8345  
      8214       8215       8226       8225       8335       8336       8347       8346  
      8215       8216       8227       8226       8336       8337       8348       8347  
      8216       8217       8228       8227       8337       8338       8349       8348  
      8229       8230       8241       8240       8350       8351       8362       8361  
      8230       8231       8242       8241       8351       8352       8363       8362  
      8231       8232       8243       8242       8352       8353       8364       8363  
      8232       8233       8244       8243       8353       8354       8365       8364  
      8233       8234       8245       8244       8354       8355       8366       8365  
      8234       8235       8246       8245       8355       8356       8367       8366  
      8235       8236       8247       8246       8356       8357       8368       8367  
      8236       8237       8248       8247       8357       8358       8369       8368  
      8237       8238       8249       8248       8358       8359       8370       8369  
      8238       8239       8250       8249       8359       8360       8371       8370  
      8240       8241       8252       8251       8361       8362       8373       8372  
      8241       8242       8253       8252       8362       8363       8374       8373  
      8242       8243       8254       8253       8363       8364       8375       8374  
      8243       8244       8255       8254       8364       8365       8376       8375  
      8244       8245       8256       8255       8365       8366       8377       8376  
      8245       8246       8257       8256       8366       8367       8378       8377  
      8246       8247       8258       8257       8367       8368       8379       8378  
      8247       8248       8259       8258       8368       8369       8380       8379  
      8248       8249       8260       8259       8369       8370       8381       8380  
      8249       8250       8261       8260       8370       8371       8382       8381  
      8251       8252       8263       8262       8372       8373       8384       8383  
      8252       8253       8264       8263       8373       8374       8385       8384  
      8253       8254       8265       8264       8374       8375       8386       8385  
      8254       8255       8266       8265       8375       8376       8387       8386  
      8255       8256       8267       8266       8376       8377       8388       8387  
      8256       8257       8268       8267       8377       8378       8389       8388  
      8257       8258       8269       8268       8378       8379       8390       8389  
      8258       8259       8270       8269       8379       8380       8391       8390  
      8259       8260       8271       8270       8380       8381       8392       8391  
      8260       8261       8272       8271       8381       8382       8393       8392  
      8262       8263       8274       8273       8383       8384       8395       8394  
      8263       8264       8275       8274       8384       8385       8396       8395  
      8264       8265       8276       8275       8385       8386       8397       8396  
      8265       8266       8277       8276       8386       8387       8398       8397  
      8266       8267       8278       8277       8387       8388       8399       8398  
      8267       8268       8279       8278       8388       8389       8400       8399  
      8268       8269       8280       8279       8389       8390       8401       8400  
      8269       8270       8281       8280       8390       8391       8402       8401  
      8270       8271       8282       8281       8391       8392       8403       8402  
      8271       8272       8283       8282       8392       8393       8404       8403  
      8273       8274       8285       8284       8394       8395       8406       8405  
      8274       8275       8286       8285       8395       8396       8407       8406  
      8275       8276       8287       8286       8396       8397       8408       8407  
      8276       8277       8288       8287       8397       8398       8409       8408  
      8277       8278       8289       8288       8398       8399       8410       8409  
      8278       8279       8290       8289       8399       8400       8411       8410  
      8279       8280       8291       8290       8400       8401       8412       8411  
      8280       8281       8292       8291       8401       8402       8413       8412  
      8281       8282       8293       8292       8402       8403       8414       8413  
      8282       8283       8294       8293       8403       8404       8415       8414  
      8284       8285       8296       8295       8405       8406       8417       8416  
      8285       8286       8297       8296       8406       8407       8418       8417  
      8286       8287       8298       8297       8407       8408       8419       8418  
      8287       8288       8299       8298       8408       8409       8420       8419  
      8288       8289       8300       8299       8409       8410       8421       8420  
      8289       8290       8301       8300       8410       8411       8422       8421  
      8290       8291       8302       8301       8411       8412       8423       8422  
      8291       8292       8303       8302       8412       8413       8424       8423  
      8292       8293       8304       8303       8413       8414       8425       8424  
      8293       8294       8305       8304       8414       8415       8426       8425  
      8295       8296       8307       8306       8416       8417       8428       8427  
      8296       8297       8308       8307       8417       8418       8429       8428  
      8297       8298       8309       8308       8418       8419       8430       8429  
      8298       8299       8310       8309       8419       8420       8431       8430  
      8299       8300       8311       8310       8420       8421       8432       8431  
      8300       8301       8312       8311       8421       8422       8433       8432  
      8301       8302       8313       8312       8422       8423       8434       8433  
      8302       8303       8314       8313       8423       8424       8435       8434  
      8303       8304       8315       8314       8424       8425       8436       8435  
      8304       8305       8316       8315       8425       8426       8437       8436  
      8306       8307       8318       8317       8427       8428       8439       8438  
      8307       8308       8319       8318       8428       8429       8440       8439  
      8308       8309       8320       8319       8429       8430       8441       8440  
      8309       8310       8321       8320       8430       8431       8442       8441  
      8310       8311       8322       8321       8431       8432       8443       8442  
      8311       8312       8323       8322       8432       8433       8444       8443  
      8312       8313       8324       8323       8433       8434       8445       8444  
      8313       8314       8325       8324       8434       8435       8446       8445  
      8314       8315       8326       8325       8435       8436       8447       8446  
      8315       8316       8327       8326       8436       8437       8448       8447  
      8317       8318       8329       8328       8438       8439       8450       8449  
      8318       8319       8330       8329       8439       8440       8451       8450  
      8319       8320       8331       8330       8440       8441       8452       8451  
      8320       8321       8332       8331       8441       8442       8453       8452  
      8321       8322       8333       8332       8442       8443       8454       8453  
      8322       8323       8334       8333       8443       8444       8455       8454  
      8323       8324       8335       8334       8444       8445       8456       8455  
      8324       8325       8336       8335       8445       8446       8457       8456  
      8325       8326       8337       8336       8446       8447       8458       8457  
      8326       8327       8338       8337       8447       8448       8459       8458  
      8328       8329       8340       8339       8449       8450       8461       8460  
      8329       8330       8341       8340       8450       8451       8462       8461  
      8330       8331       8342       8341       8451       8452       8463       8462  
      8331       8332       8343       8342       8452       8453       8464       8463  
      8332       8333       8344       8343       8453       8454       8465       8464  
      8333       8334       8345       8344       8454       8455       8466       8465  
      8334       8335       8346       8345       8455       8456       8467       8466  
      8335       8336       8347       8346       8456       8457       8468       8467  
      8336       8337       8348       8347       8457       8458       8469       8468  
      8337       8338       8349       8348       8458       8459       8470       8469  
      8350       8351       8362       8361       8471       8472       8483       8482  
      8351       8352       8363       8362       8472       8473       8484       8483  
      8352       8353       8364       8363       8473       8474       8485       8484  
      8353       8354       8365       8364       8474       8475       8486       8485  
      8354       8355       8366       8365       8475       8476       8487       8486  
      8355       8356       8367       8366       8476       8477       8488       8487  
      8356       8357       8368       8367       8477       8478       8489       8488  
      8357       8358       8369       8368       8478       8479       8490       8489  
      8358       8359       8370       8369       8479       8480       8491       8490  
      8359       8360       8371       8370       8480       8481       8492       8491  
      8361       8362       8373       8372       8482       8483       8494       8493  
      8362       8363       8374       8373       8483       8484       8495       8494  
      8363       8364       8375       8374       8484       8485       8496       8495  
      8364       8365       8376       8375       8485       8486       8497       8496  
      8365       8366       8377       8376       8486       8487       8498       8497  
      8366       8367       8378       8377       8487       8488       8499       8498  
      8367       8368       8379       8378       8488       8489       8500       8499  
      8368       8369       8380       8379       8489       8490       8501       8500  
      8369       8370       8381       8380       8490       8491       8502       8501  
      8370       8371       8382       8381       8491       8492       8503       8502  
      8372       8373       8384       8383       8493       8494       8505       8504  
      8373       8374       8385       8384       8494       8495       8506       8505  
      8374       8375       8386       8385       8495       8496       8507       8506  
      8375       8376       8387       8386       8496       8497       8508       8507  
      8376       8377       8388       8387       8497       8498       8509       8508  
      8377       8378       8389       8388       8498       8499       8510       8509  
      8378       8379       8390       8389       8499       8500       8511       8510  
      8379       8380       8391       8390       8500       8501       8512       8511  
      8380       8381       8392       8391       8501       8502       8513       8512  
      8381       8382       8393       8392       8502       8503       8514       8513  
      8383       8384       8395       8394       8504       8505       8516       8515  
      8384       8385       8396       8395       8505       8506       8517       8516  
      8385       8386       8397       8396       8506       8507       8518       8517  
      8386       8387       8398       8397       8507       8508       8519       8518  
      8387       8388       8399       8398       8508       8509       8520       8519  
      8388       8389       8400       8399       8509       8510       8521       8520  
      8389       8390       8401       8400       8510       8511       8522       8521  
      8390       8391       8402       8401       8511       8512       8523       8522  
      8391       8392       8403       8402       8512       8513       8524       8523  
      8392       8393       8404       8403       8513       8514       8525       8524  
      8394       8395       8406       8405       8515       8516       8527       8526  
      8395       8396       8407       8406       8516       8517       8528       8527  
      8396       8397       8408       8407       8517       8518       8529       8528  
      8397       8398       8409       8408       8518       8519       8530       8529  
      8398       8399       8410       8409       8519       8520       8531       8530  
      8399       8400       8411       8410       8520       8521       8532       8531  
      8400       8401       8412       8411       8521       8522       8533       8532  
      8401       8402       8413       8412       8522       8523       8534       8533  
      8402       8403       8414       8413       8523       8524       8535       8534  
      8403       8404       8415       8414       8524       8525       8536       8535  
      8405       8406       8417       8416       8526       8527       8538       8537  
      8406       8407       8418       8417       8527       8528       8539       8538  
      8407       8408       8419       8418       8528       8529       8540       8539  
      8408       8409       8420       8419       8529       8530       8541       8540  
      8409       8410       8421       8420       8530       8531       8542       8541  
      8410       8411       8422       8421       8531       8532       8543       8542  
      8411       8412       8423       8422       8532       8533       8544       8543  
      8412       8413       8424       8423       8533       8534       8545       8544  
      8413       8414       8425       8424       8534       8535       8546       8545  
      8414       8415       8426       8425       8535       8536       8547       8546  
      8416       8417       8428       8427       8537       8538       8549       8548  
      8417       8418       8429       8428       8538       8539       8550       8549  
      8418       8419       8430       8429       8539       8540       8551       8550  
      8419       8420       8431       8430       8540       8541       8552       8551  
      8420       8421       8432       8431       8541       8542       8553       8552  
      8421       8422       8433       8432       8542       8543       8554       8553  
      8422       8423       8434       8433       8543       8544       8555       8554  
      8423       8424       8435       8434       8544       8545       8556       8555  
      8424       8425       8436       8435       8545       8546       8557       8556  
      8425       8426       8437       8436       8546       8547       8558       8557  
      8427       8428       8439       8438       8548       8549       8560       8559  
      8428       8429       8440       8439       8549       8550       8561       8560  
      8429       8430       8441       8440       8550       8551       8562       8561  
      8430       8431       8442       8441       8551       8552       8563       8562  
      8431       8432       8443       8442       8552       8553       8564       8563  
      8432       8433       8444       8443       8553       8554       8565       8564  
      8433       8434       8445       8444       8554       8555       8566       8565  
      8434       8435       8446       8445       8555       8556       8567       8566  
      8435       8436       8447       8446       8556       8557       8568       8567  
      8436       8437       8448       8447       8557       8558       8569       8568  
      8438       8439       8450       8449       8559       8560       8571       8570  
      8439       8440       8451       8450       8560       8561       8572       8571  
      8440       8441       8452       8451       8561       8562       8573       8572  
      8441       8442       8453       8452       8562       8563       8574       8573  
      8442       8443       8454       8453       8563       8564       8575       8574  
      8443       8444       8455       8454       8564       8565       8576       8575  
      8444       8445       8456       8455       8565       8566       8577       8576  
      8445       8446       8457       8456       8566       8567       8578       8577  
      8446       8447       8458       8457       8567       8568       8579       8578  
      8447       8448       8459       8458       8568       8569       8580       8579  
      8449       8450       8461       8460       8570       8571       8582       8581  
      8450       8451       8462       8461       8571       8572       8583       8582  
      8451       8452       8463       8462       8572       8573       8584       8583  
      8452       8453       8464       8463       8573       8574       8585       8584  
      8453       8454       8465       8464       8574       8575       8586       8585  
      8454       8455       8466       8465       8575       8576       8587       8586  
      8455       8456       8467       8466       8576       8577       8588       8587  
      8456       8457       8468       8467       8577       8578       8589       8588  
      8457       8458       8469       8468       8578       8579       8590       8589  
      8458       8459       8470       8469       8579       8580       8591       8590  
      8471       8472       8483       8482       8592       8593       8604       8603  
      8472       8473       8484       8483       8593       8594       8605       8604  
      8473       8474       8485       8484       8594       8595       8606       8605  
      8474       8475       8486       8485       8595       8596       8607       8606  
      8475       8476       8487       8486       8596       8597       8608       8607  
      8476       8477       8488       8487       8597       8598       8609       8608  
      8477       8478       8489       8488       8598       8599       8610       8609  
      8478       8479       8490       8489       8599       8600       8611       8610  
      8479       8480       8491       8490       8600       8601       8612       8611  
      8480       8481       8492       8491       8601       8602       8613       8612  
      8482       8483       8494       8493       8603       8604       8615       8614  
      8483       8484       8495       8494       8604       8605       8616       8615  
      8484       8485       8496       8495       8605       8606       8617       8616  
      8485       8486       8497       8496       8606       8607       8618       8617  
      8486       8487       8498       8497       8607       8608       8619       8618  
      8487       8488       8499       8498       8608       8609       8620       8619  
      8488       8489       8500       8499       8609       8610       8621       8620  
      8489       8490       8501       8500       8610       8611       8622       8621  
      8490       8491       8502       8501       8611       8612       8623       8622  
      8491       8492       8503       8502       8612       8613       8624       8623  
      8493       8494       8505       8504       8614       8615       8626       8625  
      8494       8495       8506       8505       8615       8616       8627       8626  
      8495       8496       8507       8506       8616       8617       8628       8627  
      8496       8497       8508       8507       8617       8618       8629       8628  
      8497       8498       8509       8508       8618       8619       8630       8629  
      8498       8499       8510       8509       8619       8620       8631       8630  
      8499       8500       8511       8510       8620       8621       8632       8631  
      8500       8501       8512       8511       8621       8622       8633       8632  
      8501       8502       8513       8512       8622       8623       8634       8633  
      8502       8503       8514       8513       8623       8624       8635       8634  
      8504       8505       8516       8515       8625       8626       8637       8636  
      8505       8506       8517       8516       8626       8627       8638       8637  
      8506       8507       8518       8517       8627       8628       8639       8638  
      8507       8508       8519       8518       8628       8629       8640       8639  
      8508       8509       8520       8519       8629       8630       8641       8640  
      8509       8510       8521       8520       8630       8631       8642       8641  
      8510       8511       8522       8521       8631       8632       8643       8642  
      8511       8512       8523       8522       8632       8633       8644       8643  
      8512       8513       8524       8523       8633       8634       8645       8644  
      8513       8514       8525       8524       8634       8635       8646       8645  
      8515       8516       8527       8526       8636       8637       8648       8647  
      8516       8517       8528       8527       8637       8638       8649       8648  
      8517       8518       8529       8528       8638       8639       8650       8649  
      8518       8519       8530       8529       8639       8640       8651       8650  
      8519       8520       8531       8530       8640       8641       8652       8651  
      8520       8521       8532       8531       8641       8642       8653       8652  
      8521       8522       8533       8532       8642       8643       8654       8653  
      8522       8523       8534       8533       8643       8644       8655       8654  
      8523       8524       8535       8534       8644       8645       8656       8655  
      8524       8525       8536       8535       8645       8646       8657       8656  
      8526       8527       8538       8537       8647       8648       8659       8658  
      8527       8528       8539       8538       8648       8649       8660       8659  
      8528       8529       8540       8539       8649       8650       8661       8660  
      8529       8530       8541       8540       8650       8651       8662       8661  
      8530       8531       8542       8541       8651       8652       8663       8662  
      8531       8532       8543       8542       8652       8653       8664       8663  
      8532       8533       8544       8543       8653       8654       8665       8664  
      8533       8534       8545       8544       8654       8655       8666       8665  
      8534       8535       8546       8545       8655       8656       8667       8666  
      8535       8536       8547       8546       8656       8657       8668       8667  
      8537       8538       8549       8548       8658       8659       8670       8669  
      8538       8539       8550       8549       8659       8660       8671       8670  
      8539       8540       8551       8550       8660       8661       8672       8671  
      8540       8541       8552       8551       8661       8662       8673       8672  
      8541       8542       8553       8552       8662       8663       8674       8673  
      8542       8543       8554       8553       8663       8664       8675       8674  
      8543       8544       8555       8554       8664       8665       8676       8675  
      8544       8545       8556       8555       8665       8666       8677       8676  
      8545       8546       8557       8556       8666       8667       8678       8677  
      8546       8547       8558       8557       8667       8668       8679       8678  
      8548       8549       8560       8559       8669       8670       8681       8680  
      8549       8550       8561       8560       8670       8671       8682       8681  
      8550       8551       8562       8561       8671       8672       8683       8682  
      8551       8552       8563       8562       8672       8673       8684       8683  
      8552       8553       8564       8563       8673       8674       8685       8684  
      8553       8554       8565       8564       8674       8675       8686       8685  
      8554       8555       8566       8565       8675       8676       8687       8686  
      8555       8556       8567       8566       8676       8677       8688       8687  
      8556       8557       8568       8567       8677       8678       8689       8688  
      8557       8558       8569       8568       8678       8679       8690       8689  
      8559       8560       8571       8570       8680       8681       8692       8691  
      8560       8561       8572       8571       8681       8682       8693       8692  
      8561       8562       8573       8572       8682       8683       8694       8693  
      8562       8563       8574       8573       8683       8684       8695       8694  
      8563       8564       8575       8574       8684       8685       8696       8695  
      8564       8565       8576       8575       8685       8686       8697       8696  
      8565       8566       8577       8576       8686       8687       8698       8697  
      8566       8567       8578       8577       8687       8688       8699       8698  
      8567       8568       8579       8578       8688       8689       8700       8699  
      8568       8569       8580       8579       8689       8690       8701       8700  
      8570       8571       8582       8581       8691       8692       8703       8702  
      8571       8572       8583       8582       8692       8693       8704       8703  
      8572       8573       8584       8583       8693       8694       8705       8704  
      8573       8574       8585       8584       8694       8695       8706       8705  
      8574       8575       8586       8585       8695       8696       8707       8706  
      8575       8576       8587       8586       8696       8697       8708       8707  
      8576       8577       8588       8587       8697       8698       8709       8708  
      8577       8578       8589       8588       8698       8699       8710       8709  
      8578       8579       8590       8589       8699       8700       8711       8710  
      8579       8580       8591       8590       8700       8701       8712       8711  
      8592       8593       8604       8603       8713       8714       8725       8724  
      8593       8594       8605       8604       8714       8715       8726       8725  
      8594       8595       8606       8605       8715       8716       8727       8726  
      8595       8596       8607       8606       8716       8717       8728       8727  
      8596       8597       8608       8607       8717       8718       8729       8728  
      8597       8598       8609       8608       8718       8719       8730       8729  
      8598       8599       8610       8609       8719       8720       8731       8730  
      8599       8600       8611       8610       8720       8721       8732       8731  
      8600       8601       8612       8611       8721       8722       8733       8732  
      8601       8602       8613       8612       8722       8723       8734       8733  
      8603       8604       8615       8614       8724       8725       8736       8735  
      8604       8605       8616       8615       8725       8726       8737       8736  
      8605       8606       8617       8616       8726       8727       8738       8737  
      8606       8607       8618       8617       8727       8728       8739       8738  
      8607       8608       8619       8618       8728       8729       8740       8739  
      8608       8609       8620       8619       8729       8730       8741       8740  
      8609       8610       8621       8620       8730       8731       8742       8741  
      8610       8611       8622       8621       8731       8732       8743       8742  
      8611       8612       8623       8622       8732       8733       8744       8743  
      8612       8613       8624       8623       8733       8734       8745       8744  
      8614       8615       8626       8625       8735       8736       8747       8746  
      8615       8616       8627       8626       8736       8737       8748       8747  
      8616       8617       8628       8627       8737       8738       8749       8748  
      8617       8618       8629       8628       8738       8739       8750       8749  
      8618       8619       8630       8629       8739       8740       8751       8750  
      8619       8620       8631       8630       8740       8741       8752       8751  
      8620       8621       8632       8631       8741       8742       8753       8752  
      8621       8622       8633       8632       8742       8743       8754       8753  
      8622       8623       8634       8633       8743       8744       8755       8754  
      8623       8624       8635       8634       8744       8745       8756       8755  
      8625       8626       8637       8636       8746       8747       8758       8757  
      8626       8627       8638       8637       8747       8748       8759       8758  
      8627       8628       8639       8638       8748       8749       8760       8759  
      8628       8629       8640       8639       8749       8750       8761       8760  
      8629       8630       8641       8640       8750       8751       8762       8761  
      8630       8631       8642       8641       8751       8752       8763       8762  
      8631       8632       8643       8642       8752       8753       8764       8763  
      8632       8633       8644       8643       8753       8754       8765       8764  
      8633       8634       8645       8644       8754       8755       8766       8765  
      8634       8635       8646       8645       8755       8756       8767       8766  
      8636       8637       8648       8647       8757       8758       8769       8768  
      8637       8638       8649       8648       8758       8759       8770       8769  
      8638       8639       8650       8649       8759       8760       8771       8770  
      8639       8640       8651       8650       8760       8761       8772       8771  
      8640       8641       8652       8651       8761       8762       8773       8772  
      8641       8642       8653       8652       8762       8763       8774       8773  
      8642       8643       8654       8653       8763       8764       8775       8774  
      8643       8644       8655       8654       8764       8765       8776       8775  
      8644       8645       8656       8655       8765       8766       8777       8776  
      8645       8646       8657       8656       8766       8767       8778       8777  
      8647       8648       8659       8658       8768       8769       8780       8779  
      8648       8649       8660       8659       8769       8770       8781       8780  
      8649       8650       8661       8660       8770       8771       8782       8781  
      8650       8651       8662       8661       8771       8772       8783       8782  
      8651       8652       8663       8662       8772       8773       8784       8783  
      8652       8653       8664       8663       8773       8774       8785       8784  
      8653       8654       8665       8664       8774       8775       8786       8785  
      8654       8655       8666       8665       8775       8776       8787       8786  
      8655       8656       8667       8666       8776       8777       8788       8787  
      8656       8657       8668       8667       8777       8778       8789       8788  
      8658       8659       8670       8669       8779       8780       8791       8790  
      8659       8660       8671       8670       8780       8781       8792       8791  
      8660       8661       8672       8671       8781       8782       8793       8792  
      8661       8662       8673       8672       8782       8783       8794       8793  
      8662       8663       8674       8673       8783       8784       8795       8794  
      8663       8664       8675       8674       8784       8785       8796       8795  
      8664       8665       8676       8675       8785       8786       8797       8796  
      8665       8666       8677       8676       8786       8787       8798       8797  
      8666       8667       8678       8677       8787       8788       8799       8798  
      8667       8668       8679       8678       8788       8789       8800       8799  
      8669       8670       8681       8680       8790       8791       8802       8801  
      8670       8671       8682       8681       8791       8792       8803       8802  
      8671       8672       8683       8682       8792       8793       8804       8803  
      8672       8673       8684       8683       8793       8794       8805       8804  
      8673       8674       8685       8684       8794       8795       8806       8805  
      8674       8675       8686       8685       8795       8796       8807       8806  
      8675       8676       8687       8686       8796       8797       8808       8807  
      8676       8677       8688       8687       8797       8798       8809       8808  
      8677       8678       8689       8688       8798       8799       8810       8809  
      8678       8679       8690       8689       8799       8800       8811       8810  
      8680       8681       8692       8691       8801       8802       8813       8812  
      8681       8682       8693       8692       8802       8803       8814       8813  
      8682       8683       8694       8693       8803       8804       8815       8814  
      8683       8684       8695       8694       8804       8805       8816       8815  
      8684       8685       8696       8695       8805       8806       8817       8816  
      8685       8686       8697       8696       8806       8807       8818       8817  
      8686       8687       8698       8697       8807       8808       8819       8818  
      8687       8688       8699       8698       8808       8809       8820       8819  
      8688       8689       8700       8699       8809       8810       8821       8820  
      8689       8690       8701       8700       8810       8811       8822       8821  
      8691       8692       8703       8702       8812       8813       8824       8823  
      8692       8693       8704       8703       8813       8814       8825       8824  
      8693       8694       8705       8704       8814       8815       8826       8825  
      8694       8695       8706       8705       8815       8816       8827       8826  
      8695       8696       8707       8706       8816       8817       8828       8827  
      8696       8697       8708       8707       8817       8818       8829       8828  
      8697       8698       8709       8708       8818       8819       8830       8829  
      8698       8699       8710       8709       8819       8820       8831       8830  
      8699       8700       8711       8710       8820       8821       8832       8831  
      8700       8701       8712       8711       8821       8822       8833       8832  
      8713       8714       8725       8724       8834       8835       8846       8845  
      8714       8715       8726       8725       8835       8836       8847       8846  
      8715       8716       8727       8726       8836       8837       8848       8847  
      8716       8717       8728       8727       8837       8838       8849       8848  
      8717       8718       8729       8728       8838       8839       8850       8849  
      8718       8719       8730       8729       8839       8840       8851       8850  
      8719       8720       8731       8730       8840       8841       8852       8851  
      8720       8721       8732       8731       8841       8842       8853       8852  
      8721       8722       8733       8732       8842       8843       8854       8853  
      8722       8723       8734       8733       8843       8844       8855       8854  
      8724       8725       8736       8735       8845       8846       8857       8856  
      8725       8726       8737       8736       8846       8847       8858       8857  
      8726       8727       8738       8737       8847       8848       8859       8858  
      8727       8728       8739       8738       8848       8849       8860       8859  
      8728       8729       8740       8739       8849       8850       8861       8860  
      8729       8730       8741       8740       8850       8851       8862       8861  
      8730       8731       8742       8741       8851       8852       8863       8862  
      8731       8732       8743       8742       8852       8853       8864       8863  
      8732       8733       8744       8743       8853       8854       8865       8864  
      8733       8734       8745       8744       8854       8855       8866       8865  
      8735       8736       8747       8746       8856       8857       8868       8867  
      8736       8737       8748       8747       8857       8858       8869       8868  
      8737       8738       8749       8748       8858       8859       8870       8869  
      8738       8739       8750       8749       8859       8860       8871       8870  
      8739       8740       8751       8750       8860       8861       8872       8871  
      8740       8741       8752       8751       8861       8862       8873       8872  
      8741       8742       8753       8752       8862       8863       8874       8873  
      8742       8743       8754       8753       8863       8864       8875       8874  
      8743       8744       8755       8754       8864       8865       8876       8875  
      8744       8745       8756       8755       8865       8866       8877       8876  
      8746       8747       8758       8757       8867       8868       8879       8878  
      8747       8748       8759       8758       8868       8869       8880       8879  
      8748       8749       8760       8759       8869       8870       8881       8880  
      8749       8750       8761       8760       8870       8871       8882       8881  
      8750       8751       8762       8761       8871       8872       8883       8882  
      8751       8752       8763       8762       8872       8873       8884       8883  
      8752       8753       8764       8763       8873       8874       8885       8884  
      8753       8754       8765       8764       8874       8875       8886       8885  
      8754       8755       8766       8765       8875       8876       8887       8886  
      8755       8756       8767       8766       8876       8877       8888       8887  
      8757       8758       8769       8768       8878       8879       8890       8889  
      8758       8759       8770       8769       8879       8880       8891       8890  
      8759       8760       8771       8770       8880       8881       8892       8891  
      8760       8761       8772       8771       8881       8882       8893       8892  
      8761       8762       8773       8772       8882       8883       8894       8893  
      8762       8763       8774       8773       8883       8884       8895       8894  
      8763       8764       8775       8774       8884       8885       8896       8895  
      8764       8765       8776       8775       8885       8886       8897       8896  
      8765       8766       8777       8776       8886       8887       8898       8897  
      8766       8767       8778       8777       8887       8888       8899       8898  
      8768       8769       8780       8779       8889       8890       8901       8900  
      8769       8770       8781       8780       8890       8891       8902       8901  
      8770       8771       8782       8781       8891       8892       8903       8902  
      8771       8772       8783       8782       8892       8893       8904       8903  
      8772       8773       8784       8783       8893       8894       8905       8904  
      8773       8774       8785       8784       8894       8895       8906       8905  
      8774       8775       8786       8785       8895       8896       8907       8906  
      8775       8776       8787       8786       8896       8897       8908       8907  
      8776       8777       8788       8787       8897       8898       8909       8908  
      8777       8778       8789       8788       8898       8899       8910       8909  
      8779       8780       8791       8790       8900       8901       8912       8911  
      8780       8781       8792       8791       8901       8902       8913       8912  
      8781       8782       8793       8792       8902       8903       8914       8913  
      8782       8783       8794       8793       8903       8904       8915       8914  
      8783       8784       8795       8794       8904       8905       8916       8915  
      8784       8785       8796       8795       8905       8906       8917       8916  
      8785       8786       8797       8796       8906       8907       8918       8917  
      8786       8787       8798       8797       8907       8908       8919       8918  
      8787       8788       8799       8798       8908       8909       8920       8919  
      8788       8789       8800       8799       8909       8910       8921       8920  
      8790       8791       8802       8801       8911       8912       8923       8922  
      8791       8792       8803       8802       8912       8913       8924       8923  
      8792       8793       8804       8803       8913       8914       8925       8924  
      8793       8794       8805       8804       8914       8915       8926       8925  
      8794       8795       8806       8805       8915       8916       8927       8926  
      8795       8796       8807       8806       8916       8917       8928       8927  
      8796       8797       8808       8807       8917       8918       8929       8928  
      8797       8798       8809       8808       8918       8919       8930       8929  
      8798       8799       8810       8809       8919       8920       8931       8930  
      8799       8800       8811       8810       8920       8921       8932       8931  
      8801       8802       8813       8812       8922       8923       8934       8933  
      8802       8803       8814       8813       8923       8924       8935       8934  
      8803       8804       8815       8814       8924       8925       8936       8935  
      8804       8805       8816       8815       8925       8926       8937       8936  
      8805       8806       8817       8816       8926       8927       8938       8937  
      8806       8807       8818       8817       8927       8928       8939       8938  
      8807       8808       8819       8818       8928       8929       8940       8939  
      8808       8809       8820       8819       8929       8930       8941       8940  
      8809       8810       8821       8820       8930       8931       8942       8941  
      8810       8811       8822       8821       8931       8932       8943       8942  
      8812       8813       8824       8823       8933       8934       8945       8944  
      8813       8814       8825       8824       8934       8935       8946       8945  
      8814       8815       8826       8825       8935       8936       8947       8946  
      8815       8816       8827       8826       8936       8937       8948       8947  
      8816       8817       8828       8827       8937       8938       8949       8948  
      8817       8818       8829       8828       8938       8939       8950       8949  
      8818       8819       8830       8829       8939       8940       8951       8950  
      8819       8820       8831       8830       8940       8941       8952       8951  
      8820       8821       8832       8831       8941       8942       8953       8952  
      8821       8822       8833       8832       8942       8943       8954       8953  
      8834       8835       8846       8845       8955       8956       8967       8966  
      8835       8836       8847       8846       8956       8957       8968       8967  
      8836       8837       8848       8847       8957       8958       8969       8968  
      8837       8838       8849       8848       8958       8959       8970       8969  
      8838       8839       8850       8849       8959       8960       8971       8970  
      8839       8840       8851       8850       8960       8961       8972       8971  
      8840       8841       8852       8851       8961       8962       8973       8972  
      8841       8842       8853       8852       8962       8963       8974       8973  
      8842       8843       8854       8853       8963       8964       8975       8974  
      8843       8844       8855       8854       8964       8965       8976       8975  
      8845       8846       8857       8856       8966       8967       8978       8977  
      8846       8847       8858       8857       8967       8968       8979       8978  
      8847       8848       8859       8858       8968       8969       8980       8979  
      8848       8849       8860       8859       8969       8970       8981       8980  
      8849       8850       8861       8860       8970       8971       8982       8981  
      8850       8851       8862       8861       8971       8972       8983       8982  
      8851       8852       8863       8862       8972       8973       8984       8983  
      8852       8853       8864       8863       8973       8974       8985       8984  
      8853       8854       8865       8864       8974       8975       8986       8985  
      8854       8855       8866       8865       8975       8976       8987       8986  
      8856       8857       8868       8867       8977       8978       8989       8988  
      8857       8858       8869       8868       8978       8979       8990       8989  
      8858       8859       8870       8869       8979       8980       8991       8990  
      8859       8860       8871       8870       8980       8981       8992       8991  
      8860       8861       8872       8871       8981       8982       8993       8992  
      8861       8862       8873       8872       8982       8983       8994       8993  
      8862       8863       8874       8873       8983       8984       8995       8994  
      8863       8864       8875       8874       8984       8985       8996       8995  
      8864       8865       8876       8875       8985       8986       8997       8996  
      8865       8866       8877       8876       8986       8987       8998       8997  
      8867       8868       8879       8878       8988       8989       9000       8999  
      8868       8869       8880       8879       8989       8990       9001       9000  
      8869       8870       8881       8880       8990       8991       9002       9001  
      8870       8871       8882       8881       8991       8992       9003       9002  
      8871       8872       8883       8882       8992       8993       9004       9003  
      8872       8873       8884       8883       8993       8994       9005       9004  
      8873       8874       8885       8884       8994       8995       9006       9005  
      8874       8875       8886       8885       8995       8996       9007       9006  
      8875       8876       8887       8886       8996       8997       9008       9007  
      8876       8877       8888       8887       8997       8998       9009       9008  
      8878       8879       8890       8889       8999       9000       9011       9010  
      8879       8880       8891       8890       9000       9001       9012       9011  
      8880       8881       8892       8891       9001       9002       9013       9012  
      8881       8882       8893       8892       9002       9003       9014       9013  
      8882       8883       8894       8893       9003       9004       9015       9014  
      8883       8884       8895       8894       9004       9005       9016       9015  
      8884       8885       8896       8895       9005       9006       9017       9016  
      8885       8886       8897       8896       9006       9007       9018       9017  
      8886       8887       8898       8897       9007       9008       9019       9018  
      8887       8888       8899       8898       9008       9009       9020       9019  
      8889       8890       8901       8900       9010       9011       9022       9021  
      8890       8891       8902       8901       9011       9012       9023       9022  
      8891       8892       8903       8902       9012       9013       9024       9023  
      8892       8893       8904       8903       9013       9014       9025       9024  
      8893       8894       8905       8904       9014       9015       9026       9025  
      8894       8895       8906       8905       9015       9016       9027       9026  
      8895       8896       8907       8906       9016       9017       9028       9027  
      8896       8897       8908       8907       9017       9018       9029       9028  
      8897       8898       8909       8908       9018       9019       9030       9029  
      8898       8899       8910       8909       9019       9020       9031       9030  
      8900       8901       8912       8911       9021       9022       9033       9032  
      8901       8902       8913       8912       9022       9023       9034       9033  
      8902       8903       8914       8913       9023       9024       9035       9034  
      8903       8904       8915       8914       9024       9025       9036       9035  
      8904       8905       8916       8915       9025       9026       9037       9036  
      8905       8906       8917       8916       9026       9027       9038       9037  
      8906       8907       8918       8917       9027       9028       9039       9038  
      8907       8908       8919       8918       9028       9029       9040       9039  
      8908       8909       8920       8919       9029       9030       9041       9040  
      8909       8910       8921       8920       9030       9031       9042       9041  
      8911       8912       8923       8922       9032       9033       9044       9043  
      8912       8913       8924       8923       9033       9034       9045       9044  
      8913       8914       8925       8924       9034       9035       9046       9045  
      8914       8915       8926       8925       9035       9036       9047       9046  
      8915       8916       8927       8926       9036       9037       9048       9047  
      8916       8917       8928       8927       9037       9038       9049       9048  
      8917       8918       8929       8928       9038       9039       9050       9049  
      8918       8919       8930       8929       9039       9040       9051       9050  
      8919       8920       8931       8930       9040       9041       9052       9051  
      8920       8921       8932       8931       9041       9042       9053       9052  
      8922       8923       8934       8933       9043       9044       9055       9054  
      8923       8924       8935       8934       9044       9045       9056       9055  
      8924       8925       8936       8935       9045       9046       9057       9056  
      8925       8926       8937       8936       9046       9047       9058       9057  
      8926       8927       8938       8937       9047       9048       9059       9058  
      8927       8928       8939       8938       9048       9049       9060       9059  
      8928       8929       8940       8939       9049       9050       9061       9060  
      8929       8930       8941       8940       9050       9051       9062       9061  
      8930       8931       8942       8941       9051       9052       9063       9062  
      8931       8932       8943       8942       9052       9053       9064       9063  
      8933       8934       8945       8944       9054       9055       9066       9065  
      8934       8935       8946       8945       9055       9056       9067       9066  
      8935       8936       8947       8946       9056       9057       9068       9067  
      8936       8937       8948       8947       9057       9058       9069       9068  
      8937       8938       8949       8948       9058       9059       9070       9069  
      8938       8939       8950       8949       9059       9060       9071       9070  
      8939       8940       8951       8950       9060       9061       9072       9071  
      8940       8941       8952       8951       9061       9062       9073       9072  
      8941       8942       8953       8952       9062       9063       9074       9073  
      8942       8943       8954       8953       9063       9064       9075       9074  
      8955       8956       8967       8966       9076       9077       9088       9087  
      8956       8957       8968       8967       9077       9078       9089       9088  
      8957       8958       8969       8968       9078       9079       9090       9089  
      8958       8959       8970       8969       9079       9080       9091       9090  
      8959       8960       8971       8970       9080       9081       9092       9091  
      8960       8961       8972       8971       9081       9082       9093       9092  
      8961       8962       8973       8972       9082       9083       9094       9093  
      8962       8963       8974       8973       9083       9084       9095       9094  
      8963       8964       8975       8974       9084       9085       9096       9095  
      8964       8965       8976       8975       9085       9086       9097       9096  
      8966       8967       8978       8977       9087       9088       9099       9098  
      8967       8968       8979       8978       9088       9089       9100       9099  
      8968       8969       8980       8979       9089       9090       9101       9100  
      8969       8970       8981       8980       9090       9091       9102       9101  
      8970       8971       8982       8981       9091       9092       9103       9102  
      8971       8972       8983       8982       9092       9093       9104       9103  
      8972       8973       8984       8983       9093       9094       9105       9104  
      8973       8974       8985       8984       9094       9095       9106       9105  
      8974       8975       8986       8985       9095       9096       9107       9106  
      8975       8976       8987       8986       9096       9097       9108       9107  
      8977       8978       8989       8988       9098       9099       9110       9109  
      8978       8979       8990       8989       9099       9100       9111       9110  
      8979       8980       8991       8990       9100       9101       9112       9111  
      8980       8981       8992       8991       9101       9102       9113       9112  
      8981       8982       8993       8992       9102       9103       9114       9113  
      8982       8983       8994       8993       9103       9104       9115       9114  
      8983       8984       8995       8994       9104       9105       9116       9115  
      8984       8985       8996       8995       9105       9106       9117       9116  
      8985       8986       8997       8996       9106       9107       9118       9117  
      8986       8987       8998       8997       9107       9108       9119       9118  
      8988       8989       9000       8999       9109       9110       9121       9120  
      8989       8990       9001       9000       9110       9111       9122       9121  
      8990       8991       9002       9001       9111       9112       9123       9122  
      8991       8992       9003       9002       9112       9113       9124       9123  
      8992       8993       9004       9003       9113       9114       9125       9124  
      8993       8994       9005       9004       9114       9115       9126       9125  
      8994       8995       9006       9005       9115       9116       9127       9126  
      8995       8996       9007       9006       9116       9117       9128       9127  
      8996       8997       9008       9007       9117       9118       9129       9128  
      8997       8998       9009       9008       9118       9119       9130       9129  
      8999       9000       9011       9010       9120       9121       9132       9131  
      9000       9001       9012       9011       9121       9122       9133       9132  
      9001       9002       9013       9012       9122       9123       9134       9133  
      9002       9003       9014       9013       9123       9124       9135       9134  
      9003       9004       9015       9014       9124       9125       9136       9135  
      9004       9005       9016       9015       9125       9126       9137       9136  
      9005       9006       9017       9016       9126       9127       9138       9137  
      9006       9007       9018       9017       9127       9128       9139       9138  
      9007       9008       9019       9018       9128       9129       9140       9139  
      9008       9009       9020       9019       9129       9130       9141       9140  
      9010       9011       9022       9021       9131       9132       9143       9142  
      9011       9012       9023       9022       9132       9133       9144       9143  
      9012       9013       9024       9023       9133       9134       9145       9144  
      9013       9014       9025       9024       9134       9135       9146       9145  
      9014       9015       9026       9025       9135       9136       9147       9146  
      9015       9016       9027       9026       9136       9137       9148       9147  
      9016       9017       9028       9027       9137       9138       9149       9148  
      9017       9018       9029       9028       9138       9139       9150       9149  
      9018       9019       9030       9029       9139       9140       9151       9150  
      9019       9020       9031       9030       9140       9141       9152       9151  
      9021       9022       9033       9032       9142       9143       9154       9153  
      9022       9023       9034       9033       9143       9144       9155       9154  
      9023       9024       9035       9034       9144       9145       9156       9155  
      9024       9025       9036       9035       9145       9146       9157       9156  
      9025       9026       9037       9036       9146       9147       9158       9157  
      9026       9027       9038       9037       9147       9148       9159       9158  
      9027       9028       9039       9038       9148       9149       9160       9159  
      9028       9029       9040       9039       9149       9150       9161       9160  
      9029       9030       9041       9040       9150       9151       9162       9161  
      9030       9031       9042       9041       9151       9152       9163       9162  
      9032       9033       9044       9043       9153       9154       9165       9164  
      9033       9034       9045       9044       9154       9155       9166       9165  
      9034       9035       9046       9045       9155       9156       9167       9166  
      9035       9036       9047       9046       9156       9157       9168       9167  
      9036       9037       9048       9047       9157       9158       9169       9168  
      9037       9038       9049       9048       9158       9159       9170       9169  
      9038       9039       9050       9049       9159       9160       9171       9170  
      9039       9040       9051       9050       9160       9161       9172       9171  
      9040       9041       9052       9051       9161       9162       9173       9172  
      9041       9042       9053       9052       9162       9163       9174       9173  
      9043       9044       9055       9054       9164       9165       9176       9175  
      9044       9045       9056       9055       9165       9166       9177       9176  
      9045       9046       9057       9056       9166       9167       9178       9177  
      9046       9047       9058       9057       9167       9168       9179       9178  
      9047       9048       9059       9058       9168       9169       9180       9179  
      9048       9049       9060       9059       9169       9170       9181       9180  
      9049       9050       9061       9060       9170       9171       9182       9181  
      9050       9051       9062       9061       9171       9172       9183       9182  
      9051       9052       9063       9062       9172       9173       9184       9183  
      9052       9053       9064       9063       9173       9174       9185       9184  
      9054       9055       9066       9065       9175       9176       9187       9186  
      9055       9056       9067       9066       9176       9177       9188       9187  
      9056       9057       9068       9067       9177       9178       9189       9188  
      9057       9058       9069       9068       9178       9179       9190       9189  
      9058       9059       9070       9069       9179       9180       9191       9190  
      9059       9060       9071       9070       9180       9181       9192       9191  
      9060       9061       9072       9071       9181       9182       9193       9192  
      9061       9062       9073       9072       9182       9183       9194       9193  
      9062       9063       9074       9073       9183       9184       9195       9194  
      9063       9064       9075       9074       9184       9185       9196       9195  
      9076       9077       9088       9087       9197       9198       9209       9208  
      9077       9078       9089       9088       9198       9199       9210       9209  
      9078       9079       9090       9089       9199       9200       9211       9210  
      9079       9080       9091       9090       9200       9201       9212       9211  
      9080       9081       9092       9091       9201       9202       9213       9212  
      9081       9082       9093       9092       9202       9203       9214       9213  
      9082       9083       9094       9093       9203       9204       9215       9214  
      9083       9084       9095       9094       9204       9205       9216       9215  
      9084       9085       9096       9095       9205       9206       9217       9216  
      9085       9086       9097       9096       9206       9207       9218       9217  
      9087       9088       9099       9098       9208       9209       9220       9219  
      9088       9089       9100       9099       9209       9210       9221       9220  
      9089       9090       9101       9100       9210       9211       9222       9221  
      9090       9091       9102       9101       9211       9212       9223       9222  
      9091       9092       9103       9102       9212       9213       9224       9223  
      9092       9093       9104       9103       9213       9214       9225       9224  
      9093       9094       9105       9104       9214       9215       9226       9225  
      9094       9095       9106       9105       9215       9216       9227       9226  
      9095       9096       9107       9106       9216       9217       9228       9227  
      9096       9097       9108       9107       9217       9218       9229       9228  
      9098       9099       9110       9109       9219       9220       9231       9230  
      9099       9100       9111       9110       9220       9221       9232       9231  
      9100       9101       9112       9111       9221       9222       9233       9232  
      9101       9102       9113       9112       9222       9223       9234       9233  
      9102       9103       9114       9113       9223       9224       9235       9234  
      9103       9104       9115       9114       9224       9225       9236       9235  
      9104       9105       9116       9115       9225       9226       9237       9236  
      9105       9106       9117       9116       9226       9227       9238       9237  
      9106       9107       9118       9117       9227       9228       9239       9238  
      9107       9108       9119       9118       9228       9229       9240       9239  
      9109       9110       9121       9120       9230       9231       9242       9241  
      9110       9111       9122       9121       9231       9232       9243       9242  
      9111       9112       9123       9122       9232       9233       9244       9243  
      9112       9113       9124       9123       9233       9234       9245       9244  
      9113       9114       9125       9124       9234       9235       9246       9245  
      9114       9115       9126       9125       9235       9236       9247       9246  
      9115       9116       9127       9126       9236       9237       9248       9247  
      9116       9117       9128       9127       9237       9238       9249       9248  
      9117       9118       9129       9128       9238       9239       9250       9249  
      9118       9119       9130       9129       9239       9240       9251       9250  
      9120       9121       9132       9131       9241       9242       9253       9252  
      9121       9122       9133       9132       9242       9243       9254       9253  
      9122       9123       9134       9133       9243       9244       9255       9254  
      9123       9124       9135       9134       9244       9245       9256       9255  
      9124       9125       9136       9135       9245       9246       9257       9256  
      9125       9126       9137       9136       9246       9247       9258       9257  
      9126       9127       9138       9137       9247       9248       9259       9258  
      9127       9128       9139       9138       9248       9249       9260       9259  
      9128       9129       9140       9139       9249       9250       9261       9260  
      9129       9130       9141       9140       9250       9251       9262       9261  
      9131       9132       9143       9142       9252       9253       9264       9263  
      9132       9133       9144       9143       9253       9254       9265       9264  
      9133       9134       9145       9144       9254       9255       9266       9265  
      9134       9135       9146       9145       9255       9256       9267       9266  
      9135       9136       9147       9146       9256       9257       9268       9267  
      9136       9137       9148       9147       9257       9258       9269       9268  
      9137       9138       9149       9148       9258       9259       9270       9269  
      9138       9139       9150       9149       9259       9260       9271       9270  
      9139       9140       9151       9150       9260       9261       9272       9271  
      9140       9141       9152       9151       9261       9262       9273       9272  
      9142       9143       9154       9153       9263       9264       9275       9274  
      9143       9144       9155       9154       9264       9265       9276       9275  
      9144       9145       9156       9155       9265       9266       9277       9276  
      9145       9146       9157       9156       9266       9267       9278       9277  
      9146       9147       9158       9157       9267       9268       9279       9278  
      9147       9148       9159       9158       9268       9269       9280       9279  
      9148       9149       9160       9159       9269       9270       9281       9280  
      9149       9150       9161       9160       9270       9271       9282       9281  
      9150       9151       9162       9161       9271       9272       9283       9282  
      9151       9152       9163       9162       9272       9273       9284       9283  
      9153       9154       9165       9164       9274       9275       9286       9285  
      9154       9155       9166       9165       9275       9276       9287       9286  
      9155       9156       9167       9166       9276       9277       9288       9287  
      9156       9157       9168       9167       9277       9278       9289       9288  
      9157       9158       9169       9168       9278       9279       9290       9289  
      9158       9159       9170       9169       9279       9280       9291       9290  
      9159       9160       9171       9170       9280       9281       9292       9291  
      9160       9161       9172       9171       9281       9282       9293       9292  
      9161       9162       9173       9172       9282       9283       9294       9293  
      9162       9163       9174       9173       9283       9284       9295       9294  
      9164       9165       9176       9175       9285       9286       9297       9296  
      9165       9166       9177       9176       9286       9287       9298       9297  
      9166       9167       9178       9177       9287       9288       9299       9298  
      9167       9168       9179       9178       9288       9289       9300       9299  
      9168       9169       9180       9179       9289       9290       9301       9300  
      9169       9170       9181       9180       9290       9291       9302       9301  
      9170       9171       9182       9181       9291       9292       9303       9302  
      9171       9172       9183       9182       9292       9293       9304       9303  
      9172       9173       9184       9183       9293       9294       9305       9304  
      9173       9174       9185       9184       9294       9295       9306       9305  
      9175       9176       9187       9186       9296       9297       9308       9307  
      9176       9177       9188       9187       9297       9298       9309       9308  
      9177       9178       9189       9188       9298       9299       9310       9309  
      9178       9179       9190       9189       9299       9300       9311       9310  
      9179       9180       9191       9190       9300       9301       9312       9311  
      9180       9181       9192       9191       9301       9302       9313       9312  
      9181       9182       9193       9192       9302       9303       9314       9313  
      9182       9183       9194       9193       9303       9304       9315       9314  
      9183       9184       9195       9194       9304       9305       9316       9315  
      9184       9185       9196       9195       9305       9306       9317       9316  
      9197       9198       9209       9208       9318       9319       9330       9329  
      9198       9199       9210       9209       9319       9320       9331       9330  
      9199       9200       9211       9210       9320       9321       9332       9331  
      9200       9201       9212       9211       9321       9322       9333       9332  
      9201       9202       9213       9212       9322       9323       9334       9333  
      9202       9203       9214       9213       9323       9324       9335       9334  
      9203       9204       9215       9214       9324       9325       9336       9335  
      9204       9205       9216       9215       9325       9326       9337       9336  
      9205       9206       9217       9216       9326       9327       9338       9337  
      9206       9207       9218       9217       9327       9328       9339       9338  
      9208       9209       9220       9219       9329       9330       9341       9340  
      9209       9210       9221       9220       9330       9331       9342       9341  
      9210       9211       9222       9221       9331       9332       9343       9342  
      9211       9212       9223       9222       9332       9333       9344       9343  
      9212       9213       9224       9223       9333       9334       9345       9344  
      9213       9214       9225       9224       9334       9335       9346       9345  
      9214       9215       9226       9225       9335       9336       9347       9346  
      9215       9216       9227       9226       9336       9337       9348       9347  
      9216       9217       9228       9227       9337       9338       9349       9348  
      9217       9218       9229       9228       9338       9339       9350       9349  
      9219       9220       9231       9230       9340       9341       9352       9351  
      9220       9221       9232       9231       9341       9342       9353       9352  
      9221       9222       9233       9232       9342       9343       9354       9353  
      9222       9223       9234       9233       9343       9344       9355       9354  
      9223       9224       9235       9234       9344       9345       9356       9355  
      9224       9225       9236       9235       9345       9346       9357       9356  
      9225       9226       9237       9236       9346       9347       9358       9357  
      9226       9227       9238       9237       9347       9348       9359       9358  
      9227       9228       9239       9238       9348       9349       9360       9359  
      9228       9229       9240       9239       9349       9350       9361       9360  
      9230       9231       9242       9241       9351       9352       9363       9362  
      9231       9232       9243       9242       9352       9353       9364       9363  
      9232       9233       9244       9243       9353       9354       9365       9364  
      9233       9234       9245       9244       9354       9355       9366       9365  
      9234       9235       9246       9245       9355       9356       9367       9366  
      9235       9236       9247       9246       9356       9357       9368       9367  
      9236       9237       9248       9247       9357       9358       9369       9368  
      9237       9238       9249       9248       9358       9359       9370       9369  
      9238       9239       9250       9249       9359       9360       9371       9370  
      9239       9240       9251       9250       9360       9361       9372       9371  
      9241       9242       9253       9252       9362       9363       9374       9373  
      9242       9243       9254       9253       9363       9364       9375       9374  
      9243       9244       9255       9254       9364       9365       9376       9375  
      9244       9245       9256       9255       9365       9366       9377       9376  
      9245       9246       9257       9256       9366       9367       9378       9377  
      9246       9247       9258       9257       9367       9368       9379       9378  
      9247       9248       9259       9258       9368       9369       9380       9379  
      9248       9249       9260       9259       9369       9370       9381       9380  
      9249       9250       9261       9260       9370       9371       9382       9381  
      9250       9251       9262       9261       9371       9372       9383       9382  
      9252       9253       9264       9263       9373       9374       9385       9384  
      9253       9254       9265       9264       9374       9375       9386       9385  
      9254       9255       9266       9265       9375       9376       9387       9386  
      9255       9256       9267       9266       9376       9377       9388       9387  
      9256       9257       9268       9267       9377       9378       9389       9388  
      9257       9258       9269       9268       9378       9379       9390       9389  
      9258       9259       9270       9269       9379       9380       9391       9390  
      9259       9260       9271       9270       9380       9381       9392       9391  
      9260       9261       9272       9271       9381       9382       9393       9392  
      9261       9262       9273       9272       9382       9383       9394       9393  
      9263       9264       9275       9274       9384       9385       9396       9395  
      9264       9265       9276       9275       9385       9386       9397       9396  
      9265       9266       9277       9276       9386       9387       9398       9397  
      9266       9267       9278       9277       9387       9388       9399       9398  
      9267       9268       9279       9278       9388       9389       9400       9399  
      9268       9269       9280       9279       9389       9390       9401       9400  
      9269       9270       9281       9280       9390       9391       9402       9401  
      9270       9271       9282       9281       9391       9392       9403       9402  
      9271       9272       9283       9282       9392       9393       9404       9403  
      9272       9273       9284       9283       9393       9394       9405       9404  
      9274       9275       9286       9285       9395       9396       9407       9406  
      9275       9276       9287       9286       9396       9397       9408       9407  
      9276       9277       9288       9287       9397       9398       9409       9408  
      9277       9278       9289       9288       9398       9399       9410       9409  
      9278       9279       9290       9289       9399       9400       9411       9410  
      9279       9280       9291       9290       9400       9401       9412       9411  
      9280       9281       9292       9291       9401       9402       9413       9412  
      9281       9282       9293       9292       9402       9403       9414       9413  
      9282       9283       9294       9293       9403       9404       9415       9414  
      9283       9284       9295       9294       9404       9405       9416       9415  
      9285       9286       9297       9296       9406       9407       9418       9417  
      9286       9287       9298       9297       9407       9408       9419       9418  
      9287       9288       9299       9298       9408       9409       9420       9419  
      9288       9289       9300       9299       9409       9410       9421       9420  
      9289       9290       9301       9300       9410       9411       9422       9421  
      9290       9291       9302       9301       9411       9412       9423       9422  
      9291       9292       9303       9302       9412       9413       9424       9423  
      9292       9293       9304       9303       9413       9414       9425       9424  
      9293       9294       9305       9304       9414       9415       9426       9425  
      9294       9295       9306       9305       9415       9416       9427       9426  
      9296       9297       9308       9307       9417       9418       9429       9428  
      9297       9298       9309       9308       9418       9419       9430       9429  
      9298       9299       9310       9309       9419       9420       9431       9430  
      9299       9300       9311       9310       9420       9421       9432       9431  
      9300       9301       9312       9311       9421       9422       9433       9432  
      9301       9302       9313       9312       9422       9423       9434       9433  
      9302       9303       9314       9313       9423       9424       9435       9434  
      9303       9304       9315       9314       9424       9425       9436       9435  
      9304       9305       9316       9315       9425       9426       9437       9436  
      9305       9306       9317       9316       9426       9427       9438       9437  
      9318       9319       9330       9329       9439       9440       9451       9450  
      9319       9320       9331       9330       9440       9441       9452       9451  
      9320       9321       9332       9331       9441       9442       9453       9452  
      9321       9322       9333       9332       9442       9443       9454       9453  
      9322       9323       9334       9333       9443       9444       9455       9454  
      9323       9324       9335       9334       9444       9445       9456       9455  
      9324       9325       9336       9335       9445       9446       9457       9456  
      9325       9326       9337       9336       9446       9447       9458       9457  
      9326       9327       9338       9337       9447       9448       9459       9458  
      9327       9328       9339       9338       9448       9449       9460       9459  
      9329       9330       9341       9340       9450       9451       9462       9461  
      9330       9331       9342       9341       9451       9452       9463       9462  
      9331       9332       9343       9342       9452       9453       9464       9463  
      9332       9333       9344       9343       9453       9454       9465       9464  
      9333       9334       9345       9344       9454       9455       9466       9465  
      9334       9335       9346       9345       9455       9456       9467       9466  
      9335       9336       9347       9346       9456       9457       9468       9467  
      9336       9337       9348       9347       9457       9458       9469       9468  
      9337       9338       9349       9348       9458       9459       9470       9469  
      9338       9339       9350       9349       9459       9460       9471       9470  
      9340       9341       9352       9351       9461       9462       9473       9472  
      9341       9342       9353       9352       9462       9463       9474       9473  
      9342       9343       9354       9353       9463       9464       9475       9474  
      9343       9344       9355       9354       9464       9465       9476       9475  
      9344       9345       9356       9355       9465       9466       9477       9476  
      9345       9346       9357       9356       9466       9467       9478       9477  
      9346       9347       9358       9357       9467       9468       9479       9478  
      9347       9348       9359       9358       9468       9469       9480       9479  
      9348       9349       9360       9359       9469       9470       9481       9480  
      9349       9350       9361       9360       9470       9471       9482       9481  
      9351       9352       9363       9362       9472       9473       9484       9483  
      9352       9353       9364       9363       9473       9474       9485       9484  
      9353       9354       9365       9364       9474       9475       9486       9485  
      9354       9355       9366       9365       9475       9476       9487       9486  
      9355       9356       9367       9366       9476       9477       9488       9487  
      9356       9357       9368       9367       9477       9478       9489       9488  
      9357       9358       9369       9368       9478       9479       9490       9489  
      9358       9359       9370       9369       9479       9480       9491       9490  
      9359       9360       9371       9370       9480       9481       9492       9491  
      9360       9361       9372       9371       9481       9482       9493       9492  
      9362       9363       9374       9373       9483       9484       9495       9494  
      9363       9364       9375       9374       9484       9485       9496       9495  
      9364       9365       9376       9375       9485       9486       9497       9496  
      9365       9366       9377       9376       9486       9487       9498       9497  
      9366       9367       9378       9377       9487       9488       9499       9498  
      9367       9368       9379       9378       9488       9489       9500       9499  
      9368       9369       9380       9379       9489       9490       9501       9500  
      9369       9370       9381       9380       9490       9491       9502       9501  
      9370       9371       9382       9381       9491       9492       9503       9502  
      9371       9372       9383       9382       9492       9493       9504       9503  
      9373       9374       9385       9384       9494       9495       9506       9505  
      9374       9375       9386       9385       9495       9496       9507       9506  
      9375       9376       9387       9386       9496       9497       9508       9507  
      9376       9377       9388       9387       9497       9498       9509       9508  
      9377       9378       9389       9388       9498       9499       9510       9509  
      9378       9379       9390       9389       9499       9500       9511       9510  
      9379       9380       9391       9390       9500       9501       9512       9511  
      9380       9381       9392       9391       9501       9502       9513       9512  
      9381       9382       9393       9392       9502       9503       9514       9513  
      9382       9383       9394       9393       9503       9504       9515       9514  
      9384       9385       9396       9395       9505       9506       9517       9516  
      9385       9386       9397       9396       9506       9507       9518       9517  
      9386       9387       9398       9397       9507       9508       9519       9518  
      9387       9388       9399       9398       9508       9509       9520       9519  
      9388       9389       9400       9399       9509       9510       9521       9520  
      9389       9390       9401       9400       9510       9511       9522       9521  
      9390       9391       9402       9401       9511       9512       9523       9522  
      9391       9392       9403       9402       9512       9513       9524       9523  
      9392       9393       9404       9403       9513       9514       9525       9524  
      9393       9394       9405       9404       9514       9515       9526       9525  
      9395       9396       9407       9406       9516       9517       9528       9527  
      9396       9397       9408       9407       9517       9518       9529       9528  
      9397       9398       9409       9408       9518       9519       9530       9529  
      9398       9399       9410       9409       9519       9520       9531       9530  
      9399       9400       9411       9410       9520       9521       9532       9531  
      9400       9401       9412       9411       9521       9522       9533       9532  
      9401       9402       9413       9412       9522       9523       9534       9533  
      9402       9403       9414       9413       9523       9524       9535       9534  
      9403       9404       9415       9414       9524       9525       9536       9535  
      9404       9405       9416       9415       9525       9526       9537       9536  
      9406       9407       9418       9417       9527       9528       9539       9538  
      9407       9408       9419       9418       9528       9529       9540       9539  
      9408       9409       9420       9419       9529       9530       9541       9540  
      9409       9410       9421       9420       9530       9531       9542       9541  
      9410       9411       9422       9421       9531       9532       9543       9542  
      9411       9412       9423       9422       9532       9533       9544       9543  
      9412       9413       9424       9423       9533       9534       9545       9544  
      9413       9414       9425       9424       9534       9535       9546       9545  
      9414       9415       9426       9425       9535       9536       9547       9546  
      9415       9416       9427       9426       9536       9537       9548       9547  
      9417       9418       9429       9428       9538       9539       9550       9549  
      9418       9419       9430       9429       9539       9540       9551       9550  
      9419       9420       9431       9430       9540       9541       9552       9551  
      9420       9421       9432       9431       9541       9542       9553       9552  
      9421       9422       9433       9432       9542       9543       9554       9553  
      9422       9423       9434       9433       9543       9544       9555       9554  
      9423       9424       9435       9434       9544       9545       9556       9555  
      9424       9425       9436       9435       9545       9546       9557       9556  
      9425       9426       9437       9436       9546       9547       9558       9557  
      9426       9427       9438       9437       9547       9548       9559       9558  
      9439       9440       9451       9450       9560       9561       9572       9571  
      9440       9441       9452       9451       9561       9562       9573       9572  
      9441       9442       9453       9452       9562       9563       9574       9573  
      9442       9443       9454       9453       9563       9564       9575       9574  
      9443       9444       9455       9454       9564       9565       9576       9575  
      9444       9445       9456       9455       9565       9566       9577       9576  
      9445       9446       9457       9456       9566       9567       9578       9577  
      9446       9447       9458       9457       9567       9568       9579       9578  
      9447       9448       9459       9458       9568       9569       9580       9579  
      9448       9449       9460       9459       9569       9570       9581       9580  
      9450       9451       9462       9461       9571       9572       9583       9582  
      9451       9452       9463       9462       9572       9573       9584       9583  
      9452       9453       9464       9463       9573       9574       9585       9584  
      9453       9454       9465       9464       9574       9575       9586       9585  
      9454       9455       9466       9465       9575       9576       9587       9586  
      9455       9456       9467       9466       9576       9577       9588       9587  
      9456       9457       9468       9467       9577       9578       9589       9588  
      9457       9458       9469       9468       9578       9579       9590       9589  
      9458       9459       9470       9469       9579       9580       9591       9590  
      9459       9460       9471       9470       9580       9581       9592       9591  
      9461       9462       9473       9472       9582       9583       9594       9593  
      9462       9463       9474       9473       9583       9584       9595       9594  
      9463       9464       9475       9474       9584       9585       9596       9595  
      9464       9465       9476       9475       9585       9586       9597       9596  
      9465       9466       9477       9476       9586       9587       9598       9597  
      9466       9467       9478       9477       9587       9588       9599       9598  
      9467       9468       9479       9478       9588       9589       9600       9599  
      9468       9469       9480       9479       9589       9590       9601       9600  
      9469       9470       9481       9480       9590       9591       9602       9601  
      9470       9471       9482       9481       9591       9592       9603       9602  
      9472       9473       9484       9483       9593       9594       9605       9604  
      9473       9474       9485       9484       9594       9595       9606       9605  
      9474       9475       9486       9485       9595       9596       9607       9606  
      9475       9476       9487       9486       9596       9597       9608       9607  
      9476       9477       9488       9487       9597       9598       9609       9608  
      9477       9478       9489       9488       9598       9599       9610       9609  
      9478       9479       9490       9489       9599       9600       9611       9610  
      9479       9480       9491       9490       9600       9601       9612       9611  
      9480       9481       9492       9491       9601       9602       9613       9612  
      9481       9482       9493       9492       9602       9603       9614       9613  
      9483       9484       9495       9494       9604       9605       9616       9615  
      9484       9485       9496       9495       9605       9606       9617       9616  
      9485       9486       9497       9496       9606       9607       9618       9617  
      9486       9487       9498       9497       9607       9608       9619       9618  
      9487       9488       9499       9498       9608       9609       9620       9619  
      9488       9489       9500       9499       9609       9610       9621       9620  
      9489       9490       9501       9500       9610       9611       9622       9621  
      9490       9491       9502       9501       9611       9612       9623       9622  
      9491       9492       9503       9502       9612       9613       9624       9623  
      9492       9493       9504       9503       9613       9614       9625       9624  
      9494       9495       9506       9505       9615       9616       9627       9626  
      9495       9496       9507       9506       9616       9617       9628       9627  
      9496       9497       9508       9507       9617       9618       9629       9628  
      9497       9498       9509       9508       9618       9619       9630       9629  
      9498       9499       9510       9509       9619       9620       9631       9630  
      9499       9500       9511       9510       9620       9621       9632       9631  
      9500       9501       9512       9511       9621       9622       9633       9632  
      9501       9502       9513       9512       9622       9623       9634       9633  
      9502       9503       9514       9513       9623       9624       9635       9634  
      9503       9504       9515       9514       9624       9625       9636       9635  
      9505       9506       9517       9516       9626       9627       9638       9637  
      9506       9507       9518       9517       9627       9628       9639       9638  
      9507       9508       9519       9518       9628       9629       9640       9639  
      9508       9509       9520       9519       9629       9630       9641       9640  
      9509       9510       9521       9520       9630       9631       9642       9641  
      9510       9511       9522       9521       9631       9632       9643       9642  
      9511       9512       9523       9522       9632       9633       9644       9643  
      9512       9513       9524       9523       9633       9634       9645       9644  
      9513       9514       9525       9524       9634       9635       9646       9645  
      9514       9515       9526       9525       9635       9636       9647       9646  
      9516       9517       9528       9527       9637       9638       9649       9648  
      9517       9518       9529       9528       9638       9639       9650       9649  
      9518       9519       9530       9529       9639       9640       9651       9650  
      9519       9520       9531       9530       9640       9641       9652       9651  
      9520       9521       9532       9531       9641       9642       9653       9652  
      9521       9522       9533       9532       9642       9643       9654       9653  
      9522       9523       9534       9533       9643       9644       9655       9654  
      9523       9524       9535       9534       9644       9645       9656       9655  
      9524       9525       9536       9535       9645       9646       9657       9656  
      9525       9526       9537       9536       9646       9647       9658       9657  
      9527       9528       9539       9538       9648       9649       9660       9659  
      9528       9529       9540       9539       9649       9650       9661       9660  
      9529       9530       9541       9540       9650       9651       9662       9661  
      9530       9531       9542       9541       9651       9652       9663       9662  
      9531       9532       9543       9542       9652       9653       9664       9663  
      9532       9533       9544       9543       9653       9654       9665       9664  
      9533       9534       9545       9544       9654       9655       9666       9665  
      9534       9535       9546       9545       9655       9656       9667       9666  
      9535       9536       9547       9546       9656       9657       9668       9667  
      9536       9537       9548       9547       9657       9658       9669       9668  
      9538       9539       9550       9549       9659       9660       9671       9670  
      9539       9540       9551       9550       9660       9661       9672       9671  
      9540       9541       9552       9551       9661       9662       9673       9672  
      9541       9542       9553       9552       9662       9663       9674       9673  
      9542       9543       9554       9553       9663       9664       9675       9674  
      9543       9544       9555       9554       9664       9665       9676       9675  
      9544       9545       9556       9555       9665       9666       9677       9676  
      9545       9546       9557       9556       9666       9667       9678       9677  
      9546       9547       9558       9557       9667       9668       9679       9678  
      9547       9548       9559       9558       9668       9669       9680       9679  
      9560       9561       9572       9571       9681       9682       9693       9692  
      9561       9562       9573       9572       9682       9683       9694       9693  
      9562       9563       9574       9573       9683       9684       9695       9694  
      9563       9564       9575       9574       9684       9685       9696       9695  
      9564       9565       9576       9575       9685       9686       9697       9696  
      9565       9566       9577       9576       9686       9687       9698       9697  
      9566       9567       9578       9577       9687       9688       9699       9698  
      9567       9568       9579       9578       9688       9689       9700       9699  
      9568       9569       9580       9579       9689       9690       9701       9700  
      9569       9570       9581       9580       9690       9691       9702       9701  
      9571       9572       9583       9582       9692       9693       9704       9703  
      9572       9573       9584       9583       9693       9694       9705       9704  
      9573       9574       9585       9584       9694       9695       9706       9705  
      9574       9575       9586       9585       9695       9696       9707       9706  
      9575       9576       9587       9586       9696       9697       9708       9707  
      9576       9577       9588       9587       9697       9698       9709       9708  
      9577       9578       9589       9588       9698       9699       9710       9709  
      9578       9579       9590       9589       9699       9700       9711       9710  
      9579       9580       9591       9590       9700       9701       9712       9711  
      9580       9581       9592       9591       9701       9702       9713       9712  
      9582       9583       9594       9593       9703       9704       9715       9714  
      9583       9584       9595       9594       9704       9705       9716       9715  
      9584       9585       9596       9595       9705       9706       9717       9716  
      9585       9586       9597       9596       9706       9707       9718       9717  
      9586       9587       9598       9597       9707       9708       9719       9718  
      9587       9588       9599       9598       9708       9709       9720       9719  
      9588       9589       9600       9599       9709       9710       9721       9720  
      9589       9590       9601       9600       9710       9711       9722       9721  
      9590       9591       9602       9601       9711       9712       9723       9722  
      9591       9592       9603       9602       9712       9713       9724       9723  
      9593       9594       9605       9604       9714       9715       9726       9725  
      9594       9595       9606       9605       9715       9716       9727       9726  
      9595       9596       9607       9606       9716       9717       9728       9727  
      9596       9597       9608       9607       9717       9718       9729       9728  
      9597       9598       9609       9608       9718       9719       9730       9729  
      9598       9599       9610       9609       9719       9720       9731       9730  
      9599       9600       9611       9610       9720       9721       9732       9731  
      9600       9601       9612       9611       9721       9722       9733       9732  
      9601       9602       9613       9612       9722       9723       9734       9733  
      9602       9603       9614       9613       9723       9724       9735       9734  
      9604       9605       9616       9615       9725       9726       9737       9736  
      9605       9606       9617       9616       9726       9727       9738       9737  
      9606       9607       9618       9617       9727       9728       9739       9738  
      9607       9608       9619       9618       9728       9729       9740       9739  
      9608       9609       9620       9619       9729       9730       9741       9740  
      9609       9610       9621       9620       9730       9731       9742       9741  
      9610       9611       9622       9621       9731       9732       9743       9742  
      9611       9612       9623       9622       9732       9733       9744       9743  
      9612       9613       9624       9623       9733       9734       9745       9744  
      9613       9614       9625       9624       9734       9735       9746       9745  
      9615       9616       9627       9626       9736       9737       9748       9747  
      9616       9617       9628       9627       9737       9738       9749       9748  
      9617       9618       9629       9628       9738       9739       9750       9749  
      9618       9619       9630       9629       9739       9740       9751       9750  
      9619       9620       9631       9630       9740       9741       9752       9751  
      9620       9621       9632       9631       9741       9742       9753       9752  
      9621       9622       9633       9632       9742       9743       9754       9753  
      9622       9623       9634       9633       9743       9744       9755       9754  
      9623       9624       9635       9634       9744       9745       9756       9755  
      9624       9625       9636       9635       9745       9746       9757       9756  
      9626       9627       9638       9637       9747       9748       9759       9758  
      9627       9628       9639       9638       9748       9749       9760       9759  
      9628       9629       9640       9639       9749       9750       9761       9760  
      9629       9630       9641       9640       9750       9751       9762       9761  
      9630       9631       9642       9641       9751       9752       9763       9762  
      9631       9632       9643       9642       9752       9753       9764       9763  
      9632       9633       9644       9643       9753       9754       9765       9764  
      9633       9634       9645       9644       9754       9755       9766       9765  
      9634       9635       9646       9645       9755       9756       9767       9766  
      9635       9636       9647       9646       9756       9757       9768       9767  
      9637       9638       9649       9648       9758       9759       9770       9769  
      9638       9639       9650       9649       9759       9760       9771       9770  
      9639       9640       9651       9650       9760       9761       9772       9771  
      9640       9641       9652       9651       9761       9762       9773       9772  
      9641       9642       9653       9652       9762       9763       9774       9773  
      9642       9643       9654       9653       9763       9764       9775       9774  
      9643       9644       9655       9654       9764       9765       9776       9775  
      9644       9645       9656       9655       9765       9766       9777       9776  
      9645       9646       9657       9656       9766       9767       9778       9777  
      9646       9647       9658       9657       9767       9768       9779       9778  
      9648       9649       9660       9659       9769       9770       9781       9780  
      9649       9650       9661       9660       9770       9771       9782       9781  
      9650       9651       9662       9661       9771       9772       9783       9782  
      9651       9652       9663       9662       9772       9773       9784       9783  
      9652       9653       9664       9663       9773       9774       9785       9784  
      9653       9654       9665       9664       9774       9775       9786       9785  
      9654       9655       9666       9665       9775       9776       9787       9786  
      9655       9656       9667       9666       9776       9777       9788       9787  
      9656       9657       9668       9667       9777       9778       9789       9788  
      9657       9658       9669       9668       9778       9779       9790       9789  
      9659       9660       9671       9670       9780       9781       9792       9791  
      9660       9661       9672       9671       9781       9782       9793       9792  
      9661       9662       9673       9672       9782       9783       9794       9793  
      9662       9663       9674       9673       9783       9784       9795       9794  
      9663       9664       9675       9674       9784       9785       9796       9795  
      9664       9665       9676       9675       9785       9786       9797       9796  
      9665       9666       9677       9676       9786       9787       9798       9797  
      9666       9667       9678       9677       9787       9788       9799       9798  
      9667       9668       9679       9678       9788       9789       9800       9799  
      9668       9669       9680       9679       9789       9790       9801       9800  
      9681       9682       9693       9692       9802       9803       9814       9813  
      9682       9683       9694       9693       9803       9804       9815       9814  
      9683       9684       9695       9694       9804       9805       9816       9815  
      9684       9685       9696       9695       9805       9806       9817       9816  
      9685       9686       9697       9696       9806       9807       9818       9817  
      9686       9687       9698       9697       9807       9808       9819       9818  
      9687       9688       9699       9698       9808       9809       9820       9819  
      9688       9689       9700       9699       9809       9810       9821       9820  
      9689       9690       9701       9700       9810       9811       9822       9821  
      9690       9691       9702       9701       9811       9812       9823       9822  
      9692       9693       9704       9703       9813       9814       9825       9824  
      9693       9694       9705       9704       9814       9815       9826       9825  
      9694       9695       9706       9705       9815       9816       9827       9826  
      9695       9696       9707       9706       9816       9817       9828       9827  
      9696       9697       9708       9707       9817       9818       9829       9828  
      9697       9698       9709       9708       9818       9819       9830       9829  
      9698       9699       9710       9709       9819       9820       9831       9830  
      9699       9700       9711       9710       9820       9821       9832       9831  
      9700       9701       9712       9711       9821       9822       9833       9832  
      9701       9702       9713       9712       9822       9823       9834       9833  
      9703       9704       9715       9714       9824       9825       9836       9835  
      9704       9705       9716       9715       9825       9826       9837       9836  
      9705       9706       9717       9716       9826       9827       9838       9837  
      9706       9707       9718       9717       9827       9828       9839       9838  
      9707       9708       9719       9718       9828       9829       9840       9839  
      9708       9709       9720       9719       9829       9830       9841       9840  
      9709       9710       9721       9720       9830       9831       9842       9841  
      9710       9711       9722       9721       9831       9832       9843       9842  
      9711       9712       9723       9722       9832       9833       9844       9843  
      9712       9713       9724       9723       9833       9834       9845       9844  
      9714       9715       9726       9725       9835       9836       9847       9846  
      9715       9716       9727       9726       9836       9837       9848       9847  
      9716       9717       9728       9727       9837       9838       9849       9848  
      9717       9718       9729       9728       9838       9839       9850       9849  
      9718       9719       9730       9729       9839       9840       9851       9850  
      9719       9720       9731       9730       9840       9841       9852       9851  
      9720       9721       9732       9731       9841       9842       9853       9852  
      9721       9722       9733       9732       9842       9843       9854       9853  
      9722       9723       9734       9733       9843       9844       9855       9854  
      9723       9724       9735       9734       9844       9845       9856       9855  
      9725       9726       9737       9736       9846       9847       9858       9857  
      9726       9727       9738       9737       9847       9848       9859       9858  
      9727       9728       9739       9738       9848       9849       9860       9859  
      9728       9729       9740       9739       9849       9850       9861       9860  
      9729       9730       9741       9740       9850       9851       9862       9861  
      9730       9731       9742       9741       9851       9852       9863       9862  
      9731       9732       9743       9742       9852       9853       9864       9863  
      9732       9733       9744       9743       9853       9854       9865       9864  
      9733       9734       9745       9744       9854       9855       9866       9865  
      9734       9735       9746       9745       9855       9856       9867       9866  
      9736       9737       9748       9747       9857       9858       9869       9868  
      9737       9738       9749       9748       9858       9859       9870       9869  
      9738       9739       9750       9749       9859       9860       9871       9870  
      9739       9740       9751       9750       9860       9861       9872       9871  
      9740       9741       9752       9751       9861       9862       9873       9872  
      9741       9742       9753       9752       9862       9863       9874       9873  
      9742       9743       9754       9753       9863       9864       9875       9874  
      9743       9744       9755       9754       9864       9865       9876       9875  
      9744       9745       9756       9755       9865       9866       9877       9876  
      9745       9746       9757       9756       9866       9867       9878       9877  
      9747       9748       9759       9758       9868       9869       9880       9879  
      9748       9749       9760       9759       9869       9870       9881       9880  
      9749       9750       9761       9760       9870       9871       9882       9881  
      9750       9751       9762       9761       9871       9872       9883       9882  
      9751       9752       9763       9762       9872       9873       9884       9883  
      9752       9753       9764       9763       9873       9874       9885       9884  
      9753       9754       9765       9764       9874       9875       9886       9885  
      9754       9755       9766       9765       9875       9876       9887       9886  
      9755       9756       9767       9766       9876       9877       9888       9887  
      9756       9757       9768       9767       9877       9878       9889       9888  
      9758       9759       9770       9769       9879       9880       9891       9890  
      9759       9760       9771       9770       9880       9881       9892       9891  
      9760       9761       9772       9771       9881       9882       9893       9892  
      9761       9762       9773       9772       9882       9883       9894       9893  
      9762       9763       9774       9773       9883       9884       9895       9894  
      9763       9764       9775       9774       9884       9885       9896       9895  
      9764       9765       9776       9775       9885       9886       9897       9896  
      9765       9766       9777       9776       9886       9887       9898       9897  
      9766       9767       9778       9777       9887       9888       9899       9898  
      9767       9768       9779       9778       9888       9889       9900       9899  
      9769       9770       9781       9780       9890       9891       9902       9901  
      9770       9771       9782       9781       9891       9892       9903       9902  
      9771       9772       9783       9782       9892       9893       9904       9903  
      9772       9773       9784       9783       9893       9894       9905       9904  
      9773       9774       9785       9784       9894       9895       9906       9905  
      9774       9775       9786       9785       9895       9896       9907       9906  
      9775       9776       9787       9786       9896       9897       9908       9907  
      9776       9777       9788       9787       9897       9898       9909       9908  
      9777       9778       9789       9788       9898       9899       9910       9909  
      9778       9779       9790       9789       9899       9900       9911       9910  
      9780       9781       9792       9791       9901       9902       9913       9912  
      9781       9782       9793       9792       9902       9903       9914       9913  
      9782       9783       9794       9793       9903       9904       9915       9914  
      9783       9784       9795       9794       9904       9905       9916       9915  
      9784       9785       9796       9795       9905       9906       9917       9916  
      9785       9786       9797       9796       9906       9907       9918       9917  
      9786       9787       9798       9797       9907       9908       9919       9918  
      9787       9788       9799       9798       9908       9909       9920       9919  
      9788       9789       9800       9799       9909       9910       9921       9920  
      9789       9790       9801       9800       9910       9911       9922       9921  
      9802       9803       9814       9813       9923       9924       9935       9934  
      9803       9804       9815       9814       9924       9925       9936       9935  
      9804       9805       9816       9815       9925       9926       9937       9936  
      9805       9806       9817       9816       9926       9927       9938       9937  
      9806       9807       9818       9817       9927       9928       9939       9938  
      9807       9808       9819       9818       9928       9929       9940       9939  
      9808       9809       9820       9819       9929       9930       9941       9940  
      9809       9810       9821       9820       9930       9931       9942       9941  
      9810       9811       9822       9821       9931       9932       9943       9942  
      9811       9812       9823       9822       9932       9933       9944       9943  
      9813       9814       9825       9824       9934       9935       9946       9945  
      9814       9815       9826       9825       9935       9936       9947       9946  
      9815       9816       9827       9826       9936       9937       9948       9947  
      9816       9817       9828       9827       9937       9938       9949       9948  
      9817       9818       9829       9828       9938       9939       9950       9949  
      9818       9819       9830       9829       9939       9940       9951       9950  
      9819       9820       9831       9830       9940       9941       9952       9951  
      9820       9821       9832       9831       9941       9942       9953       9952  
      9821       9822       9833       9832       9942       9943       9954       9953  
      9822       9823       9834       9833       9943       9944       9955       9954  
      9824       9825       9836       9835       9945       9946       9957       9956  
      9825       9826       9837       9836       9946       9947       9958       9957  
      9826       9827       9838       9837       9947       9948       9959       9958  
      9827       9828       9839       9838       9948       9949       9960       9959  
      9828       9829       9840       9839       9949       9950       9961       9960  
      9829       9830       9841       9840       9950       9951       9962       9961  
      9830       9831       9842       9841       9951       9952       9963       9962  
      9831       9832       9843       9842       9952       9953       9964       9963  
      9832       9833       9844       9843       9953       9954       9965       9964  
      9833       9834       9845       9844       9954       9955       9966       9965  
      9835       9836       9847       9846       9956       9957       9968       9967  
      9836       9837       9848       9847       9957       9958       9969       9968  
      9837       9838       9849       9848       9958       9959       9970       9969  
      9838       9839       9850       9849       9959       9960       9971       9970  
      9839       9840       9851       9850       9960       9961       9972       9971  
      9840       9841       9852       9851       9961       9962       9973       9972  
      9841       9842       9853       9852       9962       9963       9974       9973  
      9842       9843       9854       9853       9963       9964       9975       9974  
      9843       9844       9855       9854       9964       9965       9976       9975  
      9844       9845       9856       9855       9965       9966       9977       9976  
      9846       9847       9858       9857       9967       9968       9979       9978  
      9847       9848       9859       9858       9968       9969       9980       9979  
      9848       9849       9860       9859       9969       9970       9981       9980  
      9849       9850       9861       9860       9970       9971       9982       9981  
      9850       9851       9862       9861       9971       9972       9983       9982  
      9851       9852       9863       9862       9972       9973       9984       9983  
      9852       9853       9864       9863       9973       9974       9985       9984  
      9853       9854       9865       9864       9974       9975       9986       9985  
      9854       9855       9866       9865       9975       9976       9987       9986  
      9855       9856       9867       9866       9976       9977       9988       9987  
      9857       9858       9869       9868       9978       9979       9990       9989  
      9858       9859       9870       9869       9979       9980       9991       9990  
      9859       9860       9871       9870       9980       9981       9992       9991  
      9860       9861       9872       9871       9981       9982       9993       9992  
      9861       9862       9873       9872       9982       9983       9994       9993  
      9862       9863       9874       9873       9983       9984       9995       9994  
      9863       9864       9875       9874       9984       9985       9996       9995  
      9864       9865       9876       9875       9985       9986       9997       9996  
      9865       9866       9877       9876       9986       9987       9998       9997  
      9866       9867       9878       9877       9987       9988       9999       9998  
      9868       9869       9880       9879       9989       9990      10001      10000  
      9869       9870       9881       9880       9990       9991      10002      10001  
      9870       9871       9882       9881       9991       9992      10003      10002  
      9871       9872       9883       9882       9992       9993      10004      10003  
      9872       9873       9884       9883       9993       9994      10005      10004  
      9873       9874       9885       9884       9994       9995      10006      10005  
      9874       9875       9886       9885       9995       9996      10007      10006  
      9875       9876       9887       9886       9996       9997      10008      10007  
      9876       9877       9888       9887       9997       9998      10009      10008  
      9877       9878       9889       9888       9998       9999      10010      10009  
      9879       9880       9891       9890      10000      10001      10012      10011  
      9880       9881       9892       9891      10001      10002      10013      10012  
      9881       9882       9893       9892      10002      10003      10014      10013  
      9882       9883       9894       9893      10003      10004      10015      10014  
      9883       9884       9895       9894      10004      10005      10016      10015  
      9884       9885       9896       9895      10005      10006      10017      10016  
      9885       9886       9897       9896      10006      10007      10018      10017  
      9886       9887       9898       9897      10007      10008      10019      10018  
      9887       9888       9899       9898      10008      10009      10020      10019  
      9888       9889       9900       9899      10009      10010      10021      10020  
      9890       9891       9902       9901      10011      10012      10023      10022  
      9891       9892       9903       9902      10012      10013      10024      10023  
      9892       9893       9904       9903      10013      10014      10025      10024  
      9893       9894       9905       9904      10014      10015      10026      10025  
      9894       9895       9906       9905      10015      10016      10027      10026  
      9895       9896       9907       9906      10016      10017      10028      10027  
      9896       9897       9908       9907      10017      10018      10029      10028  
      9897       9898       9909       9908      10018      10019      10030      10029  
      9898       9899       9910       9909      10019      10020      10031      10030  
      9899       9900       9911       9910      10020      10021      10032      10031  
      9901       9902       9913       9912      10022      10023      10034      10033  
      9902       9903       9914       9913      10023      10024      10035      10034  
      9903       9904       9915       9914      10024      10025      10036      10035  
      9904       9905       9916       9915      10025      10026      10037      10036  
      9905       9906       9917       9916      10026      10027      10038      10037  
      9906       9907       9918       9917      10027      10028      10039      10038  
      9907       9908       9919       9918      10028      10029      10040      10039  
      9908       9909       9920       9919      10029      10030      10041      10040  
      9909       9910       9921       9920      10030      10031      10042      10041  
      9910       9911       9922       9921      10031      10032      10043      10042  
      9923       9924       9935       9934      10044      10045      10056      10055  
      9924       9925       9936       9935      10045      10046      10057      10056  
      9925       9926       9937       9936      10046      10047      10058      10057  
      9926       9927       9938       9937      10047      10048      10059      10058  
      9927       9928       9939       9938      10048      10049      10060      10059  
      9928       9929       9940       9939      10049      10050      10061      10060  
      9929       9930       9941       9940      10050      10051      10062      10061  
      9930       9931       9942       9941      10051      10052      10063      10062  
      9931       9932       9943       9942      10052      10053      10064      10063  
      9932       9933       9944       9943      10053      10054      10065      10064  
      9934       9935       9946       9945      10055      10056      10067      10066  
      9935       9936       9947       9946      10056      10057      10068      10067  
      9936       9937       9948       9947      10057      10058      10069      10068  
      9937       9938       9949       9948      10058      10059      10070      10069  
      9938       9939       9950       9949      10059      10060      10071      10070  
      9939       9940       9951       9950      10060      10061      10072      10071  
      9940       9941       9952       9951      10061      10062      10073      10072  
      9941       9942       9953       9952      10062      10063      10074      10073  
      9942       9943       9954       9953      10063      10064      10075      10074  
      9943       9944       9955       9954      10064      10065      10076      10075  
      9945       9946       9957       9956      10066      10067      10078      10077  
      9946       9947       9958       9957      10067      10068      10079      10078  
      9947       9948       9959       9958      10068      10069      10080      10079  
      9948       9949       9960       9959      10069      10070      10081      10080  
      9949       9950       9961       9960      10070      10071      10082      10081  
      9950       9951       9962       9961      10071      10072      10083      10082  
      9951       9952       9963       9962      10072      10073      10084      10083  
      9952       9953       9964       9963      10073      10074      10085      10084  
      9953       9954       9965       9964      10074      10075      10086      10085  
      9954       9955       9966       9965      10075      10076      10087      10086  
      9956       9957       9968       9967      10077      10078      10089      10088  
      9957       9958       9969       9968      10078      10079      10090      10089  
      9958       9959       9970       9969      10079      10080      10091      10090  
      9959       9960       9971       9970      10080      10081      10092      10091  
      9960       9961       9972       9971      10081      10082      10093      10092  
      9961       9962       9973       9972      10082      10083      10094      10093  
      9962       9963       9974       9973      10083      10084      10095      10094  
      9963       9964       9975       9974      10084      10085      10096      10095  
      9964       9965       9976       9975      10085      10086      10097      10096  
      9965       9966       9977       9976      10086      10087      10098      10097  
      9967       9968       9979       9978      10088      10089      10100      10099  
      9968       9969       9980       9979      10089      10090      10101      10100  
      9969       9970       9981       9980      10090      10091      10102      10101  
      9970       9971       9982       9981      10091      10092      10103      10102  
      9971       9972       9983       9982      10092      10093      10104      10103  
      9972       9973       9984       9983      10093      10094      10105      10104  
      9973       9974       9985       9984      10094      10095      10106      10105  
      9974       9975       9986       9985      10095      10096      10107      10106  
      9975       9976       9987       9986      10096      10097      10108      10107  
      9976       9977       9988       9987      10097      10098      10109      10108  
      9978       9979       9990       9989      10099      10100      10111      10110  
      9979       9980       9991       9990      10100      10101      10112      10111  
      9980       9981       9992       9991      10101      10102      10113      10112  
      9981       9982       9993       9992      10102      10103      10114      10113  
      9982       9983       9994       9993      10103      10104      10115      10114  
      9983       9984       9995       9994      10104      10105      10116      10115  
      9984       9985       9996       9995      10105      10106      10117      10116  
      9985       9986       9997       9996      10106      10107      10118      10117  
      9986       9987       9998       9997      10107      10108      10119      10118  
      9987       9988       9999       9998      10108      10109      10120      10119  
      9989       9990      10001      10000      10110      10111      10122      10121  
      9990       9991      10002      10001      10111      10112      10123      10122  
      9991       9992      10003      10002      10112      10113      10124      10123  
      9992       9993      10004      10003      10113      10114      10125      10124  
      9993       9994      10005      10004      10114      10115      10126      10125  
      9994       9995      10006      10005      10115      10116      10127      10126  
      9995       9996      10007      10006      10116      10117      10128      10127  
      9996       9997      10008      10007      10117      10118      10129      10128  
      9997       9998      10009      10008      10118      10119      10130      10129  
      9998       9999      10010      10009      10119      10120      10131      10130  
     10000      10001      10012      10011      10121      10122      10133      10132  
     10001      10002      10013      10012      10122      10123      10134      10133  
     10002      10003      10014      10013      10123      10124      10135      10134  
     10003      10004      10015      10014      10124      10125      10136      10135  
     10004      10005      10016      10015      10125      10126      10137      10136  
     10005      10006      10017      10016      10126      10127      10138      10137  
     10006      10007      10018      10017      10127      10128      10139      10138  
     10007      10008      10019      10018      10128      10129      10140      10139  
     10008      10009      10020      10019      10129      10130      10141      10140  
     10009      10010      10021      10020      10130      10131      10142      10141  
     10011      10012      10023      10022      10132      10133      10144      10143  
     10012      10013      10024      10023      10133      10134      10145      10144  
     10013      10014      10025      10024      10134      10135      10146      10145  
     10014      10015      10026      10025      10135      10136      10147      10146  
     10015      10016      10027      10026      10136      10137      10148      10147  
     10016      10017      10028      10027      10137      10138      10149      10148  
     10017      10018      10029      10028      10138      10139      10150      10149  
     10018      10019      10030      10029      10139      10140      10151      10150  
     10019      10020      10031      10030      10140      10141      10152      10151  
     10020      10021      10032      10031      10141      10142      10153      10152  
     10022      10023      10034      10033      10143      10144      10155      10154  
     10023      10024      10035      10034      10144      10145      10156      10155  
     10024      10025      10036      10035      10145      10146      10157      10156  
     10025      10026      10037      10036      10146      10147      10158      10157  
     10026      10027      10038      10037      10147      10148      10159      10158  
     10027      10028      10039      10038      10148      10149      10160      10159  
     10028      10029      10040      10039      10149      10150      10161      10160  
     10029      10030      10041      10040      10150      10151      10162      10161  
     10030      10031      10042      10041      10151      10152      10163      10162  
     10031      10032      10043      10042      10152      10153      10164      10163  
     10044      10045      10056      10055      10165      10166      10177      10176  
     10045      10046      10057      10056      10166      10167      10178      10177  
     10046      10047      10058      10057      10167      10168      10179      10178  
     10047      10048      10059      10058      10168      10169      10180      10179  
     10048      10049      10060      10059      10169      10170      10181      10180  
     10049      10050      10061      10060      10170      10171      10182      10181  
     10050      10051      10062      10061      10171      10172      10183      10182  
     10051      10052      10063      10062      10172      10173      10184      10183  
     10052      10053      10064      10063      10173      10174      10185      10184  
     10053      10054      10065      10064      10174      10175      10186      10185  
     10055      10056      10067      10066      10176      10177      10188      10187  
     10056      10057      10068      10067      10177      10178      10189      10188  
     10057      10058      10069      10068      10178      10179      10190      10189  
     10058      10059      10070      10069      10179      10180      10191      10190  
     10059      10060      10071      10070      10180      10181      10192      10191  
     10060      10061      10072      10071      10181      10182      10193      10192  
     10061      10062      10073      10072      10182      10183      10194      10193  
     10062      10063      10074      10073      10183      10184      10195      10194  
     10063      10064      10075      10074      10184      10185      10196      10195  
     10064      10065      10076      10075      10185      10186      10197      10196  
     10066      10067      10078      10077      10187      10188      10199      10198  
     10067      10068      10079      10078      10188      10189      10200      10199  
     10068      10069      10080      10079      10189      10190      10201      10200  
     10069      10070      10081      10080      10190      10191      10202      10201  
     10070      10071      10082      10081      10191      10192      10203      10202  
     10071      10072      10083      10082      10192      10193      10204      10203  
     10072      10073      10084      10083      10193      10194      10205      10204  
     10073      10074      10085      10084      10194      10195      10206      10205  
     10074      10075      10086      10085      10195      10196      10207      10206  
     10075      10076      10087      10086      10196      10197      10208      10207  
     10077      10078      10089      10088      10198      10199      10210      10209  
     10078      10079      10090      10089      10199      10200      10211      10210  
     10079      10080      10091      10090      10200      10201      10212      10211  
     10080      10081      10092      10091      10201      10202      10213      10212  
     10081      10082      10093      10092      10202      10203      10214      10213  
     10082      10083      10094      10093      10203      10204      10215      10214  
     10083      10084      10095      10094      10204      10205      10216      10215  
     10084      10085      10096      10095      10205      10206      10217      10216  
     10085      10086      10097      10096      10206      10207      10218      10217  
     10086      10087      10098      10097      10207      10208      10219      10218  
     10088      10089      10100      10099      10209      10210      10221      10220  
     10089      10090      10101      10100      10210      10211      10222      10221  
     10090      10091      10102      10101      10211      10212      10223      10222  
     10091      10092      10103      10102      10212      10213      10224      10223  
     10092      10093      10104      10103      10213      10214      10225      10224  
     10093      10094      10105      10104      10214      10215      10226      10225  
     10094      10095      10106      10105      10215      10216      10227      10226  
     10095      10096      10107      10106      10216      10217      10228      10227  
     10096      10097      10108      10107      10217      10218      10229      10228  
     10097      10098      10109      10108      10218      10219      10230      10229  
     10099      10100      10111      10110      10220      10221      10232      10231  
     10100      10101      10112      10111      10221      10222      10233      10232  
     10101      10102      10113      10112      10222      10223      10234      10233  
     10102      10103      10114      10113      10223      10224      10235      10234  
     10103      10104      10115      10114      10224      10225      10236      10235  
     10104      10105      10116      10115      10225      10226      10237      10236  
     10105      10106      10117      10116      10226      10227      10238      10237  
     10106      10107      10118      10117      10227      10228      10239      10238  
     10107      10108      10119      10118      10228      10229      10240      10239  
     10108      10109      10120      10119      10229      10230      10241      10240  
     10110      10111      10122      10121      10231      10232      10243      10242  
     10111      10112      10123      10122      10232      10233      10244      10243  
     10112      10113      10124      10123      10233      10234      10245      10244  
     10113      10114      10125      10124      10234      10235      10246      10245  
     10114      10115      10126      10125      10235      10236      10247      10246  
     10115      10116      10127      10126      10236      10237      10248      10247  
     10116      10117      10128      10127      10237      10238      10249      10248  
     10117      10118      10129      10128      10238      10239      10250      10249  
     10118      10119      10130      10129      10239      10240      10251      10250  
     10119      10120      10131      10130      10240      10241      10252      10251  
     10121      10122      10133      10132      10242      10243      10254      10253  
     10122      10123      10134      10133      10243      10244      10255      10254  
     10123      10124      10135      10134      10244      10245      10256      10255  
     10124      10125      10136      10135      10245      10246      10257      10256  
     10125      10126      10137      10136      10246      10247      10258      10257  
     10126      10127      10138      10137      10247      10248      10259      10258  
     10127      10128      10139      10138      10248      10249      10260      10259  
     10128      10129      10140      10139      10249      10250      10261      10260  
     10129      10130      10141      10140      10250      10251      10262      10261  
     10130      10131      10142      10141      10251      10252      10263      10262  
     10132      10133      10144      10143      10253      10254      10265      10264  
     10133      10134      10145      10144      10254      10255      10266      10265  
     10134      10135      10146      10145      10255      10256      10267      10266  
     10135      10136      10147      10146      10256      10257      10268      10267  
     10136      10137      10148      10147      10257      10258      10269      10268  
     10137      10138      10149      10148      10258      10259      10270      10269  
     10138      10139      10150      10149      10259      10260      10271      10270  
     10139      10140      10151      10150      10260      10261      10272      10271  
     10140      10141      10152      10151      10261      10262      10273      10272  
     10141      10142      10153      10152      10262      10263      10274      10273  
     10143      10144      10155      10154      10264      10265      10276      10275  
     10144      10145      10156      10155      10265      10266      10277      10276  
     10145      10146      10157      10156      10266      10267      10278      10277  
     10146      10147      10158      10157      10267      10268      10279      10278  
     10147      10148      10159      10158      10268      10269      10280      10279  
     10148      10149      10160      10159      10269      10270      10281      10280  
     10149      10150      10161      10160      10270      10271      10282      10281  
     10150      10151      10162      10161      10271      10272      10283      10282  
     10151      10152      10163      10162      10272      10273      10284      10283  
     10152      10153      10164      10163      10273      10274      10285      10284  
     10165      10166      10177      10176      10286      10287      10298      10297  
     10166      10167      10178      10177      10287      10288      10299      10298  
     10167      10168      10179      10178      10288      10289      10300      10299  
     10168      10169      10180      10179      10289      10290      10301      10300  
     10169      10170      10181      10180      10290      10291      10302      10301  
     10170      10171      10182      10181      10291      10292      10303      10302  
     10171      10172      10183      10182      10292      10293      10304      10303  
     10172      10173      10184      10183      10293      10294      10305      10304  
     10173      10174      10185      10184      10294      10295      10306      10305  
     10174      10175      10186      10185      10295      10296      10307      10306  
     10176      10177      10188      10187      10297      10298      10309      10308  
     10177      10178      10189      10188      10298      10299      10310      10309  
     10178      10179      10190      10189      10299      10300      10311      10310  
     10179      10180      10191      10190      10300      10301      10312      10311  
     10180      10181      10192      10191      10301      10302      10313      10312  
     10181      10182      10193      10192      10302      10303      10314      10313  
     10182      10183      10194      10193      10303      10304      10315      10314  
     10183      10184      10195      10194      10304      10305      10316      10315  
     10184      10185      10196      10195      10305      10306      10317      10316  
     10185      10186      10197      10196      10306      10307      10318      10317  
     10187      10188      10199      10198      10308      10309      10320      10319  
     10188      10189      10200      10199      10309      10310      10321      10320  
     10189      10190      10201      10200      10310      10311      10322      10321  
     10190      10191      10202      10201      10311      10312      10323      10322  
     10191      10192      10203      10202      10312      10313      10324      10323  
     10192      10193      10204      10203      10313      10314      10325      10324  
     10193      10194      10205      10204      10314      10315      10326      10325  
     10194      10195      10206      10205      10315      10316      10327      10326  
     10195      10196      10207      10206      10316      10317      10328      10327  
     10196      10197      10208      10207      10317      10318      10329      10328  
     10198      10199      10210      10209      10319      10320      10331      10330  
     10199      10200      10211      10210      10320      10321      10332      10331  
     10200      10201      10212      10211      10321      10322      10333      10332  
     10201      10202      10213      10212      10322      10323      10334      10333  
     10202      10203      10214      10213      10323      10324      10335      10334  
     10203      10204      10215      10214      10324      10325      10336      10335  
     10204      10205      10216      10215      10325      10326      10337      10336  
     10205      10206      10217      10216      10326      10327      10338      10337  
     10206      10207      10218      10217      10327      10328      10339      10338  
     10207      10208      10219      10218      10328      10329      10340      10339  
     10209      10210      10221      10220      10330      10331      10342      10341  
     10210      10211      10222      10221      10331      10332      10343      10342  
     10211      10212      10223      10222      10332      10333      10344      10343  
     10212      10213      10224      10223      10333      10334      10345      10344  
     10213      10214      10225      10224      10334      10335      10346      10345  
     10214      10215      10226      10225      10335      10336      10347      10346  
     10215      10216      10227      10226      10336      10337      10348      10347  
     10216      10217      10228      10227      10337      10338      10349      10348  
     10217      10218      10229      10228      10338      10339      10350      10349  
     10218      10219      10230      10229      10339      10340      10351      10350  
     10220      10221      10232      10231      10341      10342      10353      10352  
     10221      10222      10233      10232      10342      10343      10354      10353  
     10222      10223      10234      10233      10343      10344      10355      10354  
     10223      10224      10235      10234      10344      10345      10356      10355  
     10224      10225      10236      10235      10345      10346      10357      10356  
     10225      10226      10237      10236      10346      10347      10358      10357  
     10226      10227      10238      10237      10347      10348      10359      10358  
     10227      10228      10239      10238      10348      10349      10360      10359  
     10228      10229      10240      10239      10349      10350      10361      10360  
     10229      10230      10241      10240      10350      10351      10362      10361  
     10231      10232      10243      10242      10352      10353      10364      10363  
     10232      10233      10244      10243      10353      10354      10365      10364  
     10233      10234      10245      10244      10354      10355      10366      10365  
     10234      10235      10246      10245      10355      10356      10367      10366  
     10235      10236      10247      10246      10356      10357      10368      10367  
     10236      10237      10248      10247      10357      10358      10369      10368  
     10237      10238      10249      10248      10358      10359      10370      10369  
     10238      10239      10250      10249      10359      10360      10371      10370  
     10239      10240      10251      10250      10360      10361      10372      10371  
     10240      10241      10252      10251      10361      10362      10373      10372  
     10242      10243      10254      10253      10363      10364      10375      10374  
     10243      10244      10255      10254      10364      10365      10376      10375  
     10244      10245      10256      10255      10365      10366      10377      10376  
     10245      10246      10257      10256      10366      10367      10378      10377  
     10246      10247      10258      10257      10367      10368      10379      10378  
     10247      10248      10259      10258      10368      10369      10380      10379  
     10248      10249      10260      10259      10369      10370      10381      10380  
     10249      10250      10261      10260      10370      10371      10382      10381  
     10250      10251      10262      10261      10371      10372      10383      10382  
     10251      10252      10263      10262      10372      10373      10384      10383  
     10253      10254      10265      10264      10374      10375      10386      10385  
     10254      10255      10266      10265      10375      10376      10387      10386  
     10255      10256      10267      10266      10376      10377      10388      10387  
     10256      10257      10268      10267      10377      10378      10389      10388  
     10257      10258      10269      10268      10378      10379      10390      10389  
     10258      10259      10270      10269      10379      10380      10391      10390  
     10259      10260      10271      10270      10380      10381      10392      10391  
     10260      10261      10272      10271      10381      10382      10393      10392  
     10261      10262      10273      10272      10382      10383      10394      10393  
     10262      10263      10274      10273      10383      10384      10395      10394  
     10264      10265      10276      10275      10385      10386      10397      10396  
     10265      10266      10277      10276      10386      10387      10398      10397  
     10266      10267      10278      10277      10387      10388      10399      10398  
     10267      10268      10279      10278      10388      10389      10400      10399  
     10268      10269      10280      10279      10389      10390      10401      10400  
     10269      10270      10281      10280      10390      10391      10402      10401  
     10270      10271      10282      10281      10391      10392      10403      10402  
     10271      10272      10283      10282      10392      10393      10404      10403  
     10272      10273      10284      10283      10393      10394      10405      10404  
     10273      10274      10285      10284      10394      10395      10406      10405  
     10286      10287      10298      10297      10407      10408      10419      10418  
     10287      10288      10299      10298      10408      10409      10420      10419  
     10288      10289      10300      10299      10409      10410      10421      10420  
     10289      10290      10301      10300      10410      10411      10422      10421  
     10290      10291      10302      10301      10411      10412      10423      10422  
     10291      10292      10303      10302      10412      10413      10424      10423  
     10292      10293      10304      10303      10413      10414      10425      10424  
     10293      10294      10305      10304      10414      10415      10426      10425  
     10294      10295      10306      10305      10415      10416      10427      10426  
     10295      10296      10307      10306      10416      10417      10428      10427  
     10297      10298      10309      10308      10418      10419      10430      10429  
     10298      10299      10310      10309      10419      10420      10431      10430  
     10299      10300      10311      10310      10420      10421      10432      10431  
     10300      10301      10312      10311      10421      10422      10433      10432  
     10301      10302      10313      10312      10422      10423      10434      10433  
     10302      10303      10314      10313      10423      10424      10435      10434  
     10303      10304      10315      10314      10424      10425      10436      10435  
     10304      10305      10316      10315      10425      10426      10437      10436  
     10305      10306      10317      10316      10426      10427      10438      10437  
     10306      10307      10318      10317      10427      10428      10439      10438  
     10308      10309      10320      10319      10429      10430      10441      10440  
     10309      10310      10321      10320      10430      10431      10442      10441  
     10310      10311      10322      10321      10431      10432      10443      10442  
     10311      10312      10323      10322      10432      10433      10444      10443  
     10312      10313      10324      10323      10433      10434      10445      10444  
     10313      10314      10325      10324      10434      10435      10446      10445  
     10314      10315      10326      10325      10435      10436      10447      10446  
     10315      10316      10327      10326      10436      10437      10448      10447  
     10316      10317      10328      10327      10437      10438      10449      10448  
     10317      10318      10329      10328      10438      10439      10450      10449  
     10319      10320      10331      10330      10440      10441      10452      10451  
     10320      10321      10332      10331      10441      10442      10453      10452  
     10321      10322      10333      10332      10442      10443      10454      10453  
     10322      10323      10334      10333      10443      10444      10455      10454  
     10323      10324      10335      10334      10444      10445      10456      10455  
     10324      10325      10336      10335      10445      10446      10457      10456  
     10325      10326      10337      10336      10446      10447      10458      10457  
     10326      10327      10338      10337      10447      10448      10459      10458  
     10327      10328      10339      10338      10448      10449      10460      10459  
     10328      10329      10340      10339      10449      10450      10461      10460  
     10330      10331      10342      10341      10451      10452      10463      10462  
     10331      10332      10343      10342      10452      10453      10464      10463  
     10332      10333      10344      10343      10453      10454      10465      10464  
     10333      10334      10345      10344      10454      10455      10466      10465  
     10334      10335      10346      10345      10455      10456      10467      10466  
     10335      10336      10347      10346      10456      10457      10468      10467  
     10336      10337      10348      10347      10457      10458      10469      10468  
     10337      10338      10349      10348      10458      10459      10470      10469  
     10338      10339      10350      10349      10459      10460      10471      10470  
     10339      10340      10351      10350      10460      10461      10472      10471  
     10341      10342      10353      10352      10462      10463      10474      10473  
     10342      10343      10354      10353      10463      10464      10475      10474  
     10343      10344      10355      10354      10464      10465      10476      10475  
     10344      10345      10356      10355      10465      10466      10477      10476  
     10345      10346      10357      10356      10466      10467      10478      10477  
     10346      10347      10358      10357      10467      10468      10479      10478  
     10347      10348      10359      10358      10468      10469      10480      10479  
     10348      10349      10360      10359      10469      10470      10481      10480  
     10349      10350      10361      10360      10470      10471      10482      10481  
     10350      10351      10362      10361      10471      10472      10483      10482  
     10352      10353      10364      10363      10473      10474      10485      10484  
     10353      10354      10365      10364      10474      10475      10486      10485  
     10354      10355      10366      10365      10475      10476      10487      10486  
     10355      10356      10367      10366      10476      10477      10488      10487  
     10356      10357      10368      10367      10477      10478      10489      10488  
     10357      10358      10369      10368      10478      10479      10490      10489  
     10358      10359      10370      10369      10479      10480      10491      10490  
     10359      10360      10371      10370      10480      10481      10492      10491  
     10360      10361      10372      10371      10481      10482      10493      10492  
     10361      10362      10373      10372      10482      10483      10494      10493  
     10363      10364      10375      10374      10484      10485      10496      10495  
     10364      10365      10376      10375      10485      10486      10497      10496  
     10365      10366      10377      10376      10486      10487      10498      10497  
     10366      10367      10378      10377      10487      10488      10499      10498  
     10367      10368      10379      10378      10488      10489      10500      10499  
     10368      10369      10380      10379      10489      10490      10501      10500  
     10369      10370      10381      10380      10490      10491      10502      10501  
     10370      10371      10382      10381      10491      10492      10503      10502  
     10371      10372      10383      10382      10492      10493      10504      10503  
     10372      10373      10384      10383      10493      10494      10505      10504  
     10374      10375      10386      10385      10495      10496      10507      10506  
     10375      10376      10387      10386      10496      10497      10508      10507  
     10376      10377      10388      10387      10497      10498      10509      10508  
     10377      10378      10389      10388      10498      10499      10510      10509  
     10378      10379      10390      10389      10499      10500      10511      10510  
     10379      10380      10391      10390      10500      10501      10512      10511  
     10380      10381      10392      10391      10501      10502      10513      10512  
     10381      10382      10393      10392      10502      10503      10514      10513  
     10382      10383      10394      10393      10503      10504      10515      10514  
     10383      10384      10395      10394      10504      10505      10516      10515  
     10385      10386      10397      10396      10506      10507      10518      10517  
     10386      10387      10398      10397      10507      10508      10519      10518  
     10387      10388      10399      10398      10508      10509      10520      10519  
     10388      10389      10400      10399      10509      10510      10521      10520  
     10389      10390      10401      10400      10510      10511      10522      10521  
     10390      10391      10402      10401      10511      10512      10523      10522  
     10391      10392      10403      10402      10512      10513      10524      10523  
     10392      10393      10404      10403      10513      10514      10525      10524  
     10393      10394      10405      10404      10514      10515      10526      10525  
     10394      10395      10406      10405      10515      10516      10527      10526  
     10407      10408      10419      10418      10528      10529      10540      10539  
     10408      10409      10420      10419      10529      10530      10541      10540  
     10409      10410      10421      10420      10530      10531      10542      10541  
     10410      10411      10422      10421      10531      10532      10543      10542  
     10411      10412      10423      10422      10532      10533      10544      10543  
     10412      10413      10424      10423      10533      10534      10545      10544  
     10413      10414      10425      10424      10534      10535      10546      10545  
     10414      10415      10426      10425      10535      10536      10547      10546  
     10415      10416      10427      10426      10536      10537      10548      10547  
     10416      10417      10428      10427      10537      10538      10549      10548  
     10418      10419      10430      10429      10539      10540      10551      10550  
     10419      10420      10431      10430      10540      10541      10552      10551  
     10420      10421      10432      10431      10541      10542      10553      10552  
     10421      10422      10433      10432      10542      10543      10554      10553  
     10422      10423      10434      10433      10543      10544      10555      10554  
     10423      10424      10435      10434      10544      10545      10556      10555  
     10424      10425      10436      10435      10545      10546      10557      10556  
     10425      10426      10437      10436      10546      10547      10558      10557  
     10426      10427      10438      10437      10547      10548      10559      10558  
     10427      10428      10439      10438      10548      10549      10560      10559  
     10429      10430      10441      10440      10550      10551      10562      10561  
     10430      10431      10442      10441      10551      10552      10563      10562  
     10431      10432      10443      10442      10552      10553      10564      10563  
     10432      10433      10444      10443      10553      10554      10565      10564  
     10433      10434      10445      10444      10554      10555      10566      10565  
     10434      10435      10446      10445      10555      10556      10567      10566  
     10435      10436      10447      10446      10556      10557      10568      10567  
     10436      10437      10448      10447      10557      10558      10569      10568  
     10437      10438      10449      10448      10558      10559      10570      10569  
     10438      10439      10450      10449      10559      10560      10571      10570  
     10440      10441      10452      10451      10561      10562      10573      10572  
     10441      10442      10453      10452      10562      10563      10574      10573  
     10442      10443      10454      10453      10563      10564      10575      10574  
     10443      10444      10455      10454      10564      10565      10576      10575  
     10444      10445      10456      10455      10565      10566      10577      10576  
     10445      10446      10457      10456      10566      10567      10578      10577  
     10446      10447      10458      10457      10567      10568      10579      10578  
     10447      10448      10459      10458      10568      10569      10580      10579  
     10448      10449      10460      10459      10569      10570      10581      10580  
     10449      10450      10461      10460      10570      10571      10582      10581  
     10451      10452      10463      10462      10572      10573      10584      10583  
     10452      10453      10464      10463      10573      10574      10585      10584  
     10453      10454      10465      10464      10574      10575      10586      10585  
     10454      10455      10466      10465      10575      10576      10587      10586  
     10455      10456      10467      10466      10576      10577      10588      10587  
     10456      10457      10468      10467      10577      10578      10589      10588  
     10457      10458      10469      10468      10578      10579      10590      10589  
     10458      10459      10470      10469      10579      10580      10591      10590  
     10459      10460      10471      10470      10580      10581      10592      10591  
     10460      10461      10472      10471      10581      10582      10593      10592  
     10462      10463      10474      10473      10583      10584      10595      10594  
     10463      10464      10475      10474      10584      10585      10596      10595  
     10464      10465      10476      10475      10585      10586      10597      10596  
     10465      10466      10477      10476      10586      10587      10598      10597  
     10466      10467      10478      10477      10587      10588      10599      10598  
     10467      10468      10479      10478      10588      10589      10600      10599  
     10468      10469      10480      10479      10589      10590      10601      10600  
     10469      10470      10481      10480      10590      10591      10602      10601  
     10470      10471      10482      10481      10591      10592      10603      10602  
     10471      10472      10483      10482      10592      10593      10604      10603  
     10473      10474      10485      10484      10594      10595      10606      10605  
     10474      10475      10486      10485      10595      10596      10607      10606  
     10475      10476      10487      10486      10596      10597      10608      10607  
     10476      10477      10488      10487      10597      10598      10609      10608  
     10477      10478      10489      10488      10598      10599      10610      10609  
     10478      10479      10490      10489      10599      10600      10611      10610  
     10479      10480      10491      10490      10600      10601      10612      10611  
     10480      10481      10492      10491      10601      10602      10613      10612  
     10481      10482      10493      10492      10602      10603      10614      10613  
     10482      10483      10494      10493      10603      10604      10615      10614  
     10484      10485      10496      10495      10605      10606      10617      10616  
     10485      10486      10497      10496      10606      10607      10618      10617  
     10486      10487      10498      10497      10607      10608      10619      10618  
     10487      10488      10499      10498      10608      10609      10620      10619  
     10488      10489      10500      10499      10609      10610      10621      10620  
     10489      10490      10501      10500      10610      10611      10622      10621  
     10490      10491      10502      10501      10611      10612      10623      10622  
     10491      10492      10503      10502      10612      10613      10624      10623  
     10492      10493      10504      10503      10613      10614      10625      10624  
     10493      10494      10505      10504      10614      10615      10626      10625  
     10495      10496      10507      10506      10616      10617      10628      10627  
     10496      10497      10508      10507      10617      10618      10629      10628  
     10497      10498      10509      10508      10618      10619      10630      10629  
     10498      10499      10510      10509      10619      10620      10631      10630  
     10499      10500      10511      10510      10620      10621      10632      10631  
     10500      10501      10512      10511      10621      10622      10633      10632  
     10501      10502      10513      10512      10622      10623      10634      10633  
     10502      10503      10514      10513      10623      10624      10635      10634  
     10503      10504      10515      10514      10624      10625      10636      10635  
     10504      10505      10516      10515      10625      10626      10637      10636  
     10506      10507      10518      10517      10627      10628      10639      10638  
     10507      10508      10519      10518      10628      10629      10640      10639  
     10508      10509      10520      10519      10629      10630      10641      10640  
     10509      10510      10521      10520      10630      10631      10642      10641  
     10510      10511      10522      10521      10631      10632      10643      10642  
     10511      10512      10523      10522      10632      10633      10644      10643  
     10512      10513      10524      10523      10633      10634      10645      10644  
     10513      10514      10525      10524      10634      10635      10646      10645  
     10514      10515      10526      10525      10635      10636      10647      10646  
     10515      10516      10527      10526      10636      10637      10648      10647  
     10528      10529      10540      10539      10649      10650      10661      10660  
     10529      10530      10541      10540      10650      10651      10662      10661  
     10530      10531      10542      10541      10651      10652      10663      10662  
     10531      10532      10543      10542      10652      10653      10664      10663  
     10532      10533      10544      10543      10653      10654      10665      10664  
     10533      10534      10545      10544      10654      10655      10666      10665  
     10534      10535      10546      10545      10655      10656      10667      10666  
     10535      10536      10547      10546      10656      10657      10668      10667  
     10536      10537      10548      10547      10657      10658      10669      10668  
     10537      10538      10549      10548      10658      10659      10670      10669  
     10539      10540      10551      10550      10660      10661      10672      10671  
     10540      10541      10552      10551      10661      10662      10673      10672  
     10541      10542      10553      10552      10662      10663      10674      10673  
     10542      10543      10554      10553      10663      10664      10675      10674  
     10543      10544      10555      10554      10664      10665      10676      10675  
     10544      10545      10556      10555      10665      10666      10677      10676  
     10545      10546      10557      10556      10666      10667      10678      10677  
     10546      10547      10558      10557      10667      10668      10679      10678  
     10547      10548      10559      10558      10668      10669      10680      10679  
     10548      10549      10560      10559      10669      10670      10681      10680  
     10550      10551      10562      10561      10671      10672      10683      10682  
     10551      10552      10563      10562      10672      10673      10684      10683  
     10552      10553      10564      10563      10673      10674      10685      10684  
     10553      10554      10565      10564      10674      10675      10686      10685  
     10554      10555      10566      10565      10675      10676      10687      10686  
     10555      10556      10567      10566      10676      10677      10688      10687  
     10556      10557      10568      10567      10677      10678      10689      10688  
     10557      10558      10569      10568      10678      10679      10690      10689  
     10558      10559      10570      10569      10679      10680      10691      10690  
     10559      10560      10571      10570      10680      10681      10692      10691  
     10561      10562      10573      10572      10682      10683      10694      10693  
     10562      10563      10574      10573      10683      10684      10695      10694  
     10563      10564      10575      10574      10684      10685      10696      10695  
     10564      10565      10576      10575      10685      10686      10697      10696  
     10565      10566      10577      10576      10686      10687      10698      10697  
     10566      10567      10578      10577      10687      10688      10699      10698  
     10567      10568      10579      10578      10688      10689      10700      10699  
     10568      10569      10580      10579      10689      10690      10701      10700  
     10569      10570      10581      10580      10690      10691      10702      10701  
     10570      10571      10582      10581      10691      10692      10703      10702  
     10572      10573      10584      10583      10693      10694      10705      10704  
     10573      10574      10585      10584      10694      10695      10706      10705  
     10574      10575      10586      10585      10695      10696      10707      10706  
     10575      10576      10587      10586      10696      10697      10708      10707  
     10576      10577      10588      10587      10697      10698      10709      10708  
     10577      10578      10589      10588      10698      10699      10710      10709  
     10578      10579      10590      10589      10699      10700      10711      10710  
     10579      10580      10591      10590      10700      10701      10712      10711  
     10580      10581      10592      10591      10701      10702      10713      10712  
     10581      10582      10593      10592      10702      10703      10714      10713  
     10583      10584      10595      10594      10704      10705      10716      10715  
     10584      10585      10596      10595      10705      10706      10717      10716  
     10585      10586      10597      10596      10706      10707      10718      10717  
     10586      10587      10598      10597      10707      10708      10719      10718  
     10587      10588      10599      10598      10708      10709      10720      10719  
     10588      10589      10600      10599      10709      10710      10721      10720  
     10589      10590      10601      10600      10710      10711      10722      10721  
     10590      10591      10602      10601      10711      10712      10723      10722  
     10591      10592      10603      10602      10712      10713      10724      10723  
     10592      10593      10604      10603      10713      10714      10725      10724  
     10594      10595      10606      10605      10715      10716      10727      10726  
     10595      10596      10607      10606      10716      10717      10728      10727  
     10596      10597      10608      10607      10717      10718      10729      10728  
     10597      10598      10609      10608      10718      10719      10730      10729  
     10598      10599      10610      10609      10719      10720      10731      10730  
     10599      10600      10611      10610      10720      10721      10732      10731  
     10600      10601      10612      10611      10721      10722      10733      10732  
     10601      10602      10613      10612      10722      10723      10734      10733  
     10602      10603      10614      10613      10723      10724      10735      10734  
     10603      10604      10615      10614      10724      10725      10736      10735  
     10605      10606      10617      10616      10726      10727      10738      10737  
     10606      10607      10618      10617      10727      10728      10739      10738  
     10607      10608      10619      10618      10728      10729      10740      10739  
     10608      10609      10620      10619      10729      10730      10741      10740  
     10609      10610      10621      10620      10730      10731      10742      10741  
     10610      10611      10622      10621      10731      10732      10743      10742  
     10611      10612      10623      10622      10732      10733      10744      10743  
     10612      10613      10624      10623      10733      10734      10745      10744  
     10613      10614      10625      10624      10734      10735      10746      10745  
     10614      10615      10626      10625      10735      10736      10747      10746  
     10616      10617      10628      10627      10737      10738      10749      10748  
     10617      10618      10629      10628      10738      10739      10750      10749  
     10618      10619      10630      10629      10739      10740      10751      10750  
     10619      10620      10631      10630      10740      10741      10752      10751  
     10620      10621      10632      10631      10741      10742      10753      10752  
     10621      10622      10633      10632      10742      10743      10754      10753  
     10622      10623      10634      10633      10743      10744      10755      10754  
     10623      10624      10635      10634      10744      10745      10756      10755  
     10624      10625      10636      10635      10745      10746      10757      10756  
     10625      10626      10637      10636      10746      10747      10758      10757  
     10627      10628      10639      10638      10748      10749      10760      10759  
     10628      10629      10640      10639      10749      10750      10761      10760  
     10629      10630      10641      10640      10750      10751      10762      10761  
     10630      10631      10642      10641      10751      10752      10763      10762  
     10631      10632      10643      10642      10752      10753      10764      10763  
     10632      10633      10644      10643      10753      10754      10765      10764  
     10633      10634      10645      10644      10754      10755      10766      10765  
     10634      10635      10646      10645      10755      10756      10767      10766  
     10635      10636      10647      10646      10756      10757      10768      10767  
     10636      10637      10648      10647      10757      10758      10769      10768  
     10649      10650      10661      10660      10770      10771      10782      10781  
     10650      10651      10662      10661      10771      10772      10783      10782  
     10651      10652      10663      10662      10772      10773      10784      10783  
     10652      10653      10664      10663      10773      10774      10785      10784  
     10653      10654      10665      10664      10774      10775      10786      10785  
     10654      10655      10666      10665      10775      10776      10787      10786  
     10655      10656      10667      10666      10776      10777      10788      10787  
     10656      10657      10668      10667      10777      10778      10789      10788  
     10657      10658      10669      10668      10778      10779      10790      10789  
     10658      10659      10670      10669      10779      10780      10791      10790  
     10660      10661      10672      10671      10781      10782      10793      10792  
     10661      10662      10673      10672      10782      10783      10794      10793  
     10662      10663      10674      10673      10783      10784      10795      10794  
     10663      10664      10675      10674      10784      10785      10796      10795  
     10664      10665      10676      10675      10785      10786      10797      10796  
     10665      10666      10677      10676      10786      10787      10798      10797  
     10666      10667      10678      10677      10787      10788      10799      10798  
     10667      10668      10679      10678      10788      10789      10800      10799  
     10668      10669      10680      10679      10789      10790      10801      10800  
     10669      10670      10681      10680      10790      10791      10802      10801  
     10671      10672      10683      10682      10792      10793      10804      10803  
     10672      10673      10684      10683      10793      10794      10805      10804  
     10673      10674      10685      10684      10794      10795      10806      10805  
     10674      10675      10686      10685      10795      10796      10807      10806  
     10675      10676      10687      10686      10796      10797      10808      10807  
     10676      10677      10688      10687      10797      10798      10809      10808  
     10677      10678      10689      10688      10798      10799      10810      10809  
     10678      10679      10690      10689      10799      10800      10811      10810  
     10679      10680      10691      10690      10800      10801      10812      10811  
     10680      10681      10692      10691      10801      10802      10813      10812  
     10682      10683      10694      10693      10803      10804      10815      10814  
     10683      10684      10695      10694      10804      10805      10816      10815  
     10684      10685      10696      10695      10805      10806      10817      10816  
     10685      10686      10697      10696      10806      10807      10818      10817  
     10686      10687      10698      10697      10807      10808      10819      10818  
     10687      10688      10699      10698      10808      10809      10820      10819  
     10688      10689      10700      10699      10809      10810      10821      10820  
     10689      10690      10701      10700      10810      10811      10822      10821  
     10690      10691      10702      10701      10811      10812      10823      10822  
     10691      10692      10703      10702      10812      10813      10824      10823  
     10693      10694      10705      10704      10814      10815      10826      10825  
     10694      10695      10706      10705      10815      10816      10827      10826  
     10695      10696      10707      10706      10816      10817      10828      10827  
     10696      10697      10708      10707      10817      10818      10829      10828  
     10697      10698      10709      10708      10818      10819      10830      10829  
     10698      10699      10710      10709      10819      10820      10831      10830  
     10699      10700      10711      10710      10820      10821      10832      10831  
     10700      10701      10712      10711      10821      10822      10833      10832  
     10701      10702      10713      10712      10822      10823      10834      10833  
     10702      10703      10714      10713      10823      10824      10835      10834  
     10704      10705      10716      10715      10825      10826      10837      10836  
     10705      10706      10717      10716      10826      10827      10838      10837  
     10706      10707      10718      10717      10827      10828      10839      10838  
     10707      10708      10719      10718      10828      10829      10840      10839  
     10708      10709      10720      10719      10829      10830      10841      10840  
     10709      10710      10721      10720      10830      10831      10842      10841  
     10710      10711      10722      10721      10831      10832      10843      10842  
     10711      10712      10723      10722      10832      10833      10844      10843  
     10712      10713      10724      10723      10833      10834      10845      10844  
     10713      10714      10725      10724      10834      10835      10846      10845  
     10715      10716      10727      10726      10836      10837      10848      10847  
     10716      10717      10728      10727      10837      10838      10849      10848  
     10717      10718      10729      10728      10838      10839      10850      10849  
     10718      10719      10730      10729      10839      10840      10851      10850  
     10719      10720      10731      10730      10840      10841      10852      10851  
     10720      10721      10732      10731      10841      10842      10853      10852  
     10721      10722      10733      10732      10842      10843      10854      10853  
     10722      10723      10734      10733      10843      10844      10855      10854  
     10723      10724      10735      10734      10844      10845      10856      10855  
     10724      10725      10736      10735      10845      10846      10857      10856  
     10726      10727      10738      10737      10847      10848      10859      10858  
     10727      10728      10739      10738      10848      10849      10860      10859  
     10728      10729      10740      10739      10849      10850      10861      10860  
     10729      10730      10741      10740      10850      10851      10862      10861  
     10730      10731      10742      10741      10851      10852      10863      10862  
     10731      10732      10743      10742      10852      10853      10864      10863  
     10732      10733      10744      10743      10853      10854      10865      10864  
     10733      10734      10745      10744      10854      10855      10866      10865  
     10734      10735      10746      10745      10855      10856      10867      10866  
     10735      10736      10747      10746      10856      10857      10868      10867  
     10737      10738      10749      10748      10858      10859      10870      10869  
     10738      10739      10750      10749      10859      10860      10871      10870  
     10739      10740      10751      10750      10860      10861      10872      10871  
     10740      10741      10752      10751      10861      10862      10873      10872  
     10741      10742      10753      10752      10862      10863      10874      10873  
     10742      10743      10754      10753      10863      10864      10875      10874  
     10743      10744      10755      10754      10864      10865      10876      10875  
     10744      10745      10756      10755      10865      10866      10877      10876  
     10745      10746      10757      10756      10866      10867      10878      10877  
     10746      10747      10758      10757      10867      10868      10879      10878  
     10748      10749      10760      10759      10869      10870      10881      10880  
     10749      10750      10761      10760      10870      10871      10882      10881  
     10750      10751      10762      10761      10871      10872      10883      10882  
     10751      10752      10763      10762      10872      10873      10884      10883  
     10752      10753      10764      10763      10873      10874      10885      10884  
     10753      10754      10765      10764      10874      10875      10886      10885  
     10754      10755      10766      10765      10875      10876      10887      10886  
     10755      10756      10767      10766      10876      10877      10888      10887  
     10756      10757      10768      10767      10877      10878      10889      10888  
     10757      10758      10769      10768      10878      10879      10890      10889  
     10770      10771      10782      10781      10891      10892      10903      10902  
     10771      10772      10783      10782      10892      10893      10904      10903  
     10772      10773      10784      10783      10893      10894      10905      10904  
     10773      10774      10785      10784      10894      10895      10906      10905  
     10774      10775      10786      10785      10895      10896      10907      10906  
     10775      10776      10787      10786      10896      10897      10908      10907  
     10776      10777      10788      10787      10897      10898      10909      10908  
     10777      10778      10789      10788      10898      10899      10910      10909  
     10778      10779      10790      10789      10899      10900      10911      10910  
     10779      10780      10791      10790      10900      10901      10912      10911  
     10781      10782      10793      10792      10902      10903      10914      10913  
     10782      10783      10794      10793      10903      10904      10915      10914  
     10783      10784      10795      10794      10904      10905      10916      10915  
     10784      10785      10796      10795      10905      10906      10917      10916  
     10785      10786      10797      10796      10906      10907      10918      10917  
     10786      10787      10798      10797      10907      10908      10919      10918  
     10787      10788      10799      10798      10908      10909      10920      10919  
     10788      10789      10800      10799      10909      10910      10921      10920  
     10789      10790      10801      10800      10910      10911      10922      10921  
     10790      10791      10802      10801      10911      10912      10923      10922  
     10792      10793      10804      10803      10913      10914      10925      10924  
     10793      10794      10805      10804      10914      10915      10926      10925  
     10794      10795      10806      10805      10915      10916      10927      10926  
     10795      10796      10807      10806      10916      10917      10928      10927  
     10796      10797      10808      10807      10917      10918      10929      10928  
     10797      10798      10809      10808      10918      10919      10930      10929  
     10798      10799      10810      10809      10919      10920      10931      10930  
     10799      10800      10811      10810      10920      10921      10932      10931  
     10800      10801      10812      10811      10921      10922      10933      10932  
     10801      10802      10813      10812      10922      10923      10934      10933  
     10803      10804      10815      10814      10924      10925      10936      10935  
     10804      10805      10816      10815      10925      10926      10937      10936  
     10805      10806      10817      10816      10926      10927      10938      10937  
     10806      10807      10818      10817      10927      10928      10939      10938  
     10807      10808      10819      10818      10928      10929      10940      10939  
     10808      10809      10820      10819      10929      10930      10941      10940  
     10809      10810      10821      10820      10930      10931      10942      10941  
     10810      10811      10822      10821      10931      10932      10943      10942  
     10811      10812      10823      10822      10932      10933      10944      10943  
     10812      10813      10824      10823      10933      10934      10945      10944  
     10814      10815      10826      10825      10935      10936      10947      10946  
     10815      10816      10827      10826      10936      10937      10948      10947  
     10816      10817      10828      10827      10937      10938      10949      10948  
     10817      10818      10829      10828      10938      10939      10950      10949  
     10818      10819      10830      10829      10939      10940      10951      10950  
     10819      10820      10831      10830      10940      10941      10952      10951  
     10820      10821      10832      10831      10941      10942      10953      10952  
     10821      10822      10833      10832      10942      10943      10954      10953  
     10822      10823      10834      10833      10943      10944      10955      10954  
     10823      10824      10835      10834      10944      10945      10956      10955  
     10825      10826      10837      10836      10946      10947      10958      10957  
     10826      10827      10838      10837      10947      10948      10959      10958  
     10827      10828      10839      10838      10948      10949      10960      10959  
     10828      10829      10840      10839      10949      10950      10961      10960  
     10829      10830      10841      10840      10950      10951      10962      10961  
     10830      10831      10842      10841      10951      10952      10963      10962  
     10831      10832      10843      10842      10952      10953      10964      10963  
     10832      10833      10844      10843      10953      10954      10965      10964  
     10833      10834      10845      10844      10954      10955      10966      10965  
     10834      10835      10846      10845      10955      10956      10967      10966  
     10836      10837      10848      10847      10957      10958      10969      10968  
     10837      10838      10849      10848      10958      10959      10970      10969  
     10838      10839      10850      10849      10959      10960      10971      10970  
     10839      10840      10851      10850      10960      10961      10972      10971  
     10840      10841      10852      10851      10961      10962      10973      10972  
     10841      10842      10853      10852      10962      10963      10974      10973  
     10842      10843      10854      10853      10963      10964      10975      10974  
     10843      10844      10855      10854      10964      10965      10976      10975  
     10844      10845      10856      10855      10965      10966      10977      10976  
     10845      10846      10857      10856      10966      10967      10978      10977  
     10847      10848      10859      10858      10968      10969      10980      10979  
     10848      10849      10860      10859      10969      10970      10981      10980  
     10849      10850      10861      10860      10970      10971      10982      10981  
     10850      10851      10862      10861      10971      10972      10983      10982  
     10851      10852      10863      10862      10972      10973      10984      10983  
     10852      10853      10864      10863      10973      10974      10985      10984  
     10853      10854      10865      10864      10974      10975      10986      10985  
     10854      10855      10866      10865      10975      10976      10987      10986  
     10855      10856      10867      10866      10976      10977      10988      10987  
     10856      10857      10868      10867      10977      10978      10989      10988  
     10858      10859      10870      10869      10979      10980      10991      10990  
     10859      10860      10871      10870      10980      10981      10992      10991  
     10860      10861      10872      10871      10981      10982      10993      10992  
     10861      10862      10873      10872      10982      10983      10994      10993  
     10862      10863      10874      10873      10983      10984      10995      10994  
     10863      10864      10875      10874      10984      10985      10996      10995  
     10864      10865      10876      10875      10985      10986      10997      10996  
     10865      10866      10877      10876      10986      10987      10998      10997  
     10866      10867      10878      10877      10987      10988      10999      10998  
     10867      10868      10879      10878      10988      10989      11000      10999  
     10869      10870      10881      10880      10990      10991      11002      11001  
     10870      10871      10882      10881      10991      10992      11003      11002  
     10871      10872      10883      10882      10992      10993      11004      11003  
     10872      10873      10884      10883      10993      10994      11005      11004  
     10873      10874      10885      10884      10994      10995      11006      11005  
     10874      10875      10886      10885      10995      10996      11007      11006  
     10875      10876      10887      10886      10996      10997      11008      11007  
     10876      10877      10888      10887      10997      10998      11009      11008  
     10877      10878      10889      10888      10998      10999      11010      11009  
     10878      10879      10890      10889      10999      11000      11011      11010  
     10891      10892      10903      10902      11012      11013      11024      11023  
     10892      10893      10904      10903      11013      11014      11025      11024  
     10893      10894      10905      10904      11014      11015      11026      11025  
     10894      10895      10906      10905      11015      11016      11027      11026  
     10895      10896      10907      10906      11016      11017      11028      11027  
     10896      10897      10908      10907      11017      11018      11029      11028  
     10897      10898      10909      10908      11018      11019      11030      11029  
     10898      10899      10910      10909      11019      11020      11031      11030  
     10899      10900      10911      10910      11020      11021      11032      11031  
     10900      10901      10912      10911      11021      11022      11033      11032  
     10902      10903      10914      10913      11023      11024      11035      11034  
     10903      10904      10915      10914      11024      11025      11036      11035  
     10904      10905      10916      10915      11025      11026      11037      11036  
     10905      10906      10917      10916      11026      11027      11038      11037  
     10906      10907      10918      10917      11027      11028      11039      11038  
     10907      10908      10919      10918      11028      11029      11040      11039  
     10908      10909      10920      10919      11029      11030      11041      11040  
     10909      10910      10921      10920      11030      11031      11042      11041  
     10910      10911      10922      10921      11031      11032      11043      11042  
     10911      10912      10923      10922      11032      11033      11044      11043  
     10913      10914      10925      10924      11034      11035      11046      11045  
     10914      10915      10926      10925      11035      11036      11047      11046  
     10915      10916      10927      10926      11036      11037      11048      11047  
     10916      10917      10928      10927      11037      11038      11049      11048  
     10917      10918      10929      10928      11038      11039      11050      11049  
     10918      10919      10930      10929      11039      11040      11051      11050  
     10919      10920      10931      10930      11040      11041      11052      11051  
     10920      10921      10932      10931      11041      11042      11053      11052  
     10921      10922      10933      10932      11042      11043      11054      11053  
     10922      10923      10934      10933      11043      11044      11055      11054  
     10924      10925      10936      10935      11045      11046      11057      11056  
     10925      10926      10937      10936      11046      11047      11058      11057  
     10926      10927      10938      10937      11047      11048      11059      11058  
     10927      10928      10939      10938      11048      11049      11060      11059  
     10928      10929      10940      10939      11049      11050      11061      11060  
     10929      10930      10941      10940      11050      11051      11062      11061  
     10930      10931      10942      10941      11051      11052      11063      11062  
     10931      10932      10943      10942      11052      11053      11064      11063  
     10932      10933      10944      10943      11053      11054      11065      11064  
     10933      10934      10945      10944      11054      11055      11066      11065  
     10935      10936      10947      10946      11056      11057      11068      11067  
     10936      10937      10948      10947      11057      11058      11069      11068  
     10937      10938      10949      10948      11058      11059      11070      11069  
     10938      10939      10950      10949      11059      11060      11071      11070  
     10939      10940      10951      10950      11060      11061      11072      11071  
     10940      10941      10952      10951      11061      11062      11073      11072  
     10941      10942      10953      10952      11062      11063      11074      11073  
     10942      10943      10954      10953      11063      11064      11075      11074  
     10943      10944      10955      10954      11064      11065      11076      11075  
     10944      10945      10956      10955      11065      11066      11077      11076  
     10946      10947      10958      10957      11067      11068      11079      11078  
     10947      10948      10959      10958      11068      11069      11080      11079  
     10948      10949      10960      10959      11069      11070      11081      11080  
     10949      10950      10961      10960      11070      11071      11082      11081  
     10950      10951      10962      10961      11071      11072      11083      11082  
     10951      10952      10963      10962      11072      11073      11084      11083  
     10952      10953      10964      10963      11073      11074      11085      11084  
     10953      10954      10965      10964      11074      11075      11086      11085  
     10954      10955      10966      10965      11075      11076      11087      11086  
     10955      10956      10967      10966      11076      11077      11088      11087  
     10957      10958      10969      10968      11078      11079      11090      11089  
     10958      10959      10970      10969      11079      11080      11091      11090  
     10959      10960      10971      10970      11080      11081      11092      11091  
     10960      10961      10972      10971      11081      11082      11093      11092  
     10961      10962      10973      10972      11082      11083      11094      11093  
     10962      10963      10974      10973      11083      11084      11095      11094  
     10963      10964      10975      10974      11084      11085      11096      11095  
     10964      10965      10976      10975      11085      11086      11097      11096  
     10965      10966      10977      10976      11086      11087      11098      11097  
     10966      10967      10978      10977      11087      11088      11099      11098  
     10968      10969      10980      10979      11089      11090      11101      11100  
     10969      10970      10981      10980      11090      11091      11102      11101  
     10970      10971      10982      10981      11091      11092      11103      11102  
     10971      10972      10983      10982      11092      11093      11104      11103  
     10972      10973      10984      10983      11093      11094      11105      11104  
     10973      10974      10985      10984      11094      11095      11106      11105  
     10974      10975      10986      10985      11095      11096      11107      11106  
     10975      10976      10987      10986      11096      11097      11108      11107  
     10976      10977      10988      10987      11097      11098      11109      11108  
     10977      10978      10989      10988      11098      11099      11110      11109  
     10979      10980      10991      10990      11100      11101      11112      11111  
     10980      10981      10992      10991      11101      11102      11113      11112  
     10981      10982      10993      10992      11102      11103      11114      11113  
     10982      10983      10994      10993      11103      11104      11115      11114  
     10983      10984      10995      10994      11104      11105      11116      11115  
     10984      10985      10996      10995      11105      11106      11117      11116  
     10985      10986      10997      10996      11106      11107      11118      11117  
     10986      10987      10998      10997      11107      11108      11119      11118  
     10987      10988      10999      10998      11108      11109      11120      11119  
     10988      10989      11000      10999      11109      11110      11121      11120  
     10990      10991      11002      11001      11111      11112      11123      11122  
     10991      10992      11003      11002      11112      11113      11124      11123  
     10992      10993      11004      11003      11113      11114      11125      11124  
     10993      10994      11005      11004      11114      11115      11126      11125  
     10994      10995      11006      11005      11115      11116      11127      11126  
     10995      10996      11007      11006      11116      11117      11128      11127  
     10996      10997      11008      11007      11117      11118      11129      11128  
     10997      10998      11009      11008      11118      11119      11130      11129  
     10998      10999      11010      11009      11119      11120      11131      11130  
     10999      11000      11011      11010      11120      11121      11132      11131  
     11012      11013      11024      11023      11133      11134      11145      11144  
     11013      11014      11025      11024      11134      11135      11146      11145  
     11014      11015      11026      11025      11135      11136      11147      11146  
     11015      11016      11027      11026      11136      11137      11148      11147  
     11016      11017      11028      11027      11137      11138      11149      11148  
     11017      11018      11029      11028      11138      11139      11150      11149  
     11018      11019      11030      11029      11139      11140      11151      11150  
     11019      11020      11031      11030      11140      11141      11152      11151  
     11020      11021      11032      11031      11141      11142      11153      11152  
     11021      11022      11033      11032      11142      11143      11154      11153  
     11023      11024      11035      11034      11144      11145      11156      11155  
     11024      11025      11036      11035      11145      11146      11157      11156  
     11025      11026      11037      11036      11146      11147      11158      11157  
     11026      11027      11038      11037      11147      11148      11159      11158  
     11027      11028      11039      11038      11148      11149      11160      11159  
     11028      11029      11040      11039      11149      11150      11161      11160  
     11029      11030      11041      11040      11150      11151      11162      11161  
     11030      11031      11042      11041      11151      11152      11163      11162  
     11031      11032      11043      11042      11152      11153      11164      11163  
     11032      11033      11044      11043      11153      11154      11165      11164  
     11034      11035      11046      11045      11155      11156      11167      11166  
     11035      11036      11047      11046      11156      11157      11168      11167  
     11036      11037      11048      11047      11157      11158      11169      11168  
     11037      11038      11049      11048      11158      11159      11170      11169  
     11038      11039      11050      11049      11159      11160      11171      11170  
     11039      11040      11051      11050      11160      11161      11172      11171  
     11040      11041      11052      11051      11161      11162      11173      11172  
     11041      11042      11053      11052      11162      11163      11174      11173  
     11042      11043      11054      11053      11163      11164      11175      11174  
     11043      11044      11055      11054      11164      11165      11176      11175  
     11045      11046      11057      11056      11166      11167      11178      11177  
     11046      11047      11058      11057      11167      11168      11179      11178  
     11047      11048      11059      11058      11168      11169      11180      11179  
     11048      11049      11060      11059      11169      11170      11181      11180  
     11049      11050      11061      11060      11170      11171      11182      11181  
     11050      11051      11062      11061      11171      11172      11183      11182  
     11051      11052      11063      11062      11172      11173      11184      11183  
     11052      11053      11064      11063      11173      11174      11185      11184  
     11053      11054      11065      11064      11174      11175      11186      11185  
     11054      11055      11066      11065      11175      11176      11187      11186  
     11056      11057      11068      11067      11177      11178      11189      11188  
     11057      11058      11069      11068      11178      11179      11190      11189  
     11058      11059      11070      11069      11179      11180      11191      11190  
     11059      11060      11071      11070      11180      11181      11192      11191  
     11060      11061      11072      11071      11181      11182      11193      11192  
     11061      11062      11073      11072      11182      11183      11194      11193  
     11062      11063      11074      11073      11183      11184      11195      11194  
     11063      11064      11075      11074      11184      11185      11196      11195  
     11064      11065      11076      11075      11185      11186      11197      11196  
     11065      11066      11077      11076      11186      11187      11198      11197  
     11067      11068      11079      11078      11188      11189      11200      11199  
     11068      11069      11080      11079      11189      11190      11201      11200  
     11069      11070      11081      11080      11190      11191      11202      11201  
     11070      11071      11082      11081      11191      11192      11203      11202  
     11071      11072      11083      11082      11192      11193      11204      11203  
     11072      11073      11084      11083      11193      11194      11205      11204  
     11073      11074      11085      11084      11194      11195      11206      11205  
     11074      11075      11086      11085      11195      11196      11207      11206  
     11075      11076      11087      11086      11196      11197      11208      11207  
     11076      11077      11088      11087      11197      11198      11209      11208  
     11078      11079      11090      11089      11199      11200      11211      11210  
     11079      11080      11091      11090      11200      11201      11212      11211  
     11080      11081      11092      11091      11201      11202      11213      11212  
     11081      11082      11093      11092      11202      11203      11214      11213  
     11082      11083      11094      11093      11203      11204      11215      11214  
     11083      11084      11095      11094      11204      11205      11216      11215  
     11084      11085      11096      11095      11205      11206      11217      11216  
     11085      11086      11097      11096      11206      11207      11218      11217  
     11086      11087      11098      11097      11207      11208      11219      11218  
     11087      11088      11099      11098      11208      11209      11220      11219  
     11089      11090      11101      11100      11210      11211      11222      11221  
     11090      11091      11102      11101      11211      11212      11223      11222  
     11091      11092      11103      11102      11212      11213      11224      11223  
     11092      11093      11104      11103      11213      11214      11225      11224  
     11093      11094      11105      11104      11214      11215      11226      11225  
     11094      11095      11106      11105      11215      11216      11227      11226  
     11095      11096      11107      11106      11216      11217      11228      11227  
     11096      11097      11108      11107      11217      11218      11229      11228  
     11097      11098      11109      11108      11218      11219      11230      11229  
     11098      11099      11110      11109      11219      11220      11231      11230  
     11100      11101      11112      11111      11221      11222      11233      11232  
     11101      11102      11113      11112      11222      11223      11234      11233  
     11102      11103      11114      11113      11223      11224      11235      11234  
     11103      11104      11115      11114      11224      11225      11236      11235  
     11104      11105      11116      11115      11225      11226      11237      11236  
     11105      11106      11117      11116      11226      11227      11238      11237  
     11106      11107      11118      11117      11227      11228      11239      11238  
     11107      11108      11119      11118      11228      11229      11240      11239  
     11108      11109      11120      11119      11229      11230      11241      11240  
     11109      11110      11121      11120      11230      11231      11242      11241  
     11111      11112      11123      11122      11232      11233      11244      11243  
     11112      11113      11124      11123      11233      11234      11245      11244  
     11113      11114      11125      11124      11234      11235      11246      11245  
     11114      11115      11126      11125      11235      11236      11247      11246  
     11115      11116      11127      11126      11236      11237      11248      11247  
     11116      11117      11128      11127      11237      11238      11249      11248  
     11117      11118      11129      11128      11238      11239      11250      11249  
     11118      11119      11130      11129      11239      11240      11251      11250  
     11119      11120      11131      11130      11240      11241      11252      11251  
     11120      11121      11132      11131      11241      11242      11253      11252  
     11133      11134      11145      11144      11254      11255      11266      11265  
     11134      11135      11146      11145      11255      11256      11267      11266  
     11135      11136      11147      11146      11256      11257      11268      11267  
     11136      11137      11148      11147      11257      11258      11269      11268  
     11137      11138      11149      11148      11258      11259      11270      11269  
     11138      11139      11150      11149      11259      11260      11271      11270  
     11139      11140      11151      11150      11260      11261      11272      11271  
     11140      11141      11152      11151      11261      11262      11273      11272  
     11141      11142      11153      11152      11262      11263      11274      11273  
     11142      11143      11154      11153      11263      11264      11275      11274  
     11144      11145      11156      11155      11265      11266      11277      11276  
     11145      11146      11157      11156      11266      11267      11278      11277  
     11146      11147      11158      11157      11267      11268      11279      11278  
     11147      11148      11159      11158      11268      11269      11280      11279  
     11148      11149      11160      11159      11269      11270      11281      11280  
     11149      11150      11161      11160      11270      11271      11282      11281  
     11150      11151      11162      11161      11271      11272      11283      11282  
     11151      11152      11163      11162      11272      11273      11284      11283  
     11152      11153      11164      11163      11273      11274      11285      11284  
     11153      11154      11165      11164      11274      11275      11286      11285  
     11155      11156      11167      11166      11276      11277      11288      11287  
     11156      11157      11168      11167      11277      11278      11289      11288  
     11157      11158      11169      11168      11278      11279      11290      11289  
     11158      11159      11170      11169      11279      11280      11291      11290  
     11159      11160      11171      11170      11280      11281      11292      11291  
     11160      11161      11172      11171      11281      11282      11293      11292  
     11161      11162      11173      11172      11282      11283      11294      11293  
     11162      11163      11174      11173      11283      11284      11295      11294  
     11163      11164      11175      11174      11284      11285      11296      11295  
     11164      11165      11176      11175      11285      11286      11297      11296  
     11166      11167      11178      11177      11287      11288      11299      11298  
     11167      11168      11179      11178      11288      11289      11300      11299  
     11168      11169      11180      11179      11289      11290      11301      11300  
     11169      11170      11181      11180      11290      11291      11302      11301  
     11170      11171      11182      11181      11291      11292      11303      11302  
     11171      11172      11183      11182      11292      11293      11304      11303  
     11172      11173      11184      11183      11293      11294      11305      11304  
     11173      11174      11185      11184      11294      11295      11306      11305  
     11174      11175      11186      11185      11295      11296      11307      11306  
     11175      11176      11187      11186      11296      11297      11308      11307  
     11177      11178      11189      11188      11298      11299      11310      11309  
     11178      11179      11190      11189      11299      11300      11311      11310  
     11179      11180      11191      11190      11300      11301      11312      11311  
     11180      11181      11192      11191      11301      11302      11313      11312  
     11181      11182      11193      11192      11302      11303      11314      11313  
     11182      11183      11194      11193      11303      11304      11315      11314  
     11183      11184      11195      11194      11304      11305      11316      11315  
     11184      11185      11196      11195      11305      11306      11317      11316  
     11185      11186      11197      11196      11306      11307      11318      11317  
     11186      11187      11198      11197      11307      11308      11319      11318  
     11188      11189      11200      11199      11309      11310      11321      11320  
     11189      11190      11201      11200      11310      11311      11322      11321  
     11190      11191      11202      11201      11311      11312      11323      11322  
     11191      11192      11203      11202      11312      11313      11324      11323  
     11192      11193      11204      11203      11313      11314      11325      11324  
     11193      11194      11205      11204      11314      11315      11326      11325  
     11194      11195      11206      11205      11315      11316      11327      11326  
     11195      11196      11207      11206      11316      11317      11328      11327  
     11196      11197      11208      11207      11317      11318      11329      11328  
     11197      11198      11209      11208      11318      11319      11330      11329  
     11199      11200      11211      11210      11320      11321      11332      11331  
     11200      11201      11212      11211      11321      11322      11333      11332  
     11201      11202      11213      11212      11322      11323      11334      11333  
     11202      11203      11214      11213      11323      11324      11335      11334  
     11203      11204      11215      11214      11324      11325      11336      11335  
     11204      11205      11216      11215      11325      11326      11337      11336  
     11205      11206      11217      11216      11326      11327      11338      11337  
     11206      11207      11218      11217      11327      11328      11339      11338  
     11207      11208      11219      11218      11328      11329      11340      11339  
     11208      11209      11220      11219      11329      11330      11341      11340  
     11210      11211      11222      11221      11331      11332      11343      11342  
     11211      11212      11223      11222      11332      11333      11344      11343  
     11212      11213      11224      11223      11333      11334      11345      11344  
     11213      11214      11225      11224      11334      11335      11346      11345  
     11214      11215      11226      11225      11335      11336      11347      11346  
     11215      11216      11227      11226      11336      11337      11348      11347  
     11216      11217      11228      11227      11337      11338      11349      11348  
     11217      11218      11229      11228      11338      11339      11350      11349  
     11218      11219      11230      11229      11339      11340      11351      11350  
     11219      11220      11231      11230      11340      11341      11352      11351  
     11221      11222      11233      11232      11342      11343      11354      11353  
     11222      11223      11234      11233      11343      11344      11355      11354  
     11223      11224      11235      11234      11344      11345      11356      11355  
     11224      11225      11236      11235      11345      11346      11357      11356  
     11225      11226      11237      11236      11346      11347      11358      11357  
     11226      11227      11238      11237      11347      11348      11359      11358  
     11227      11228      11239      11238      11348      11349      11360      11359  
     11228      11229      11240      11239      11349      11350      11361      11360  
     11229      11230      11241      11240      11350      11351      11362      11361  
     11230      11231      11242      11241      11351      11352      11363      11362  
     11232      11233      11244      11243      11353      11354      11365      11364  
     11233      11234      11245      11244      11354      11355      11366      11365  
     11234      11235      11246      11245      11355      11356      11367      11366  
     11235      11236      11247      11246      11356      11357      11368      11367  
     11236      11237      11248      11247      11357      11358      11369      11368  
     11237      11238      11249      11248      11358      11359      11370      11369  
     11238      11239      11250      11249      11359      11360      11371      11370  
     11239      11240      11251      11250      11360      11361      11372      11371  
     11240      11241      11252      11251      11361      11362      11373      11372  
     11241      11242      11253      11252      11362      11363      11374      11373  
     11254      11255      11266      11265      11375      11376      11387      11386  
     11255      11256      11267      11266      11376      11377      11388      11387  
     11256      11257      11268      11267      11377      11378      11389      11388  
     11257      11258      11269      11268      11378      11379      11390      11389  
     11258      11259      11270      11269      11379      11380      11391      11390  
     11259      11260      11271      11270      11380      11381      11392      11391  
     11260      11261      11272      11271      11381      11382      11393      11392  
     11261      11262      11273      11272      11382      11383      11394      11393  
     11262      11263      11274      11273      11383      11384      11395      11394  
     11263      11264      11275      11274      11384      11385      11396      11395  
     11265      11266      11277      11276      11386      11387      11398      11397  
     11266      11267      11278      11277      11387      11388      11399      11398  
     11267      11268      11279      11278      11388      11389      11400      11399  
     11268      11269      11280      11279      11389      11390      11401      11400  
     11269      11270      11281      11280      11390      11391      11402      11401  
     11270      11271      11282      11281      11391      11392      11403      11402  
     11271      11272      11283      11282      11392      11393      11404      11403  
     11272      11273      11284      11283      11393      11394      11405      11404  
     11273      11274      11285      11284      11394      11395      11406      11405  
     11274      11275      11286      11285      11395      11396      11407      11406  
     11276      11277      11288      11287      11397      11398      11409      11408  
     11277      11278      11289      11288      11398      11399      11410      11409  
     11278      11279      11290      11289      11399      11400      11411      11410  
     11279      11280      11291      11290      11400      11401      11412      11411  
     11280      11281      11292      11291      11401      11402      11413      11412  
     11281      11282      11293      11292      11402      11403      11414      11413  
     11282      11283      11294      11293      11403      11404      11415      11414  
     11283      11284      11295      11294      11404      11405      11416      11415  
     11284      11285      11296      11295      11405      11406      11417      11416  
     11285      11286      11297      11296      11406      11407      11418      11417  
     11287      11288      11299      11298      11408      11409      11420      11419  
     11288      11289      11300      11299      11409      11410      11421      11420  
     11289      11290      11301      11300      11410      11411      11422      11421  
     11290      11291      11302      11301      11411      11412      11423      11422  
     11291      11292      11303      11302      11412      11413      11424      11423  
     11292      11293      11304      11303      11413      11414      11425      11424  
     11293      11294      11305      11304      11414      11415      11426      11425  
     11294      11295      11306      11305      11415      11416      11427      11426  
     11295      11296      11307      11306      11416      11417      11428      11427  
     11296      11297      11308      11307      11417      11418      11429      11428  
     11298      11299      11310      11309      11419      11420      11431      11430  
     11299      11300      11311      11310      11420      11421      11432      11431  
     11300      11301      11312      11311      11421      11422      11433      11432  
     11301      11302      11313      11312      11422      11423      11434      11433  
     11302      11303      11314      11313      11423      11424      11435      11434  
     11303      11304      11315      11314      11424      11425      11436      11435  
     11304      11305      11316      11315      11425      11426      11437      11436  
     11305      11306      11317      11316      11426      11427      11438      11437  
     11306      11307      11318      11317      11427      11428      11439      11438  
     11307      11308      11319      11318      11428      11429      11440      11439  
     11309      11310      11321      11320      11430      11431      11442      11441  
     11310      11311      11322      11321      11431      11432      11443      11442  
     11311      11312      11323      11322      11432      11433      11444      11443  
     11312      11313      11324      11323      11433      11434      11445      11444  
     11313      11314      11325      11324      11434      11435      11446      11445  
     11314      11315      11326      11325      11435      11436      11447      11446  
     11315      11316      11327      11326      11436      11437      11448      11447  
     11316      11317      11328      11327      11437      11438      11449      11448  
     11317      11318      11329      11328      11438      11439      11450      11449  
     11318      11319      11330      11329      11439      11440      11451      11450  
     11320      11321      11332      11331      11441      11442      11453      11452  
     11321      11322      11333      11332      11442      11443      11454      11453  
     11322      11323      11334      11333      11443      11444      11455      11454  
     11323      11324      11335      11334      11444      11445      11456      11455  
     11324      11325      11336      11335      11445      11446      11457      11456  
     11325      11326      11337      11336      11446      11447      11458      11457  
     11326      11327      11338      11337      11447      11448      11459      11458  
     11327      11328      11339      11338      11448      11449      11460      11459  
     11328      11329      11340      11339      11449      11450      11461      11460  
     11329      11330      11341      11340      11450      11451      11462      11461  
     11331      11332      11343      11342      11452      11453      11464      11463  
     11332      11333      11344      11343      11453      11454      11465      11464  
     11333      11334      11345      11344      11454      11455      11466      11465  
     11334      11335      11346      11345      11455      11456      11467      11466  
     11335      11336      11347      11346      11456      11457      11468      11467  
     11336      11337      11348      11347      11457      11458      11469      11468  
     11337      11338      11349      11348      11458      11459      11470      11469  
     11338      11339      11350      11349      11459      11460      11471      11470  
     11339      11340      11351      11350      11460      11461      11472      11471  
     11340      11341      11352      11351      11461      11462      11473      11472  
     11342      11343      11354      11353      11463      11464      11475      11474  
     11343      11344      11355      11354      11464      11465      11476      11475  
     11344      11345      11356      11355      11465      11466      11477      11476  
     11345      11346      11357      11356      11466      11467      11478      11477  
     11346      11347      11358      11357      11467      11468      11479      11478  
     11347      11348      11359      11358      11468      11469      11480      11479  
     11348      11349      11360      11359      11469      11470      11481      11480  
     11349      11350      11361      11360      11470      11471      11482      11481  
     11350      11351      11362      11361      11471      11472      11483      11482  
     11351      11352      11363      11362      11472      11473      11484      11483  
     11353      11354      11365      11364      11474      11475      11486      11485  
     11354      11355      11366      11365      11475      11476      11487      11486  
     11355      11356      11367      11366      11476      11477      11488      11487  
     11356      11357      11368      11367      11477      11478      11489      11488  
     11357      11358      11369      11368      11478      11479      11490      11489  
     11358      11359      11370      11369      11479      11480      11491      11490  
     11359      11360      11371      11370      11480      11481      11492      11491  
     11360      11361      11372      11371      11481      11482      11493      11492  
     11361      11362      11373      11372      11482      11483      11494      11493  
     11362      11363      11374      11373      11483      11484      11495      11494  
     11375      11376      11387      11386      11496      11497      11508      11507  
     11376      11377      11388      11387      11497      11498      11509      11508  
     11377      11378      11389      11388      11498      11499      11510      11509  
     11378      11379      11390      11389      11499      11500      11511      11510  
     11379      11380      11391      11390      11500      11501      11512      11511  
     11380      11381      11392      11391      11501      11502      11513      11512  
     11381      11382      11393      11392      11502      11503      11514      11513  
     11382      11383      11394      11393      11503      11504      11515      11514  
     11383      11384      11395      11394      11504      11505      11516      11515  
     11384      11385      11396      11395      11505      11506      11517      11516  
     11386      11387      11398      11397      11507      11508      11519      11518  
     11387      11388      11399      11398      11508      11509      11520      11519  
     11388      11389      11400      11399      11509      11510      11521      11520  
     11389      11390      11401      11400      11510      11511      11522      11521  
     11390      11391      11402      11401      11511      11512      11523      11522  
     11391      11392      11403      11402      11512      11513      11524      11523  
     11392      11393      11404      11403      11513      11514      11525      11524  
     11393      11394      11405      11404      11514      11515      11526      11525  
     11394      11395      11406      11405      11515      11516      11527      11526  
     11395      11396      11407      11406      11516      11517      11528      11527  
     11397      11398      11409      11408      11518      11519      11530      11529  
     11398      11399      11410      11409      11519      11520      11531      11530  
     11399      11400      11411      11410      11520      11521      11532      11531  
     11400      11401      11412      11411      11521      11522      11533      11532  
     11401      11402      11413      11412      11522      11523      11534      11533  
     11402      11403      11414      11413      11523      11524      11535      11534  
     11403      11404      11415      11414      11524      11525      11536      11535  
     11404      11405      11416      11415      11525      11526      11537      11536  
     11405      11406      11417      11416      11526      11527      11538      11537  
     11406      11407      11418      11417      11527      11528      11539      11538  
     11408      11409      11420      11419      11529      11530      11541      11540  
     11409      11410      11421      11420      11530      11531      11542      11541  
     11410      11411      11422      11421      11531      11532      11543      11542  
     11411      11412      11423      11422      11532      11533      11544      11543  
     11412      11413      11424      11423      11533      11534      11545      11544  
     11413      11414      11425      11424      11534      11535      11546      11545  
     11414      11415      11426      11425      11535      11536      11547      11546  
     11415      11416      11427      11426      11536      11537      11548      11547  
     11416      11417      11428      11427      11537      11538      11549      11548  
     11417      11418      11429      11428      11538      11539      11550      11549  
     11419      11420      11431      11430      11540      11541      11552      11551  
     11420      11421      11432      11431      11541      11542      11553      11552  
     11421      11422      11433      11432      11542      11543      11554      11553  
     11422      11423      11434      11433      11543      11544      11555      11554  
     11423      11424      11435      11434      11544      11545      11556      11555  
     11424      11425      11436      11435      11545      11546      11557      11556  
     11425      11426      11437      11436      11546      11547      11558      11557  
     11426      11427      11438      11437      11547      11548      11559      11558  
     11427      11428      11439      11438      11548      11549      11560      11559  
     11428      11429      11440      11439      11549      11550      11561      11560  
     11430      11431      11442      11441      11551      11552      11563      11562  
     11431      11432      11443      11442      11552      11553      11564      11563  
     11432      11433      11444      11443      11553      11554      11565      11564  
     11433      11434      11445      11444      11554      11555      11566      11565  
     11434      11435      11446      11445      11555      11556      11567      11566  
     11435      11436      11447      11446      11556      11557      11568      11567  
     11436      11437      11448      11447      11557      11558      11569      11568  
     11437      11438      11449      11448      11558      11559      11570      11569  
     11438      11439      11450      11449      11559      11560      11571      11570  
     11439      11440      11451      11450      11560      11561      11572      11571  
     11441      11442      11453      11452      11562      11563      11574      11573  
     11442      11443      11454      11453      11563      11564      11575      11574  
     11443      11444      11455      11454      11564      11565      11576      11575  
     11444      11445      11456      11455      11565      11566      11577      11576  
     11445      11446      11457      11456      11566      11567      11578      11577  
     11446      11447      11458      11457      11567      11568      11579      11578  
     11447      11448      11459      11458      11568      11569      11580      11579  
     11448      11449      11460      11459      11569      11570      11581      11580  
     11449      11450      11461      11460      11570      11571      11582      11581  
     11450      11451      11462      11461      11571      11572      11583      11582  
     11452      11453      11464      11463      11573      11574      11585      11584  
     11453      11454      11465      11464      11574      11575      11586      11585  
     11454      11455      11466      11465      11575      11576      11587      11586  
     11455      11456      11467      11466      11576      11577      11588      11587  
     11456      11457      11468      11467      11577      11578      11589      11588  
     11457      11458      11469      11468      11578      11579      11590      11589  
     11458      11459      11470      11469      11579      11580      11591      11590  
     11459      11460      11471      11470      11580      11581      11592      11591  
     11460      11461      11472      11471      11581      11582      11593      11592  
     11461      11462      11473      11472      11582      11583      11594      11593  
     11463      11464      11475      11474      11584      11585      11596      11595  
     11464      11465      11476      11475      11585      11586      11597      11596  
     11465      11466      11477      11476      11586      11587      11598      11597  
     11466      11467      11478      11477      11587      11588      11599      11598  
     11467      11468      11479      11478      11588      11589      11600      11599  
     11468      11469      11480      11479      11589      11590      11601      11600  
     11469      11470      11481      11480      11590      11591      11602      11601  
     11470      11471      11482      11481      11591      11592      11603      11602  
     11471      11472      11483      11482      11592      11593      11604      11603  
     11472      11473      11484      11483      11593      11594      11605      11604  
     11474      11475      11486      11485      11595      11596      11607      11606  
     11475      11476      11487      11486      11596      11597      11608      11607  
     11476      11477      11488      11487      11597      11598      11609      11608  
     11477      11478      11489      11488      11598      11599      11610      11609  
     11478      11479      11490      11489      11599      11600      11611      11610  
     11479      11480      11491      11490      11600      11601      11612      11611  
     11480      11481      11492      11491      11601      11602      11613      11612  
     11481      11482      11493      11492      11602      11603      11614      11613  
     11482      11483      11494      11493      11603      11604      11615      11614  
     11483      11484      11495      11494      11604      11605      11616      11615  
     11496      11497      11508      11507      11617      11618      11629      11628  
     11497      11498      11509      11508      11618      11619      11630      11629  
     11498      11499      11510      11509      11619      11620      11631      11630  
     11499      11500      11511      11510      11620      11621      11632      11631  
     11500      11501      11512      11511      11621      11622      11633      11632  
     11501      11502      11513      11512      11622      11623      11634      11633  
     11502      11503      11514      11513      11623      11624      11635      11634  
     11503      11504      11515      11514      11624      11625      11636      11635  
     11504      11505      11516      11515      11625      11626      11637      11636  
     11505      11506      11517      11516      11626      11627      11638      11637  
     11507      11508      11519      11518      11628      11629      11640      11639  
     11508      11509      11520      11519      11629      11630      11641      11640  
     11509      11510      11521      11520      11630      11631      11642      11641  
     11510      11511      11522      11521      11631      11632      11643      11642  
     11511      11512      11523      11522      11632      11633      11644      11643  
     11512      11513      11524      11523      11633      11634      11645      11644  
     11513      11514      11525      11524      11634      11635      11646      11645  
     11514      11515      11526      11525      11635      11636      11647      11646  
     11515      11516      11527      11526      11636      11637      11648      11647  
     11516      11517      11528      11527      11637      11638      11649      11648  
     11518      11519      11530      11529      11639      11640      11651      11650  
     11519      11520      11531      11530      11640      11641      11652      11651  
     11520      11521      11532      11531      11641      11642      11653      11652  
     11521      11522      11533      11532      11642      11643      11654      11653  
     11522      11523      11534      11533      11643      11644      11655      11654  
     11523      11524      11535      11534      11644      11645      11656      11655  
     11524      11525      11536      11535      11645      11646      11657      11656  
     11525      11526      11537      11536      11646      11647      11658      11657  
     11526      11527      11538      11537      11647      11648      11659      11658  
     11527      11528      11539      11538      11648      11649      11660      11659  
     11529      11530      11541      11540      11650      11651      11662      11661  
     11530      11531      11542      11541      11651      11652      11663      11662  
     11531      11532      11543      11542      11652      11653      11664      11663  
     11532      11533      11544      11543      11653      11654      11665      11664  
     11533      11534      11545      11544      11654      11655      11666      11665  
     11534      11535      11546      11545      11655      11656      11667      11666  
     11535      11536      11547      11546      11656      11657      11668      11667  
     11536      11537      11548      11547      11657      11658      11669      11668  
     11537      11538      11549      11548      11658      11659      11670      11669  
     11538      11539      11550      11549      11659      11660      11671      11670  
     11540      11541      11552      11551      11661      11662      11673      11672  
     11541      11542      11553      11552      11662      11663      11674      11673  
     11542      11543      11554      11553      11663      11664      11675      11674  
     11543      11544      11555      11554      11664      11665      11676      11675  
     11544      11545      11556      11555      11665      11666      11677      11676  
     11545      11546      11557      11556      11666      11667      11678      11677  
     11546      11547      11558      11557      11667      11668      11679      11678  
     11547      11548      11559      11558      11668      11669      11680      11679  
     11548      11549      11560      11559      11669      11670      11681      11680  
     11549      11550      11561      11560      11670      11671      11682      11681  
     11551      11552      11563      11562      11672      11673      11684      11683  
     11552      11553      11564      11563      11673      11674      11685      11684  
     11553      11554      11565      11564      11674      11675      11686      11685  
     11554      11555      11566      11565      11675      11676      11687      11686  
     11555      11556      11567      11566      11676      11677      11688      11687  
     11556      11557      11568      11567      11677      11678      11689      11688  
     11557      11558      11569      11568      11678      11679      11690      11689  
     11558      11559      11570      11569      11679      11680      11691      11690  
     11559      11560      11571      11570      11680      11681      11692      11691  
     11560      11561      11572      11571      11681      11682      11693      11692  
     11562      11563      11574      11573      11683      11684      11695      11694  
     11563      11564      11575      11574      11684      11685      11696      11695  
     11564      11565      11576      11575      11685      11686      11697      11696  
     11565      11566      11577      11576      11686      11687      11698      11697  
     11566      11567      11578      11577      11687      11688      11699      11698  
     11567      11568      11579      11578      11688      11689      11700      11699  
     11568      11569      11580      11579      11689      11690      11701      11700  
     11569      11570      11581      11580      11690      11691      11702      11701  
     11570      11571      11582      11581      11691      11692      11703      11702  
     11571      11572      11583      11582      11692      11693      11704      11703  
     11573      11574      11585      11584      11694      11695      11706      11705  
     11574      11575      11586      11585      11695      11696      11707      11706  
     11575      11576      11587      11586      11696      11697      11708      11707  
     11576      11577      11588      11587      11697      11698      11709      11708  
     11577      11578      11589      11588      11698      11699      11710      11709  
     11578      11579      11590      11589      11699      11700      11711      11710  
     11579      11580      11591      11590      11700      11701      11712      11711  
     11580      11581      11592      11591      11701      11702      11713      11712  
     11581      11582      11593      11592      11702      11703      11714      11713  
     11582      11583      11594      11593      11703      11704      11715      11714  
     11584      11585      11596      11595      11705      11706      11717      11716  
     11585      11586      11597      11596      11706      11707      11718      11717  
     11586      11587      11598      11597      11707      11708      11719      11718  
     11587      11588      11599      11598      11708      11709      11720      11719  
     11588      11589      11600      11599      11709      11710      11721      11720  
     11589      11590      11601      11600      11710      11711      11722      11721  
     11590      11591      11602      11601      11711      11712      11723      11722  
     11591      11592      11603      11602      11712      11713      11724      11723  
     11592      11593      11604      11603      11713      11714      11725      11724  
     11593      11594      11605      11604      11714      11715      11726      11725  
     11595      11596      11607      11606      11716      11717      11728      11727  
     11596      11597      11608      11607      11717      11718      11729      11728  
     11597      11598      11609      11608      11718      11719      11730      11729  
     11598      11599      11610      11609      11719      11720      11731      11730  
     11599      11600      11611      11610      11720      11721      11732      11731  
     11600      11601      11612      11611      11721      11722      11733      11732  
     11601      11602      11613      11612      11722      11723      11734      11733  
     11602      11603      11614      11613      11723      11724      11735      11734  
     11603      11604      11615      11614      11724      11725      11736      11735  
     11604      11605      11616      11615      11725      11726      11737      11736  
     11617      11618      11629      11628      11738      11739      11750      11749  
     11618      11619      11630      11629      11739      11740      11751      11750  
     11619      11620      11631      11630      11740      11741      11752      11751  
     11620      11621      11632      11631      11741      11742      11753      11752  
     11621      11622      11633      11632      11742      11743      11754      11753  
     11622      11623      11634      11633      11743      11744      11755      11754  
     11623      11624      11635      11634      11744      11745      11756      11755  
     11624      11625      11636      11635      11745      11746      11757      11756  
     11625      11626      11637      11636      11746      11747      11758      11757  
     11626      11627      11638      11637      11747      11748      11759      11758  
     11628      11629      11640      11639      11749      11750      11761      11760  
     11629      11630      11641      11640      11750      11751      11762      11761  
     11630      11631      11642      11641      11751      11752      11763      11762  
     11631      11632      11643      11642      11752      11753      11764      11763  
     11632      11633      11644      11643      11753      11754      11765      11764  
     11633      11634      11645      11644      11754      11755      11766      11765  
     11634      11635      11646      11645      11755      11756      11767      11766  
     11635      11636      11647      11646      11756      11757      11768      11767  
     11636      11637      11648      11647      11757      11758      11769      11768  
     11637      11638      11649      11648      11758      11759      11770      11769  
     11639      11640      11651      11650      11760      11761      11772      11771  
     11640      11641      11652      11651      11761      11762      11773      11772  
     11641      11642      11653      11652      11762      11763      11774      11773  
     11642      11643      11654      11653      11763      11764      11775      11774  
     11643      11644      11655      11654      11764      11765      11776      11775  
     11644      11645      11656      11655      11765      11766      11777      11776  
     11645      11646      11657      11656      11766      11767      11778      11777  
     11646      11647      11658      11657      11767      11768      11779      11778  
     11647      11648      11659      11658      11768      11769      11780      11779  
     11648      11649      11660      11659      11769      11770      11781      11780  
     11650      11651      11662      11661      11771      11772      11783      11782  
     11651      11652      11663      11662      11772      11773      11784      11783  
     11652      11653      11664      11663      11773      11774      11785      11784  
     11653      11654      11665      11664      11774      11775      11786      11785  
     11654      11655      11666      11665      11775      11776      11787      11786  
     11655      11656      11667      11666      11776      11777      11788      11787  
     11656      11657      11668      11667      11777      11778      11789      11788  
     11657      11658      11669      11668      11778      11779      11790      11789  
     11658      11659      11670      11669      11779      11780      11791      11790  
     11659      11660      11671      11670      11780      11781      11792      11791  
     11661      11662      11673      11672      11782      11783      11794      11793  
     11662      11663      11674      11673      11783      11784      11795      11794  
     11663      11664      11675      11674      11784      11785      11796      11795  
     11664      11665      11676      11675      11785      11786      11797      11796  
     11665      11666      11677      11676      11786      11787      11798      11797  
     11666      11667      11678      11677      11787      11788      11799      11798  
     11667      11668      11679      11678      11788      11789      11800      11799  
     11668      11669      11680      11679      11789      11790      11801      11800  
     11669      11670      11681      11680      11790      11791      11802      11801  
     11670      11671      11682      11681      11791      11792      11803      11802  
     11672      11673      11684      11683      11793      11794      11805      11804  
     11673      11674      11685      11684      11794      11795      11806      11805  
     11674      11675      11686      11685      11795      11796      11807      11806  
     11675      11676      11687      11686      11796      11797      11808      11807  
     11676      11677      11688      11687      11797      11798      11809      11808  
     11677      11678      11689      11688      11798      11799      11810      11809  
     11678      11679      11690      11689      11799      11800      11811      11810  
     11679      11680      11691      11690      11800      11801      11812      11811  
     11680      11681      11692      11691      11801      11802      11813      11812  
     11681      11682      11693      11692      11802      11803      11814      11813  
     11683      11684      11695      11694      11804      11805      11816      11815  
     11684      11685      11696      11695      11805      11806      11817      11816  
     11685      11686      11697      11696      11806      11807      11818      11817  
     11686      11687      11698      11697      11807      11808      11819      11818  
     11687      11688      11699      11698      11808      11809      11820      11819  
     11688      11689      11700      11699      11809      11810      11821      11820  
     11689      11690      11701      11700      11810      11811      11822      11821  
     11690      11691      11702      11701      11811      11812      11823      11822  
     11691      11692      11703      11702      11812      11813      11824      11823  
     11692      11693      11704      11703      11813      11814      11825      11824  
     11694      11695      11706      11705      11815      11816      11827      11826  
     11695      11696      11707      11706      11816      11817      11828      11827  
     11696      11697      11708      11707      11817      11818      11829      11828  
     11697      11698      11709      11708      11818      11819      11830      11829  
     11698      11699      11710      11709      11819      11820      11831      11830  
     11699      11700      11711      11710      11820      11821      11832      11831  
     11700      11701      11712      11711      11821      11822      11833      11832  
     11701      11702      11713      11712      11822      11823      11834      11833  
     11702      11703      11714      11713      11823      11824      11835      11834  
     11703      11704      11715      11714      11824      11825      11836      11835  
     11705      11706      11717      11716      11826      11827      11838      11837  
     11706      11707      11718      11717      11827      11828      11839      11838  
     11707      11708      11719      11718      11828      11829      11840      11839  
     11708      11709      11720      11719      11829      11830      11841      11840  
     11709      11710      11721      11720      11830      11831      11842      11841  
     11710      11711      11722      11721      11831      11832      11843      11842  
     11711      11712      11723      11722      11832      11833      11844      11843  
     11712      11713      11724      11723      11833      11834      11845      11844  
     11713      11714      11725      11724      11834      11835      11846      11845  
     11714      11715      11726      11725      11835      11836      11847      11846  
     11716      11717      11728      11727      11837      11838      11849      11848  
     11717      11718      11729      11728      11838      11839      11850      11849  
     11718      11719      11730      11729      11839      11840      11851      11850  
     11719      11720      11731      11730      11840      11841      11852      11851  
     11720      11721      11732      11731      11841      11842      11853      11852  
     11721      11722      11733      11732      11842      11843      11854      11853  
     11722      11723      11734      11733      11843      11844      11855      11854  
     11723      11724      11735      11734      11844      11845      11856      11855  
     11724      11725      11736      11735      11845      11846      11857      11856  
     11725      11726      11737      11736      11846      11847      11858      11857  
     11738      11739      11750      11749      11859      11860      11871      11870  
     11739      11740      11751      11750      11860      11861      11872      11871  
     11740      11741      11752      11751      11861      11862      11873      11872  
     11741      11742      11753      11752      11862      11863      11874      11873  
     11742      11743      11754      11753      11863      11864      11875      11874  
     11743      11744      11755      11754      11864      11865      11876      11875  
     11744      11745      11756      11755      11865      11866      11877      11876  
     11745      11746      11757      11756      11866      11867      11878      11877  
     11746      11747      11758      11757      11867      11868      11879      11878  
     11747      11748      11759      11758      11868      11869      11880      11879  
     11749      11750      11761      11760      11870      11871      11882      11881  
     11750      11751      11762      11761      11871      11872      11883      11882  
     11751      11752      11763      11762      11872      11873      11884      11883  
     11752      11753      11764      11763      11873      11874      11885      11884  
     11753      11754      11765      11764      11874      11875      11886      11885  
     11754      11755      11766      11765      11875      11876      11887      11886  
     11755      11756      11767      11766      11876      11877      11888      11887  
     11756      11757      11768      11767      11877      11878      11889      11888  
     11757      11758      11769      11768      11878      11879      11890      11889  
     11758      11759      11770      11769      11879      11880      11891      11890  
     11760      11761      11772      11771      11881      11882      11893      11892  
     11761      11762      11773      11772      11882      11883      11894      11893  
     11762      11763      11774      11773      11883      11884      11895      11894  
     11763      11764      11775      11774      11884      11885      11896      11895  
     11764      11765      11776      11775      11885      11886      11897      11896  
     11765      11766      11777      11776      11886      11887      11898      11897  
     11766      11767      11778      11777      11887      11888      11899      11898  
     11767      11768      11779      11778      11888      11889      11900      11899  
     11768      11769      11780      11779      11889      11890      11901      11900  
     11769      11770      11781      11780      11890      11891      11902      11901  
     11771      11772      11783      11782      11892      11893      11904      11903  
     11772      11773      11784      11783      11893      11894      11905      11904  
     11773      11774      11785      11784      11894      11895      11906      11905  
     11774      11775      11786      11785      11895      11896      11907      11906  
     11775      11776      11787      11786      11896      11897      11908      11907  
     11776      11777      11788      11787      11897      11898      11909      11908  
     11777      11778      11789      11788      11898      11899      11910      11909  
     11778      11779      11790      11789      11899      11900      11911      11910  
     11779      11780      11791      11790      11900      11901      11912      11911  
     11780      11781      11792      11791      11901      11902      11913      11912  
     11782      11783      11794      11793      11903      11904      11915      11914  
     11783      11784      11795      11794      11904      11905      11916      11915  
     11784      11785      11796      11795      11905      11906      11917      11916  
     11785      11786      11797      11796      11906      11907      11918      11917  
     11786      11787      11798      11797      11907      11908      11919      11918  
     11787      11788      11799      11798      11908      11909      11920      11919  
     11788      11789      11800      11799      11909      11910      11921      11920  
     11789      11790      11801      11800      11910      11911      11922      11921  
     11790      11791      11802      11801      11911      11912      11923      11922  
     11791      11792      11803      11802      11912      11913      11924      11923  
     11793      11794      11805      11804      11914      11915      11926      11925  
     11794      11795      11806      11805      11915      11916      11927      11926  
     11795      11796      11807      11806      11916      11917      11928      11927  
     11796      11797      11808      11807      11917      11918      11929      11928  
     11797      11798      11809      11808      11918      11919      11930      11929  
     11798      11799      11810      11809      11919      11920      11931      11930  
     11799      11800      11811      11810      11920      11921      11932      11931  
     11800      11801      11812      11811      11921      11922      11933      11932  
     11801      11802      11813      11812      11922      11923      11934      11933  
     11802      11803      11814      11813      11923      11924      11935      11934  
     11804      11805      11816      11815      11925      11926      11937      11936  
     11805      11806      11817      11816      11926      11927      11938      11937  
     11806      11807      11818      11817      11927      11928      11939      11938  
     11807      11808      11819      11818      11928      11929      11940      11939  
     11808      11809      11820      11819      11929      11930      11941      11940  
     11809      11810      11821      11820      11930      11931      11942      11941  
     11810      11811      11822      11821      11931      11932      11943      11942  
     11811      11812      11823      11822      11932      11933      11944      11943  
     11812      11813      11824      11823      11933      11934      11945      11944  
     11813      11814      11825      11824      11934      11935      11946      11945  
     11815      11816      11827      11826      11936      11937      11948      11947  
     11816      11817      11828      11827      11937      11938      11949      11948  
     11817      11818      11829      11828      11938      11939      11950      11949  
     11818      11819      11830      11829      11939      11940      11951      11950  
     11819      11820      11831      11830      11940      11941      11952      11951  
     11820      11821      11832      11831      11941      11942      11953      11952  
     11821      11822      11833      11832      11942      11943      11954      11953  
     11822      11823      11834      11833      11943      11944      11955      11954  
     11823      11824      11835      11834      11944      11945      11956      11955  
     11824      11825      11836      11835      11945      11946      11957      11956  
     11826      11827      11838      11837      11947      11948      11959      11958  
     11827      11828      11839      11838      11948      11949      11960      11959  
     11828      11829      11840      11839      11949      11950      11961      11960  
     11829      11830      11841      11840      11950      11951      11962      11961  
     11830      11831      11842      11841      11951      11952      11963      11962  
     11831      11832      11843      11842      11952      11953      11964      11963  
     11832      11833      11844      11843      11953      11954      11965      11964  
     11833      11834      11845      11844      11954      11955      11966      11965  
     11834      11835      11846      11845      11955      11956      11967      11966  
     11835      11836      11847      11846      11956      11957      11968      11967  
     11837      11838      11849      11848      11958      11959      11970      11969  
     11838      11839      11850      11849      11959      11960      11971      11970  
     11839      11840      11851      11850      11960      11961      11972      11971  
     11840      11841      11852      11851      11961      11962      11973      11972  
     11841      11842      11853      11852      11962      11963      11974      11973  
     11842      11843      11854      11853      11963      11964      11975      11974  
     11843      11844      11855      11854      11964      11965      11976      11975  
     11844      11845      11856      11855      11965      11966      11977      11976  
     11845      11846      11857      11856      11966      11967      11978      11977  
     11846      11847      11858      11857      11967      11968      11979      11978  
     11859      11860      11871      11870      11980      11981      11992      11991  
     11860      11861      11872      11871      11981      11982      11993      11992  
     11861      11862      11873      11872      11982      11983      11994      11993  
     11862      11863      11874      11873      11983      11984      11995      11994  
     11863      11864      11875      11874      11984      11985      11996      11995  
     11864      11865      11876      11875      11985      11986      11997      11996  
     11865      11866      11877      11876      11986      11987      11998      11997  
     11866      11867      11878      11877      11987      11988      11999      11998  
     11867      11868      11879      11878      11988      11989      12000      11999  
     11868      11869      11880      11879      11989      11990      12001      12000  
     11870      11871      11882      11881      11991      11992      12003      12002  
     11871      11872      11883      11882      11992      11993      12004      12003  
     11872      11873      11884      11883      11993      11994      12005      12004  
     11873      11874      11885      11884      11994      11995      12006      12005  
     11874      11875      11886      11885      11995      11996      12007      12006  
     11875      11876      11887      11886      11996      11997      12008      12007  
     11876      11877      11888      11887      11997      11998      12009      12008  
     11877      11878      11889      11888      11998      11999      12010      12009  
     11878      11879      11890      11889      11999      12000      12011      12010  
     11879      11880      11891      11890      12000      12001      12012      12011  
     11881      11882      11893      11892      12002      12003      12014      12013  
     11882      11883      11894      11893      12003      12004      12015      12014  
     11883      11884      11895      11894      12004      12005      12016      12015  
     11884      11885      11896      11895      12005      12006      12017      12016  
     11885      11886      11897      11896      12006      12007      12018      12017  
     11886      11887      11898      11897      12007      12008      12019      12018  
     11887      11888      11899      11898      12008      12009      12020      12019  
     11888      11889      11900      11899      12009      12010      12021      12020  
     11889      11890      11901      11900      12010      12011      12022      12021  
     11890      11891      11902      11901      12011      12012      12023      12022  
     11892      11893      11904      11903      12013      12014      12025      12024  
     11893      11894      11905      11904      12014      12015      12026      12025  
     11894      11895      11906      11905      12015      12016      12027      12026  
     11895      11896      11907      11906      12016      12017      12028      12027  
     11896      11897      11908      11907      12017      12018      12029      12028  
     11897      11898      11909      11908      12018      12019      12030      12029  
     11898      11899      11910      11909      12019      12020      12031      12030  
     11899      11900      11911      11910      12020      12021      12032      12031  
     11900      11901      11912      11911      12021      12022      12033      12032  
     11901      11902      11913      11912      12022      12023      12034      12033  
     11903      11904      11915      11914      12024      12025      12036      12035  
     11904      11905      11916      11915      12025      12026      12037      12036  
     11905      11906      11917      11916      12026      12027      12038      12037  
     11906      11907      11918      11917      12027      12028      12039      12038  
     11907      11908      11919      11918      12028      12029      12040      12039  
     11908      11909      11920      11919      12029      12030      12041      12040  
     11909      11910      11921      11920      12030      12031      12042      12041  
     11910      11911      11922      11921      12031      12032      12043      12042  
     11911      11912      11923      11922      12032      12033      12044      12043  
     11912      11913      11924      11923      12033      12034      12045      12044  
     11914      11915      11926      11925      12035      12036      12047      12046  
     11915      11916      11927      11926      12036      12037      12048      12047  
     11916      11917      11928      11927      12037      12038      12049      12048  
     11917      11918      11929      11928      12038      12039      12050      12049  
     11918      11919      11930      11929      12039      12040      12051      12050  
     11919      11920      11931      11930      12040      12041      12052      12051  
     11920      11921      11932      11931      12041      12042      12053      12052  
     11921      11922      11933      11932      12042      12043      12054      12053  
     11922      11923      11934      11933      12043      12044      12055      12054  
     11923      11924      11935      11934      12044      12045      12056      12055  
     11925      11926      11937      11936      12046      12047      12058      12057  
     11926      11927      11938      11937      12047      12048      12059      12058  
     11927      11928      11939      11938      12048      12049      12060      12059  
     11928      11929      11940      11939      12049      12050      12061      12060  
     11929      11930      11941      11940      12050      12051      12062      12061  
     11930      11931      11942      11941      12051      12052      12063      12062  
     11931      11932      11943      11942      12052      12053      12064      12063  
     11932      11933      11944      11943      12053      12054      12065      12064  
     11933      11934      11945      11944      12054      12055      12066      12065  
     11934      11935      11946      11945      12055      12056      12067      12066  
     11936      11937      11948      11947      12057      12058      12069      12068  
     11937      11938      11949      11948      12058      12059      12070      12069  
     11938      11939      11950      11949      12059      12060      12071      12070  
     11939      11940      11951      11950      12060      12061      12072      12071  
     11940      11941      11952      11951      12061      12062      12073      12072  
     11941      11942      11953      11952      12062      12063      12074      12073  
     11942      11943      11954      11953      12063      12064      12075      12074  
     11943      11944      11955      11954      12064      12065      12076      12075  
     11944      11945      11956      11955      12065      12066      12077      12076  
     11945      11946      11957      11956      12066      12067      12078      12077  
     11947      11948      11959      11958      12068      12069      12080      12079  
     11948      11949      11960      11959      12069      12070      12081      12080  
     11949      11950      11961      11960      12070      12071      12082      12081  
     11950      11951      11962      11961      12071      12072      12083      12082  
     11951      11952      11963      11962      12072      12073      12084      12083  
     11952      11953      11964      11963      12073      12074      12085      12084  
     11953      11954      11965      11964      12074      12075      12086      12085  
     11954      11955      11966      11965      12075      12076      12087      12086  
     11955      11956      11967      11966      12076      12077      12088      12087  
     11956      11957      11968      11967      12077      12078      12089      12088  
     11958      11959      11970      11969      12079      12080      12091      12090  
     11959      11960      11971      11970      12080      12081      12092      12091  
     11960      11961      11972      11971      12081      12082      12093      12092  
     11961      11962      11973      11972      12082      12083      12094      12093  
     11962      11963      11974      11973      12083      12084      12095      12094  
     11963      11964      11975      11974      12084      12085      12096      12095  
     11964      11965      11976      11975      12085      12086      12097      12096  
     11965      11966      11977      11976      12086      12087      12098      12097  
     11966      11967      11978      11977      12087      12088      12099      12098  
     11967      11968      11979      11978      12088      12089      12100      12099  
     11980      11981      11992      11991      12101      12102      12113      12112  
     11981      11982      11993      11992      12102      12103      12114      12113  
     11982      11983      11994      11993      12103      12104      12115      12114  
     11983      11984      11995      11994      12104      12105      12116      12115  
     11984      11985      11996      11995      12105      12106      12117      12116  
     11985      11986      11997      11996      12106      12107      12118      12117  
     11986      11987      11998      11997      12107      12108      12119      12118  
     11987      11988      11999      11998      12108      12109      12120      12119  
     11988      11989      12000      11999      12109      12110      12121      12120  
     11989      11990      12001      12000      12110      12111      12122      12121  
     11991      11992      12003      12002      12112      12113      12124      12123  
     11992      11993      12004      12003      12113      12114      12125      12124  
     11993      11994      12005      12004      12114      12115      12126      12125  
     11994      11995      12006      12005      12115      12116      12127      12126  
     11995      11996      12007      12006      12116      12117      12128      12127  
     11996      11997      12008      12007      12117      12118      12129      12128  
     11997      11998      12009      12008      12118      12119      12130      12129  
     11998      11999      12010      12009      12119      12120      12131      12130  
     11999      12000      12011      12010      12120      12121      12132      12131  
     12000      12001      12012      12011      12121      12122      12133      12132  
     12002      12003      12014      12013      12123      12124      12135      12134  
     12003      12004      12015      12014      12124      12125      12136      12135  
     12004      12005      12016      12015      12125      12126      12137      12136  
     12005      12006      12017      12016      12126      12127      12138      12137  
     12006      12007      12018      12017      12127      12128      12139      12138  
     12007      12008      12019      12018      12128      12129      12140      12139  
     12008      12009      12020      12019      12129      12130      12141      12140  
     12009      12010      12021      12020      12130      12131      12142      12141  
     12010      12011      12022      12021      12131      12132      12143      12142  
     12011      12012      12023      12022      12132      12133      12144      12143  
     12013      12014      12025      12024      12134      12135      12146      12145  
     12014      12015      12026      12025      12135      12136      12147      12146  
     12015      12016      12027      12026      12136      12137      12148      12147  
     12016      12017      12028      12027      12137      12138      12149      12148  
     12017      12018      12029      12028      12138      12139      12150      12149  
     12018      12019      12030      12029      12139      12140      12151      12150  
     12019      12020      12031      12030      12140      12141      12152      12151  
     12020      12021      12032      12031      12141      12142      12153      12152  
     12021      12022      12033      12032      12142      12143      12154      12153  
     12022      12023      12034      12033      12143      12144      12155      12154  
     12024      12025      12036      12035      12145      12146      12157      12156  
     12025      12026      12037      12036      12146      12147      12158      12157  
     12026      12027      12038      12037      12147      12148      12159      12158  
     12027      12028      12039      12038      12148      12149      12160      12159  
     12028      12029      12040      12039      12149      12150      12161      12160  
     12029      12030      12041      12040      12150      12151      12162      12161  
     12030      12031      12042      12041      12151      12152      12163      12162  
     12031      12032      12043      12042      12152      12153      12164      12163  
     12032      12033      12044      12043      12153      12154      12165      12164  
     12033      12034      12045      12044      12154      12155      12166      12165  
     12035      12036      12047      12046      12156      12157      12168      12167  
     12036      12037      12048      12047      12157      12158      12169      12168  
     12037      12038      12049      12048      12158      12159      12170      12169  
     12038      12039      12050      12049      12159      12160      12171      12170  
     12039      12040      12051      12050      12160      12161      12172      12171  
     12040      12041      12052      12051      12161      12162      12173      12172  
     12041      12042      12053      12052      12162      12163      12174      12173  
     12042      12043      12054      12053      12163      12164      12175      12174  
     12043      12044      12055      12054      12164      12165      12176      12175  
     12044      12045      12056      12055      12165      12166      12177      12176  
     12046      12047      12058      12057      12167      12168      12179      12178  
     12047      12048      12059      12058      12168      12169      12180      12179  
     12048      12049      12060      12059      12169      12170      12181      12180  
     12049      12050      12061      12060      12170      12171      12182      12181  
     12050      12051      12062      12061      12171      12172      12183      12182  
     12051      12052      12063      12062      12172      12173      12184      12183  
     12052      12053      12064      12063      12173      12174      12185      12184  
     12053      12054      12065      12064      12174      12175      12186      12185  
     12054      12055      12066      12065      12175      12176      12187      12186  
     12055      12056      12067      12066      12176      12177      12188      12187  
     12057      12058      12069      12068      12178      12179      12190      12189  
     12058      12059      12070      12069      12179      12180      12191      12190  
     12059      12060      12071      12070      12180      12181      12192      12191  
     12060      12061      12072      12071      12181      12182      12193      12192  
     12061      12062      12073      12072      12182      12183      12194      12193  
     12062      12063      12074      12073      12183      12184      12195      12194  
     12063      12064      12075      12074      12184      12185      12196      12195  
     12064      12065      12076      12075      12185      12186      12197      12196  
     12065      12066      12077      12076      12186      12187      12198      12197  
     12066      12067      12078      12077      12187      12188      12199      12198  
     12068      12069      12080      12079      12189      12190      12201      12200  
     12069      12070      12081      12080      12190      12191      12202      12201  
     12070      12071      12082      12081      12191      12192      12203      12202  
     12071      12072      12083      12082      12192      12193      12204      12203  
     12072      12073      12084      12083      12193      12194      12205      12204  
     12073      12074      12085      12084      12194      12195      12206      12205  
     12074      12075      12086      12085      12195      12196      12207      12206  
     12075      12076      12087      12086      12196      12197      12208      12207  
     12076      12077      12088      12087      12197      12198      12209      12208  
     12077      12078      12089      12088      12198      12199      12210      12209  
     12079      12080      12091      12090      12200      12201      12212      12211  
     12080      12081      12092      12091      12201      12202      12213      12212  
     12081      12082      12093      12092      12202      12203      12214      12213  
     12082      12083      12094      12093      12203      12204      12215      12214  
     12083      12084      12095      12094      12204      12205      12216      12215  
     12084      12085      12096      12095      12205      12206      12217      12216  
     12085      12086      12097      12096      12206      12207      12218      12217  
     12086      12087      12098      12097      12207      12208      12219      12218  
     12087      12088      12099      12098      12208      12209      12220      12219  
     12088      12089      12100      12099      12209      12210      12221      12220  
